     Program PWSCF v.6.6 starts on 10Jul2022 at 15:27:43

     R & G space division:  proc/nbgrp/npool/nimage =      37
     Fft bands division:     nmany     =       1
     Reading input from Ag2Os2.in
Warning: card &CELL ignored
Warning: card / ignored

     Current dimensions of program PWSCF are:
     Max number of different atomic species (ntypx) = 10
     Max number of k-points (npk) =  40000
     Max angular momentum in pseudopotentials (lmaxx) =  3
     Presently stress not available with electric field and gates

     Message from routine cell_base_init:
     DEPRECATED: use true lattice parameter, not A to a.u. conversion factor

     IMPORTANT: XC functional enforced from input :
     Exchange-correlation= BEEF-VDW
                           (   1   4  43  14   2   0   0)
     Any further DFT definition will be discarded
     Please, verify this is what you really want

     Subspace diagonalization in iterative solution of the eigenvalue problem:
     a serial algorithm will be used

     bravais-lattice index     =            0
     lattice parameter (alat)  =       1.8897  a.u.
     unit-cell volume          =    4698.7934 (a.u.)^3
     number of atoms/cell      =           12
     number of atomic types    =            2
     number of electrons       =       162.00
     number of Kohn-Sham states=           97
     kinetic-energy cutoff     =      55.1240  Ry
     charge density cutoff     =     551.2396  Ry
     convergence threshold     =      1.0E-05
     mixing beta               =       0.1000
     number of iterations used =           10  plain     mixing
     Exchange-correlation= BEEF-VDW
                           (   1   4  43  14   2   0   0)

     celldm(1)=   1.889726  celldm(2)=   0.000000  celldm(3)=   0.000000
     celldm(4)=   0.000000  celldm(5)=   0.000000  celldm(6)=   0.000000

     crystal axes: (cart. coord. in units of alat)
               a(1) = (   5.305318   0.000000   0.000000 )
               a(2) = (  -2.652659   5.334484   0.000000 )
               a(3) = (   0.000000   0.000000  24.602883 )

     reciprocal axes: (cart. coord. in units 2 pi/alat)
               b(1) = (  0.188490  0.093730 -0.000000 )
               b(2) = (  0.000000  0.187460  0.000000 )
               b(3) = (  0.000000 -0.000000  0.040646 )

     PseudoPot. # 1 for Ag read from file:
     ../pseudo/Ag.pbe-n-rrkjus_psl.1.0.0.UPF
     MD5 check sum: d841cbfac2b0861aec33b46768a516bf
     Pseudo is Ultrasoft + core correction, Zval = 11.0
     Generated using "atomic" code by A. Dal Corso v.6.2.2
     Using radial grid of 1237 points,  6 beta functions with:
                l(1) =   0
                l(2) =   0
                l(3) =   1
                l(4) =   1
                l(5) =   2
                l(6) =   2
     Q(r) pseudized with 0 coefficients

     PseudoPot. # 2 for Os read from file:
     ../pseudo/Os.pbe-spn-rrkjus_psl.1.0.0.UPF
     MD5 check sum: 3e7416ed594f6513d36e5cb31ba709d9
     Pseudo is Ultrasoft + core correction, Zval = 16.0
     Generated using "atomic" code by A. Dal Corso v.6.2.2
     Using radial grid of 1275 points,  6 beta functions with:
                l(1) =   0
                l(2) =   0
                l(3) =   1
                l(4) =   1
                l(5) =   2
                l(6) =   2
     Q(r) pseudized with 0 coefficients

     atomic species   valence    mass     pseudopotential
        Ag            11.00   107.86820     Ag( 1.00)
        Os            16.00   190.23000     Os( 1.00)

     No symmetry found

   Cartesian axes

     site n.     atom                  positions (alat units)
         1           Ag  tau(   1) = (   0.0000000   0.0000000  10.0000000  )
         2           Ag  tau(   2) = (   2.6526591   0.0000000  10.0000000  )
         3           Os  tau(   3) = (   1.3263296   2.6672421  10.0000000  )
         4           Os  tau(   4) = (  -1.3263296   2.6672421  10.0000000  )
         5           Ag  tau(   5) = (   2.6526591   1.3190780  12.3014417  )
         6           Ag  tau(   6) = (   0.0000000   1.3190780  12.3014417  )
         7           Os  tau(   7) = (  -1.3263296   3.9863200  12.3014417  )
         8           Os  tau(   8) = (   1.3263296   3.9863200  12.3014417  )
         9           Ag  tau(   9) = (   0.0020270   0.3397652  14.9196032  )
        10           Ag  tau(  10) = (   2.6529781   0.3396771  14.9196325  )
        11           Os  tau(  11) = (   1.3275730   3.0909683  14.4495052  )
        12           Os  tau(  12) = (  -1.3251147   3.0911127  14.4486565  )

     number of k points=    74  Fermi-Dirac smearing, width (Ry)=  0.0100
                       cart. coord. in units 2pi/alat
        k(    1) = (   0.0000000   0.0000000   0.0000000), wk =   0.0138889
        k(    2) = (   0.0000000   0.0156216   0.0000000), wk =   0.0277778
        k(    3) = (   0.0000000   0.0312433   0.0000000), wk =   0.0277778
        k(    4) = (   0.0000000   0.0468649   0.0000000), wk =   0.0277778
        k(    5) = (   0.0000000   0.0624865   0.0000000), wk =   0.0277778
        k(    6) = (   0.0000000   0.0781081   0.0000000), wk =   0.0277778
        k(    7) = (   0.0000000  -0.0937298   0.0000000), wk =   0.0138889
        k(    8) = (   0.0157075   0.0078108   0.0000000), wk =   0.0277778
        k(    9) = (   0.0157075   0.0234324   0.0000000), wk =   0.0277778
        k(   10) = (   0.0157075   0.0390541   0.0000000), wk =   0.0277778
        k(   11) = (   0.0157075   0.0546757   0.0000000), wk =   0.0277778
        k(   12) = (   0.0157075   0.0702973   0.0000000), wk =   0.0277778
        k(   13) = (   0.0157075   0.0859190   0.0000000), wk =   0.0277778
        k(   14) = (   0.0157075  -0.0859190   0.0000000), wk =   0.0277778
        k(   15) = (   0.0157075  -0.0702973   0.0000000), wk =   0.0277778
        k(   16) = (   0.0157075  -0.0546757   0.0000000), wk =   0.0277778
        k(   17) = (   0.0157075  -0.0390541   0.0000000), wk =   0.0277778
        k(   18) = (   0.0157075  -0.0234324   0.0000000), wk =   0.0277778
        k(   19) = (   0.0157075  -0.0078108   0.0000000), wk =   0.0277778
        k(   20) = (   0.0314150   0.0156216   0.0000000), wk =   0.0277778
        k(   21) = (   0.0314150   0.0312433   0.0000000), wk =   0.0277778
        k(   22) = (   0.0314150   0.0468649   0.0000000), wk =   0.0277778
        k(   23) = (   0.0314150   0.0624865   0.0000000), wk =   0.0277778
        k(   24) = (   0.0314150   0.0781081   0.0000000), wk =   0.0277778
        k(   25) = (   0.0314150   0.0937298   0.0000000), wk =   0.0277778
        k(   26) = (   0.0314150  -0.0781081   0.0000000), wk =   0.0277778
        k(   27) = (   0.0314150  -0.0624865   0.0000000), wk =   0.0277778
        k(   28) = (   0.0314150  -0.0468649   0.0000000), wk =   0.0277778
        k(   29) = (   0.0314150  -0.0312433   0.0000000), wk =   0.0277778
        k(   30) = (   0.0314150  -0.0156216   0.0000000), wk =   0.0277778
        k(   31) = (   0.0314150  -0.0000000   0.0000000), wk =   0.0277778
        k(   32) = (   0.0471225   0.0234324   0.0000000), wk =   0.0277778
        k(   33) = (   0.0471225   0.0390541   0.0000000), wk =   0.0277778
        k(   34) = (   0.0471225   0.0546757   0.0000000), wk =   0.0277778
        k(   35) = (   0.0471225   0.0702973   0.0000000), wk =   0.0277778
        k(   36) = (   0.0471225   0.0859190   0.0000000), wk =   0.0277778
        k(   37) = (   0.0471225   0.1015406   0.0000000), wk =   0.0277778
        k(   38) = (   0.0471225  -0.0702973   0.0000000), wk =   0.0277778
        k(   39) = (   0.0471225  -0.0546757   0.0000000), wk =   0.0277778
        k(   40) = (   0.0471225  -0.0390541   0.0000000), wk =   0.0277778
        k(   41) = (   0.0471225  -0.0234324   0.0000000), wk =   0.0277778
        k(   42) = (   0.0471225  -0.0078108   0.0000000), wk =   0.0277778
        k(   43) = (   0.0471225   0.0078108   0.0000000), wk =   0.0277778
        k(   44) = (   0.0628300   0.0312433   0.0000000), wk =   0.0277778
        k(   45) = (   0.0628300   0.0468649   0.0000000), wk =   0.0277778
        k(   46) = (   0.0628300   0.0624865   0.0000000), wk =   0.0277778
        k(   47) = (   0.0628300   0.0781081   0.0000000), wk =   0.0277778
        k(   48) = (   0.0628300   0.0937298   0.0000000), wk =   0.0277778
        k(   49) = (   0.0628300   0.1093514   0.0000000), wk =   0.0277778
        k(   50) = (   0.0628300  -0.0624865   0.0000000), wk =   0.0277778
        k(   51) = (   0.0628300  -0.0468649   0.0000000), wk =   0.0277778
        k(   52) = (   0.0628300  -0.0312433   0.0000000), wk =   0.0277778
        k(   53) = (   0.0628300  -0.0156216   0.0000000), wk =   0.0277778
        k(   54) = (   0.0628300   0.0000000   0.0000000), wk =   0.0277778
        k(   55) = (   0.0628300   0.0156216   0.0000000), wk =   0.0277778
        k(   56) = (   0.0785375   0.0390541   0.0000000), wk =   0.0277778
        k(   57) = (   0.0785375   0.0546757   0.0000000), wk =   0.0277778
        k(   58) = (   0.0785375   0.0702973   0.0000000), wk =   0.0277778
        k(   59) = (   0.0785375   0.0859190   0.0000000), wk =   0.0277778
        k(   60) = (   0.0785375   0.1015406   0.0000000), wk =   0.0277778
        k(   61) = (   0.0785375   0.1171622   0.0000000), wk =   0.0277778
        k(   62) = (   0.0785375  -0.0546757   0.0000000), wk =   0.0277778
        k(   63) = (   0.0785375  -0.0390541   0.0000000), wk =   0.0277778
        k(   64) = (   0.0785375  -0.0234324   0.0000000), wk =   0.0277778
        k(   65) = (   0.0785375  -0.0078108   0.0000000), wk =   0.0277778
        k(   66) = (   0.0785375   0.0078108   0.0000000), wk =   0.0277778
        k(   67) = (   0.0785375   0.0234324   0.0000000), wk =   0.0277778
        k(   68) = (  -0.0942451  -0.0468649   0.0000000), wk =   0.0138889
        k(   69) = (  -0.0942451  -0.0312433   0.0000000), wk =   0.0277778
        k(   70) = (  -0.0942451  -0.0156216   0.0000000), wk =   0.0277778
        k(   71) = (  -0.0942451   0.0000000   0.0000000), wk =   0.0277778
        k(   72) = (  -0.0942451   0.0156216   0.0000000), wk =   0.0277778
        k(   73) = (  -0.0942451   0.0312433   0.0000000), wk =   0.0277778
        k(   74) = (  -0.0942451  -0.1405947   0.0000000), wk =   0.0138889

     Initial potential from superposition of free atoms

     starting charge  161.99615, renormalised to  162.00000

     negative rho (up, down):  3.698E-04 0.000E+00

     %%%%%%%%%%%%%%%%%%%%%%%%%%%%%%%%%%%%%%%%%%%%%%%%%%%%%%%%%%%%%%%%%%%%%%%%
     %                                                                      %
     % You are using vdW-DF, which was implemented by the Thonhauser group. %
     % Please cite the following two papers that made this development      %
     % possible and the two reviews that describe the various versions:     %
     %                                                                      %
     %   T. Thonhauser et al., PRL 115, 136402 (2015).                      %
     %   T. Thonhauser et al., PRB 76, 125112 (2007).                       %
     %   K. Berland et al., Rep. Prog. Phys. 78, 066501 (2015).             %
     %   D.C. Langreth et al., J. Phys.: Condens. Matter 21, 084203 (2009). %
     %                                                                      %
     %                                                                      %
     % If you are calculating the stress with vdW-DF, please also cite:     %
     %                                                                      %
     %   R. Sabatini et al., J. Phys.: Condens. Matter 24, 424209 (2012).   %
     %                                                                      %
     %%%%%%%%%%%%%%%%%%%%%%%%%%%%%%%%%%%%%%%%%%%%%%%%%%%%%%%%%%%%%%%%%%%%%%%%

     Adding external electric field

     Computed dipole along edir(3) :
        Dipole                0.0002 Ry au,          0.0006 Debye
        Dipole field          0.0000 Ry au,

        Potential amp.       -0.0001 Ry
        Total length         45.3304 bohr

     Starting wfcs are  114 randomized atomic wfcs

     Self-consistent Calculation

     iteration #  1     ecut=    55.12 Ry     beta= 0.10
     Davidson diagonalization with overlap
     ethr =  1.00E-02,  avg # of iterations =  4.1

     Threshold (ethr) on eigenvalues was too large:
     Diagonalizing with lowered threshold

     Davidson diagonalization with overlap
     ethr =  4.34E-04,  avg # of iterations =  4.6

[...]

     total energy              =   -1713.42480156 Ry
     estimated scf accuracy    <       0.77861502 Ry

[...]

     iteration #  5     ecut=    55.12 Ry     beta= 0.10
     Davidson diagonalization with overlap
     c_bands:  1 eigenvalues not converged
     c_bands:  1 eigenvalues not converged
     c_bands:  1 eigenvalues not converged
     c_bands:  1 eigenvalues not converged
     ethr =  6.47E-05,  avg # of iterations =  8.0

[...]

     iteration #  9     ecut=    55.12 Ry     beta= 0.10
     Davidson diagonalization with overlap
     c_bands:  1 eigenvalues not converged
     c_bands:  1 eigenvalues not converged
     ethr =  5.76E-07,  avg # of iterations =  4.8

[...]

     total energy              =   -1713.42955633 Ry
     estimated scf accuracy    <       0.00001009 Ry

     iteration # 14     ecut=    55.12 Ry     beta= 0.10
     Davidson diagonalization with overlap
     ethr =  6.23E-09,  avg # of iterations =  2.1

[...]

     Adding external electric field

     Computed dipole along edir(3) :
        Dipole                0.1054 Ry au,          0.2679 Debye
        Dipole field          0.0003 Ry au,

        Potential amp.       -0.0256 Ry
        Total length         45.3304 bohr

     End of self-consistent calculation

          k = 0.0000 0.0000 0.0000 ( 32465 PWs)   bands (ev):

   -85.5351 -85.4941 -85.1256 -85.0842 -84.8359 -84.7941 -45.3795 -45.3041
   -44.9933 -44.8029 -44.7341 -44.7159 -44.5488 -44.3356 -44.2975 -44.2301
   -44.2148 -44.1540 -44.0683 -44.0396 -44.0044 -43.9756 -43.9361 -43.8947
    -6.6504  -5.1740  -5.0340  -5.0053  -4.7676  -4.7615  -4.7080  -4.6653
    -4.4768  -4.3976  -4.3251  -4.2544  -4.0959  -4.0212  -3.9533  -3.7131
    -3.7112  -3.4035  -3.3654  -3.1960  -3.1460  -3.0211  -2.9024  -2.7062
    -2.6615  -2.5537  -2.5021  -2.4352  -2.2161  -2.2024  -2.1659  -2.0299
    -2.0131  -2.0061  -1.9767  -1.8760  -1.7159  -1.6913  -1.5455  -1.4821
    -1.2911  -1.0485  -0.5316  -0.2665  -0.1747  -0.1195  -0.0712   0.1880
     0.3700   0.4134   0.7745   1.0668   1.2351   1.4962   1.5644   1.6246
     1.8306   1.9409   2.0842   2.2520   2.2529   2.3549   2.4683   2.4745
     2.5002   2.6037   3.2103   3.6768   4.0035   4.2289   4.4894   5.2869
     5.5051

[...]

          k = 0.0785 0.0234 0.0000 ( 32490 PWs)   bands (ev):

[...]

          k =-0.0942-0.0469 0.0000 ( 32502 PWs)   bands (ev):

[...]

          k =-0.0942-0.1406 0.0000 ( 32502 PWs)   bands (ev):

   -85.5149 -85.5144 -85.1054 -85.1044 -84.8151 -84.8150 -45.3434 -45.3406
   -44.7691 -44.7686 -44.6707 -44.6703 -44.3985 -44.3979 -44.2645 -44.2636
   -44.2278 -44.2278 -44.1844 -44.1843 -44.0079 -44.0076 -43.9706 -43.9704
    -5.0177  -5.0171  -4.2492  -4.2490  -4.1387  -4.1386  -3.9989  -3.9985
    -3.8246  -3.8244  -3.7671  -3.7667  -3.5571  -3.5569  -3.4240  -3.4230
    -3.3469  -3.3455  -3.1389  -3.1368  -3.0262  -3.0260  -2.9570  -2.9565
    -2.8547  -2.8527  -2.7627  -2.7612  -2.6650  -2.6643  -2.5050  -2.5011
    -2.2737  -2.2733  -2.0900  -2.0881  -1.8868  -1.8865  -1.6268  -1.6260
    -1.2345  -1.2324  -0.9602  -0.9600  -0.6338  -0.6312  -0.3784  -0.3781
    -0.0891  -0.0886  -0.0336  -0.0333   0.1399   0.1400   0.4028   0.4030
     0.5807   0.5811   1.4080   1.4087   1.5287   1.5304   2.1811   2.1819
     2.6317   2.6322   3.1745   3.1746   3.6001   3.6007   5.0968   5.0976
     5.6639

     the Fermi energy is     1.3424 ev

!    total energy              =   -1713.42955818 Ry
     estimated scf accuracy    <       0.00000163 Ry
     smearing contrib. (-TS)   =      -0.04244296 Ry
     internal energy E=F+TS    =   -1713.38711522 Ry

     The total energy is F=E-TS. E is the sum of the following terms:
     one-electron contribution =  -13663.49410002 Ry
     hartree contribution      =    6865.95785966 Ry
     xc contribution           =    -374.59877665 Ry
     ewald contribution        =    5458.74787208 Ry
     electric field correction =       0.00002972 Ry

     convergence has been achieved in  14 iterations

     negative rho (up, down):  1.577E-04 0.000E+00

     Forces acting on atoms (cartesian axes, Ry/au):

     atom    1 type  1   force =    -0.00000361   -0.01257213   -0.04377437
     atom    2 type  1   force =     0.00000234   -0.01257049   -0.04377257
     atom    3 type  2   force =    -0.00000157    0.03838922    0.06236586
     atom    4 type  2   force =    -0.00000070    0.03836707    0.06233034
     atom    5 type  1   force =     0.00000564    0.01205351    0.01976676
     atom    6 type  1   force =     0.00000744    0.01205554    0.01976244
     atom    7 type  2   force =     0.00007939   -0.03771329   -0.03815561
     atom    8 type  2   force =     0.00007165   -0.03789613   -0.03773641
     atom    9 type  1   force =    -0.00068578   -0.00073453    0.00033777
     atom   10 type  1   force =     0.00071074   -0.00072924    0.00033482
     atom   11 type  2   force =    -0.00009265    0.00077113   -0.00098748
     atom   12 type  2   force =    -0.00009288    0.00057934   -0.00047154

     Total force =     0.147252     Total SCF correction =     0.006105

     Writing output data file ./Ag2Os2/Ag2Os2_beef.save/

     General routines

     Parallel routines

   This run was terminated on:  16:26: 5  10Jul2022

   JOB DONE.