     Program PWSCF v.6.6 starts on 23Jun2022 at 16:44: 6

     R & G space division:  proc/nbgrp/npool/nimage =      37
     Fft bands division:     nmany     =       1
     Reading input from Ag2Ta2.in
Warning: card &CELL ignored
Warning: card / ignored

     Current dimensions of program PWSCF are:
     Max number of different atomic species (ntypx) = 10
     Max number of k-points (npk) =  40000
     Max angular momentum in pseudopotentials (lmaxx) =  3
     Presently stress not available with electric field and gates

     Message from routine cell_base_init:
     DEPRECATED: use true lattice parameter, not A to a.u. conversion factor
     file Ta.pbe-spfn-rrkjus_psl.1.0.0.UPF: wavefunction(s)  5S 5P renormalized

     IMPORTANT: XC functional enforced from input :
     Exchange-correlation= BEEF-VDW
                           (   1   4  43  14   2   0   0)
     Any further DFT definition will be discarded
     Please, verify this is what you really want

     Subspace diagonalization in iterative solution of the eigenvalue problem:
     a serial algorithm will be used

     Found symmetry operation: I + ( -0.5000  0.0000  0.0000)
     This is a supercell, fractional translations are disabled

     bravais-lattice index     =            0
     lattice parameter (alat)  =       1.8897  a.u.
     unit-cell volume          =    5003.4928 (a.u.)^3
     number of atoms/cell      =           12
     number of atomic types    =            2
     number of electrons       =       228.00
     number of Kohn-Sham states=          137
     kinetic-energy cutoff     =      55.1240  Ry
     charge density cutoff     =     551.2396  Ry
     convergence threshold     =      1.0E-05
     mixing beta               =       0.1000
     number of iterations used =           10  plain     mixing
     Exchange-correlation= BEEF-VDW
                           (   1   4  43  14   2   0   0)

     celldm(1)=   1.889726  celldm(2)=   0.000000  celldm(3)=   0.000000
     celldm(4)=   0.000000  celldm(5)=   0.000000  celldm(6)=   0.000000

     crystal axes: (cart. coord. in units of alat)
               a(1) = (   5.680196   0.000000   0.000000 )
               a(2) = (  -2.840098   5.266831   0.000000 )
               a(3) = (   0.000000   0.000000  24.783581 )

     reciprocal axes: (cart. coord. in units 2 pi/alat)
               b(1) = (  0.176050  0.094934 -0.000000 )
               b(2) = (  0.000000  0.189867  0.000000 )
               b(3) = (  0.000000 -0.000000  0.040349 )

     PseudoPot. # 1 for Ag read from file:
     ../pseudo/Ag.pbe-n-rrkjus_psl.1.0.0.UPF
     MD5 check sum: d841cbfac2b0861aec33b46768a516bf
     Pseudo is Ultrasoft + core correction, Zval = 11.0
     Generated using "atomic" code by A. Dal Corso v.6.2.2
     Using radial grid of 1237 points,  6 beta functions with:
                l(1) =   0
                l(2) =   0
                l(3) =   1
                l(4) =   1
                l(5) =   2
                l(6) =   2
     Q(r) pseudized with 0 coefficients

     PseudoPot. # 2 for Ta read from file:
     ../pseudo/Ta.pbe-spfn-rrkjus_psl.1.0.0.UPF
     MD5 check sum: 39d7d349fe394e56adf8454eb9315fbb
     Pseudo is Ultrasoft + core correction, Zval = 27.0
     Generated using "atomic" code by A. Dal Corso v.6.3
     Using radial grid of 1273 points,  8 beta functions with:
                l(1) =   0
                l(2) =   0
                l(3) =   1
                l(4) =   1
                l(5) =   2
                l(6) =   2
                l(7) =   3
                l(8) =   3
     Q(r) pseudized with 0 coefficients

     atomic species   valence    mass     pseudopotential
        Ag            11.00   107.86820     Ag( 1.00)
        Ta            27.00   180.94788     Ta( 1.00)

     No symmetry found

   Cartesian axes

     site n.     atom                  positions (alat units)
         1           Ag  tau(   1) = (   0.0000000   0.0000000  10.0000000  )
         2           Ag  tau(   2) = (   2.8400981   0.0000000  10.0000000  )
         3           Ta  tau(   3) = (   1.4200490   2.6334157  10.0000000  )
         4           Ta  tau(   4) = (  -1.4200490   2.6334157  10.0000000  )
         5           Ag  tau(   5) = (   2.8400981   1.5315009  12.3917905  )
         6           Ag  tau(   6) = (   0.0000000   1.5315009  12.3917905  )
         7           Ta  tau(   7) = (  -1.4200490   4.1649166  12.3917905  )
         8           Ta  tau(   8) = (   1.4200490   4.1649166  12.3917905  )
         9           Ag  tau(   9) = (   0.0000005   3.0694153  14.8630436  )
        10           Ag  tau(  10) = (   2.8400981   3.0694164  14.8630442  )
        11           Ta  tau(  11) = (   4.2601470   0.3939203  14.6445446  )
        12           Ta  tau(  12) = (   1.4200496   0.3939201  14.6445446  )

     number of k points=    74  Fermi-Dirac smearing, width (Ry)=  0.0100
                       cart. coord. in units 2pi/alat
        k(    1) = (   0.0000000   0.0000000   0.0000000), wk =   0.0138889
        k(    2) = (   0.0000000   0.0158223   0.0000000), wk =   0.0277778
        k(    3) = (   0.0000000   0.0316446   0.0000000), wk =   0.0277778
        k(    4) = (   0.0000000   0.0474669   0.0000000), wk =   0.0277778
        k(    5) = (   0.0000000   0.0632892   0.0000000), wk =   0.0277778
        k(    6) = (   0.0000000   0.0791115   0.0000000), wk =   0.0277778
        k(    7) = (   0.0000000  -0.0949337   0.0000000), wk =   0.0138889
        k(    8) = (   0.0146709   0.0079111   0.0000000), wk =   0.0277778
        k(    9) = (   0.0146709   0.0237334   0.0000000), wk =   0.0277778
        k(   10) = (   0.0146709   0.0395557   0.0000000), wk =   0.0277778
        k(   11) = (   0.0146709   0.0553780   0.0000000), wk =   0.0277778
        k(   12) = (   0.0146709   0.0712003   0.0000000), wk =   0.0277778
        k(   13) = (   0.0146709   0.0870226   0.0000000), wk =   0.0277778
        k(   14) = (   0.0146709  -0.0870226   0.0000000), wk =   0.0277778
        k(   15) = (   0.0146709  -0.0712003   0.0000000), wk =   0.0277778
        k(   16) = (   0.0146709  -0.0553780   0.0000000), wk =   0.0277778
        k(   17) = (   0.0146709  -0.0395557   0.0000000), wk =   0.0277778
        k(   18) = (   0.0146709  -0.0237334   0.0000000), wk =   0.0277778
        k(   19) = (   0.0146709  -0.0079111   0.0000000), wk =   0.0277778
        k(   20) = (   0.0293417   0.0158223   0.0000000), wk =   0.0277778
        k(   21) = (   0.0293417   0.0316446   0.0000000), wk =   0.0277778
        k(   22) = (   0.0293417   0.0474669   0.0000000), wk =   0.0277778
        k(   23) = (   0.0293417   0.0632892   0.0000000), wk =   0.0277778
        k(   24) = (   0.0293417   0.0791115   0.0000000), wk =   0.0277778
        k(   25) = (   0.0293417   0.0949337   0.0000000), wk =   0.0277778
        k(   26) = (   0.0293417  -0.0791115   0.0000000), wk =   0.0277778
        k(   27) = (   0.0293417  -0.0632892   0.0000000), wk =   0.0277778
        k(   28) = (   0.0293417  -0.0474669   0.0000000), wk =   0.0277778
        k(   29) = (   0.0293417  -0.0316446   0.0000000), wk =   0.0277778
        k(   30) = (   0.0293417  -0.0158223   0.0000000), wk =   0.0277778
        k(   31) = (   0.0293417  -0.0000000   0.0000000), wk =   0.0277778
        k(   32) = (   0.0440126   0.0237334   0.0000000), wk =   0.0277778
        k(   33) = (   0.0440126   0.0395557   0.0000000), wk =   0.0277778
        k(   34) = (   0.0440126   0.0553780   0.0000000), wk =   0.0277778
        k(   35) = (   0.0440126   0.0712003   0.0000000), wk =   0.0277778
        k(   36) = (   0.0440126   0.0870226   0.0000000), wk =   0.0277778
        k(   37) = (   0.0440126   0.1028449   0.0000000), wk =   0.0277778
        k(   38) = (   0.0440126  -0.0712003   0.0000000), wk =   0.0277778
        k(   39) = (   0.0440126  -0.0553780   0.0000000), wk =   0.0277778
        k(   40) = (   0.0440126  -0.0395557   0.0000000), wk =   0.0277778
        k(   41) = (   0.0440126  -0.0237334   0.0000000), wk =   0.0277778
        k(   42) = (   0.0440126  -0.0079111   0.0000000), wk =   0.0277778
        k(   43) = (   0.0440126   0.0079111   0.0000000), wk =   0.0277778
        k(   44) = (   0.0586834   0.0316446   0.0000000), wk =   0.0277778
        k(   45) = (   0.0586834   0.0474669   0.0000000), wk =   0.0277778
        k(   46) = (   0.0586834   0.0632892   0.0000000), wk =   0.0277778
        k(   47) = (   0.0586834   0.0791115   0.0000000), wk =   0.0277778
        k(   48) = (   0.0586834   0.0949337   0.0000000), wk =   0.0277778
        k(   49) = (   0.0586834   0.1107560   0.0000000), wk =   0.0277778
        k(   50) = (   0.0586834  -0.0632892   0.0000000), wk =   0.0277778
        k(   51) = (   0.0586834  -0.0474669   0.0000000), wk =   0.0277778
        k(   52) = (   0.0586834  -0.0316446   0.0000000), wk =   0.0277778
        k(   53) = (   0.0586834  -0.0158223   0.0000000), wk =   0.0277778
        k(   54) = (   0.0586834   0.0000000   0.0000000), wk =   0.0277778
        k(   55) = (   0.0586834   0.0158223   0.0000000), wk =   0.0277778
        k(   56) = (   0.0733543   0.0395557   0.0000000), wk =   0.0277778
        k(   57) = (   0.0733543   0.0553780   0.0000000), wk =   0.0277778
        k(   58) = (   0.0733543   0.0712003   0.0000000), wk =   0.0277778
        k(   59) = (   0.0733543   0.0870226   0.0000000), wk =   0.0277778
        k(   60) = (   0.0733543   0.1028449   0.0000000), wk =   0.0277778
        k(   61) = (   0.0733543   0.1186672   0.0000000), wk =   0.0277778
        k(   62) = (   0.0733543  -0.0553780   0.0000000), wk =   0.0277778
        k(   63) = (   0.0733543  -0.0395557   0.0000000), wk =   0.0277778
        k(   64) = (   0.0733543  -0.0237334   0.0000000), wk =   0.0277778
        k(   65) = (   0.0733543  -0.0079111   0.0000000), wk =   0.0277778
        k(   66) = (   0.0733543   0.0079111   0.0000000), wk =   0.0277778
        k(   67) = (   0.0733543   0.0237334   0.0000000), wk =   0.0277778
        k(   68) = (  -0.0880251  -0.0474669   0.0000000), wk =   0.0138889
        k(   69) = (  -0.0880251  -0.0316446   0.0000000), wk =   0.0277778
        k(   70) = (  -0.0880251  -0.0158223   0.0000000), wk =   0.0277778
        k(   71) = (  -0.0880251   0.0000000   0.0000000), wk =   0.0277778
        k(   72) = (  -0.0880251   0.0158223   0.0000000), wk =   0.0277778
        k(   73) = (  -0.0880251   0.0316446   0.0000000), wk =   0.0277778
        k(   74) = (  -0.0880251  -0.1424006   0.0000000), wk =   0.0138889

     Initial potential from superposition of free atoms

     starting charge  227.99254, renormalised to  228.00000

     negative rho (up, down):  8.864E-05 0.000E+00

     %%%%%%%%%%%%%%%%%%%%%%%%%%%%%%%%%%%%%%%%%%%%%%%%%%%%%%%%%%%%%%%%%%%%%%%%
     %                                                                      %
     % You are using vdW-DF, which was implemented by the Thonhauser group. %
     % Please cite the following two papers that made this development      %
     % possible and the two reviews that describe the various versions:     %
     %                                                                      %
     %   T. Thonhauser et al., PRL 115, 136402 (2015).                      %
     %   T. Thonhauser et al., PRB 76, 125112 (2007).                       %
     %   K. Berland et al., Rep. Prog. Phys. 78, 066501 (2015).             %
     %   D.C. Langreth et al., J. Phys.: Condens. Matter 21, 084203 (2009). %
     %                                                                      %
     %                                                                      %
     % If you are calculating the stress with vdW-DF, please also cite:     %
     %                                                                      %
     %   R. Sabatini et al., J. Phys.: Condens. Matter 24, 424209 (2012).   %
     %                                                                      %
     %%%%%%%%%%%%%%%%%%%%%%%%%%%%%%%%%%%%%%%%%%%%%%%%%%%%%%%%%%%%%%%%%%%%%%%%

     Adding external electric field

     Computed dipole along edir(3) :
        Dipole                0.0000 Ry au,          0.0001 Debye
        Dipole field          0.0000 Ry au,

        Potential amp.       -0.0000 Ry
        Total length         45.6633 bohr

     Starting wfcs are  156 randomized atomic wfcs

     Self-consistent Calculation

     iteration #  1     ecut=    55.12 Ry     beta= 0.10
     Davidson diagonalization with overlap
     ethr =  1.00E-02,  avg # of iterations =  3.1

     Threshold (ethr) on eigenvalues was too large:
     Diagonalizing with lowered threshold

     Davidson diagonalization with overlap
     ethr =  8.55E-04,  avg # of iterations =  2.9

[...]

     total energy              =   -4601.75988717 Ry
     estimated scf accuracy    <       1.98870186 Ry

[...]

     iteration #  5     ecut=    55.12 Ry     beta= 0.10
     Davidson diagonalization with overlap
     c_bands:  2 eigenvalues not converged
     ethr =  1.08E-04,  avg # of iterations =  7.9

[...]

     iteration #  8     ecut=    55.12 Ry     beta= 0.10
     Davidson diagonalization with overlap
     c_bands:  1 eigenvalues not converged
     c_bands:  3 eigenvalues not converged
     ethr =  3.97E-06,  avg # of iterations = 10.0

[...]

     total energy              =   -4601.82259687 Ry
     estimated scf accuracy    <       0.00001321 Ry

     iteration # 13     ecut=    55.12 Ry     beta= 0.10
     Davidson diagonalization with overlap
     ethr =  5.79E-09,  avg # of iterations =  4.9

[...]

     Adding external electric field

     Computed dipole along edir(3) :
        Dipole               -0.0284 Ry au,         -0.0721 Debye
        Dipole field         -0.0001 Ry au,

        Potential amp.        0.0065 Ry
        Total length         45.6633 bohr

     End of self-consistent calculation

          k = 0.0000 0.0000 0.0000 ( 34633 PWs)   bands (ev):

   -67.0811 -67.0304 -66.9436 -66.8924 -66.7529 -66.7010 -33.5533 -33.5448
   -33.4772 -33.4706 -33.4578 -33.3825 -33.3825 -33.3685 -33.3293 -33.2814
   -33.2416 -33.2067 -33.1159 -32.7576 -32.7110 -32.6772 -32.6330 -32.5948
   -18.8177 -18.8168 -18.8164 -18.8154 -18.7632 -18.7586 -18.7516 -18.7493
   -18.7335 -18.7148 -18.7136 -18.7012 -18.6816 -18.6637 -18.6588 -18.6573
   -18.6571 -18.6555 -18.6195 -18.6158 -18.6074 -18.6050 -18.5955 -18.5770
   -18.5755 -18.5631 -18.5438 -18.5276 -18.4726 -18.4700 -18.4446 -18.4442
   -18.4349 -18.4313 -18.4236 -18.4219 -18.3931 -18.3845 -18.3816 -18.3673
   -18.3473 -18.3457  -5.7830  -4.5852  -4.5262  -4.5187  -4.5000  -4.4465
    -4.2171  -4.1047  -4.0959  -4.0327  -4.0182  -4.0088  -3.8462  -3.7771
    -3.5012  -3.4041  -3.3112  -3.2376  -3.1876  -3.1089  -2.9320  -2.8672
    -2.8373  -2.8282  -2.6766  -2.6661  -2.5250  -2.4441  -2.4145  -2.2553
    -2.1185  -1.6872  -0.8444  -0.5084  -0.3770  -0.1526  -0.1127   0.0450
     0.2589   0.3588   0.5496   0.6393   0.8626   0.9016   1.4047   1.7241
     1.9039   2.0010   2.1558   2.1777   2.4959   2.6636   2.8524   2.9473
     3.0096   3.0705   3.6657   3.7837   3.8817   4.1592   4.1907   4.6053
     4.9055   4.9118   5.0901   5.1680   5.2187   5.3576   5.3585   5.4242
     5.7482

[...]

          k = 0.0734 0.0237 0.0000 ( 34586 PWs)   bands (ev):

[...]

          k =-0.0880-0.0475 0.0000 ( 34562 PWs)   bands (ev):

[...]

          k =-0.0880-0.1424 0.0000 ( 34562 PWs)   bands (ev):

   -67.0558 -67.0558 -66.9181 -66.9181 -66.7270 -66.7269 -33.5064 -33.5063
   -33.4273 -33.4273 -33.3255 -33.3255 -33.2865 -33.2865 -33.1621 -33.1621
   -33.1615 -33.1615 -33.0880 -33.0879 -32.9993 -32.9993 -32.6722 -32.6722
   -18.8171 -18.8171 -18.8161 -18.8161 -18.7570 -18.7570 -18.7541 -18.7541
   -18.7177 -18.7177 -18.6979 -18.6979 -18.6915 -18.6915 -18.6579 -18.6579
   -18.6564 -18.6564 -18.6127 -18.6127 -18.6107 -18.6107 -18.5797 -18.5797
   -18.5600 -18.5599 -18.5548 -18.5548 -18.4582 -18.4581 -18.4567 -18.4566
   -18.4287 -18.4286 -18.4268 -18.4266 -18.3896 -18.3895 -18.3669 -18.3668
   -18.3575 -18.3574  -4.3428  -4.3427  -4.0379  -4.0379  -3.9226  -3.9226
    -3.8401  -3.8400  -3.6354  -3.6354  -3.5356  -3.5356  -3.4846  -3.4846
    -3.2453  -3.2453  -3.1562  -3.1562  -3.0926  -3.0926  -3.0163  -3.0162
    -2.9844  -2.9844  -2.8538  -2.8538  -2.7784  -2.7784  -2.6554  -2.6554
    -2.5897  -2.5897  -1.8401  -1.8401  -0.8623  -0.8623  -0.0901  -0.0901
     0.1976   0.1976   0.8528   0.8528   0.9511   0.9511   1.6385   1.6385
     1.6716   1.6716   1.9726   1.9726   2.2210   2.2210   2.2993   2.2993
     2.4783   2.4783   2.8476   2.8476   3.4811   3.4811   4.1087   4.1088
     4.3339   4.3339   4.8376   4.8377   4.9491   4.9491   5.3560   5.3560
     6.0330

     the Fermi energy is     1.7405 ev

!    total energy              =   -4601.82260584 Ry
     estimated scf accuracy    <       0.00000592 Ry
     smearing contrib. (-TS)   =      -0.05065909 Ry
     internal energy E=F+TS    =   -4601.77194676 Ry

     The total energy is F=E-TS. E is the sum of the following terms:
     one-electron contribution =  -28398.54234794 Ry
     hartree contribution      =   14340.80690860 Ry
     xc contribution           =    -552.34029471 Ry
     ewald contribution        =   10008.30378527 Ry
     electric field correction =       0.00000202 Ry

     convergence has been achieved in  13 iterations

     negative rho (up, down):  2.719E-04 0.000E+00

     Forces acting on atoms (cartesian axes, Ry/au):

     atom    1 type  1   force =     0.00000219   -0.00743065   -0.01681166
     atom    2 type  1   force =    -0.00000260   -0.00743216   -0.01681105
     atom    3 type  2   force =    -0.00000496    0.01457232    0.03154447
     atom    4 type  2   force =     0.00001138    0.01458698    0.03156512
     atom    5 type  1   force =    -0.00000051    0.00912413   -0.00693027
     atom    6 type  1   force =    -0.00000219    0.00912105   -0.00693087
     atom    7 type  2   force =    -0.00002664   -0.01597583   -0.01559098
     atom    8 type  2   force =     0.00003568   -0.01596234   -0.01558277
     atom    9 type  1   force =    -0.00000291   -0.00004083    0.00236108
     atom   10 type  1   force =     0.00000114   -0.00004153    0.00236113
     atom   11 type  2   force =    -0.00003831   -0.00026558    0.00542488
     atom   12 type  2   force =     0.00002774   -0.00025557    0.00540093

     Total force =     0.066487     Total SCF correction =     0.020886
     SCF correction compared to forces is large: reduce conv_thr to get better values

     Writing output data file ./Ag2Ta2/Ag2Ta2_beef.save/

     General routines

     Parallel routines

   This run was terminated on:  18:36:42  23Jun2022

   JOB DONE.