     Program PWSCF v.6.6 starts on 10Jul2022 at 16:26:10

     R & G space division:  proc/nbgrp/npool/nimage =      37
     Fft bands division:     nmany     =       1
     Reading input from Ag2Y2.in
Warning: card &CELL ignored
Warning: card / ignored

     Current dimensions of program PWSCF are:
     Max number of different atomic species (ntypx) = 10
     Max number of k-points (npk) =  40000
     Max angular momentum in pseudopotentials (lmaxx) =  3
     Presently stress not available with electric field and gates

     Message from routine cell_base_init:
     DEPRECATED: use true lattice parameter, not A to a.u. conversion factor
     file Y.pbe-spn-rrkjus_psl.1.0.0.UPF: wavefunction(s)  4S renormalized

     IMPORTANT: XC functional enforced from input :
     Exchange-correlation= BEEF-VDW
                           (   1   4  43  14   2   0   0)
     Any further DFT definition will be discarded
     Please, verify this is what you really want

     Subspace diagonalization in iterative solution of the eigenvalue problem:
     a serial algorithm will be used

     bravais-lattice index     =            0
     lattice parameter (alat)  =       1.8897  a.u.
     unit-cell volume          =    6453.8952 (a.u.)^3
     number of atoms/cell      =           12
     number of atomic types    =            2
     number of electrons       =       132.00
     number of Kohn-Sham states=           79
     kinetic-energy cutoff     =      55.1240  Ry
     charge density cutoff     =     551.2396  Ry
     convergence threshold     =      1.0E-05
     mixing beta               =       0.1000
     number of iterations used =           10  plain     mixing
     Exchange-correlation= BEEF-VDW
                           (   1   4  43  14   2   0   0)

     celldm(1)=   1.889726  celldm(2)=   0.000000  celldm(3)=   0.000000
     celldm(4)=   0.000000  celldm(5)=   0.000000  celldm(6)=   0.000000

     crystal axes: (cart. coord. in units of alat)
               a(1) = (   6.347128   0.000000   0.000000 )
               a(2) = (   2.118165   5.983261   0.000000 )
               a(3) = (   0.000000   0.000000  25.183158 )

     reciprocal axes: (cart. coord. in units 2 pi/alat)
               b(1) = (  0.157552 -0.055776  0.000000 )
               b(2) = (  0.000000  0.167133  0.000000 )
               b(3) = (  0.000000  0.000000  0.039709 )

     PseudoPot. # 1 for Ag read from file:
     ../pseudo/Ag.pbe-n-rrkjus_psl.1.0.0.UPF
     MD5 check sum: d841cbfac2b0861aec33b46768a516bf
     Pseudo is Ultrasoft + core correction, Zval = 11.0
     Generated using "atomic" code by A. Dal Corso v.6.2.2
     Using radial grid of 1237 points,  6 beta functions with:
                l(1) =   0
                l(2) =   0
                l(3) =   1
                l(4) =   1
                l(5) =   2
                l(6) =   2
     Q(r) pseudized with 0 coefficients

     PseudoPot. # 2 for Y  read from file:
     ../pseudo/Y.pbe-spn-rrkjus_psl.1.0.0.UPF
     MD5 check sum: 5fe32e6a006803c2ec2edff47948a3c8
     Pseudo is Ultrasoft + core correction, Zval = 11.0
     Generated using "atomic" code by A. Dal Corso v.6.2.2
     Using radial grid of 1223 points,  6 beta functions with:
                l(1) =   0
                l(2) =   0
                l(3) =   1
                l(4) =   1
                l(5) =   2
                l(6) =   2
     Q(r) pseudized with 0 coefficients

     atomic species   valence    mass     pseudopotential
        Ag            11.00   107.86820     Ag( 1.00)
        Y             11.00    88.90584     Y ( 1.00)

     No symmetry found

   Cartesian axes

     site n.     atom                  positions (alat units)
         1           Ag  tau(   1) = (   0.0000000   0.0000000  10.0000000  )
         2           Ag  tau(   2) = (   4.2326464   2.9916305  10.0000000  )
         3           Y   tau(   3) = (   3.1735640   0.0000000  10.0000000  )
         4           Y   tau(   4) = (   1.0590824   2.9916305  10.0000000  )
         5           Ag  tau(   5) = (   6.3471281   4.4861442  12.5915791  )
         6           Ag  tau(   6) = (   2.1144817   1.4945137  12.5915791  )
         7           Y   tau(   7) = (   3.1735640   4.4861442  12.5915791  )
         8           Y   tau(   8) = (   5.2880457   1.4945137  12.5915791  )
         9           Ag  tau(   9) = (   4.2288774   2.9889817  15.0545766  )
        10           Ag  tau(  10) = (   8.4620251   5.9809364  15.0547382  )
        11           Y   tau(  11) = (   7.4033009   2.9895956  15.1697335  )
        12           Y   tau(  12) = (   5.2888386   5.9812026  15.1697505  )

     number of k points=    74  Fermi-Dirac smearing, width (Ry)=  0.0100
                       cart. coord. in units 2pi/alat
        k(    1) = (   0.0000000   0.0000000   0.0000000), wk =   0.0138889
        k(    2) = (   0.0000000   0.0139277   0.0000000), wk =   0.0277778
        k(    3) = (   0.0000000   0.0278555   0.0000000), wk =   0.0277778
        k(    4) = (   0.0000000   0.0417832   0.0000000), wk =   0.0277778
        k(    5) = (   0.0000000   0.0557110   0.0000000), wk =   0.0277778
        k(    6) = (   0.0000000   0.0696387   0.0000000), wk =   0.0277778
        k(    7) = (   0.0000000  -0.0835665   0.0000000), wk =   0.0138889
        k(    8) = (   0.0131293  -0.0046480   0.0000000), wk =   0.0277778
        k(    9) = (   0.0131293   0.0092798   0.0000000), wk =   0.0277778
        k(   10) = (   0.0131293   0.0232075   0.0000000), wk =   0.0277778
        k(   11) = (   0.0131293   0.0371353   0.0000000), wk =   0.0277778
        k(   12) = (   0.0131293   0.0510630   0.0000000), wk =   0.0277778
        k(   13) = (   0.0131293   0.0649908   0.0000000), wk =   0.0277778
        k(   14) = (   0.0131293  -0.0882144   0.0000000), wk =   0.0277778
        k(   15) = (   0.0131293  -0.0742867   0.0000000), wk =   0.0277778
        k(   16) = (   0.0131293  -0.0603590   0.0000000), wk =   0.0277778
        k(   17) = (   0.0131293  -0.0464312   0.0000000), wk =   0.0277778
        k(   18) = (   0.0131293  -0.0325035   0.0000000), wk =   0.0277778
        k(   19) = (   0.0131293  -0.0185757   0.0000000), wk =   0.0277778
        k(   20) = (   0.0262586  -0.0092959   0.0000000), wk =   0.0277778
        k(   21) = (   0.0262586   0.0046318   0.0000000), wk =   0.0277778
        k(   22) = (   0.0262586   0.0185595   0.0000000), wk =   0.0277778
        k(   23) = (   0.0262586   0.0324873   0.0000000), wk =   0.0277778
        k(   24) = (   0.0262586   0.0464150   0.0000000), wk =   0.0277778
        k(   25) = (   0.0262586   0.0603428   0.0000000), wk =   0.0277778
        k(   26) = (   0.0262586  -0.0928624   0.0000000), wk =   0.0277778
        k(   27) = (   0.0262586  -0.0789347   0.0000000), wk =   0.0277778
        k(   28) = (   0.0262586  -0.0650069   0.0000000), wk =   0.0277778
        k(   29) = (   0.0262586  -0.0510792   0.0000000), wk =   0.0277778
        k(   30) = (   0.0262586  -0.0371514   0.0000000), wk =   0.0277778
        k(   31) = (   0.0262586  -0.0232237   0.0000000), wk =   0.0277778
        k(   32) = (   0.0393879  -0.0139439   0.0000000), wk =   0.0277778
        k(   33) = (   0.0393879  -0.0000162   0.0000000), wk =   0.0277778
        k(   34) = (   0.0393879   0.0139116   0.0000000), wk =   0.0277778
        k(   35) = (   0.0393879   0.0278393   0.0000000), wk =   0.0277778
        k(   36) = (   0.0393879   0.0417671   0.0000000), wk =   0.0277778
        k(   37) = (   0.0393879   0.0556948   0.0000000), wk =   0.0277778
        k(   38) = (   0.0393879  -0.0975104   0.0000000), wk =   0.0277778
        k(   39) = (   0.0393879  -0.0835826   0.0000000), wk =   0.0277778
        k(   40) = (   0.0393879  -0.0696549   0.0000000), wk =   0.0277778
        k(   41) = (   0.0393879  -0.0557271   0.0000000), wk =   0.0277778
        k(   42) = (   0.0393879  -0.0417994   0.0000000), wk =   0.0277778
        k(   43) = (   0.0393879  -0.0278717   0.0000000), wk =   0.0277778
        k(   44) = (   0.0525172  -0.0185919   0.0000000), wk =   0.0277778
        k(   45) = (   0.0525172  -0.0046641   0.0000000), wk =   0.0277778
        k(   46) = (   0.0525172   0.0092636   0.0000000), wk =   0.0277778
        k(   47) = (   0.0525172   0.0231914   0.0000000), wk =   0.0277778
        k(   48) = (   0.0525172   0.0371191   0.0000000), wk =   0.0277778
        k(   49) = (   0.0525172   0.0510468   0.0000000), wk =   0.0277778
        k(   50) = (   0.0525172  -0.1021584   0.0000000), wk =   0.0277778
        k(   51) = (   0.0525172  -0.0882306   0.0000000), wk =   0.0277778
        k(   52) = (   0.0525172  -0.0743029   0.0000000), wk =   0.0277778
        k(   53) = (   0.0525172  -0.0603751   0.0000000), wk =   0.0277778
        k(   54) = (   0.0525172  -0.0464474   0.0000000), wk =   0.0277778
        k(   55) = (   0.0525172  -0.0325196   0.0000000), wk =   0.0277778
        k(   56) = (   0.0656465  -0.0232399   0.0000000), wk =   0.0277778
        k(   57) = (   0.0656465  -0.0093121   0.0000000), wk =   0.0277778
        k(   58) = (   0.0656465   0.0046156   0.0000000), wk =   0.0277778
        k(   59) = (   0.0656465   0.0185434   0.0000000), wk =   0.0277778
        k(   60) = (   0.0656465   0.0324711   0.0000000), wk =   0.0277778
        k(   61) = (   0.0656465   0.0463989   0.0000000), wk =   0.0277778
        k(   62) = (   0.0656465  -0.1068063   0.0000000), wk =   0.0277778
        k(   63) = (   0.0656465  -0.0928786   0.0000000), wk =   0.0277778
        k(   64) = (   0.0656465  -0.0789508   0.0000000), wk =   0.0277778
        k(   65) = (   0.0656465  -0.0650231   0.0000000), wk =   0.0277778
        k(   66) = (   0.0656465  -0.0510953   0.0000000), wk =   0.0277778
        k(   67) = (   0.0656465  -0.0371676   0.0000000), wk =   0.0277778
        k(   68) = (  -0.0787758   0.0278878   0.0000000), wk =   0.0138889
        k(   69) = (  -0.0787758   0.0418156   0.0000000), wk =   0.0277778
        k(   70) = (  -0.0787758   0.0557433   0.0000000), wk =   0.0277778
        k(   71) = (  -0.0787758   0.0696711   0.0000000), wk =   0.0277778
        k(   72) = (  -0.0787758   0.0835988   0.0000000), wk =   0.0277778
        k(   73) = (  -0.0787758   0.0975265   0.0000000), wk =   0.0277778
        k(   74) = (  -0.0787758  -0.0556786   0.0000000), wk =   0.0138889

     Initial potential from superposition of free atoms

     starting charge  131.97310, renormalised to  132.00000

     negative rho (up, down):  2.134E-04 0.000E+00

     %%%%%%%%%%%%%%%%%%%%%%%%%%%%%%%%%%%%%%%%%%%%%%%%%%%%%%%%%%%%%%%%%%%%%%%%
     %                                                                      %
     % You are using vdW-DF, which was implemented by the Thonhauser group. %
     % Please cite the following two papers that made this development      %
     % possible and the two reviews that describe the various versions:     %
     %                                                                      %
     %   T. Thonhauser et al., PRL 115, 136402 (2015).                      %
     %   T. Thonhauser et al., PRB 76, 125112 (2007).                       %
     %   K. Berland et al., Rep. Prog. Phys. 78, 066501 (2015).             %
     %   D.C. Langreth et al., J. Phys.: Condens. Matter 21, 084203 (2009). %
     %                                                                      %
     %                                                                      %
     % If you are calculating the stress with vdW-DF, please also cite:     %
     %                                                                      %
     %   R. Sabatini et al., J. Phys.: Condens. Matter 24, 424209 (2012).   %
     %                                                                      %
     %%%%%%%%%%%%%%%%%%%%%%%%%%%%%%%%%%%%%%%%%%%%%%%%%%%%%%%%%%%%%%%%%%%%%%%%

     Adding external electric field

     Computed dipole along edir(3) :
        Dipole                0.0008 Ry au,          0.0020 Debye
        Dipole field          0.0000 Ry au,

        Potential amp.       -0.0001 Ry
        Total length         46.3995 bohr

     Starting wfcs are  132 randomized atomic wfcs

     Self-consistent Calculation

     iteration #  1     ecut=    55.12 Ry     beta= 0.10
     Davidson diagonalization with overlap
     ethr =  1.00E-02,  avg # of iterations =  2.0

[...]

     total energy              =   -1015.03367105 Ry
     estimated scf accuracy    <       1.79010803 Ry

[...]

     iteration #  9     ecut=    55.12 Ry     beta= 0.10
     Davidson diagonalization with overlap
     c_bands:  1 eigenvalues not converged
     ethr =  7.26E-06,  avg # of iterations =  7.5

[...]

     iteration # 12     ecut=    55.12 Ry     beta= 0.10
     Davidson diagonalization with overlap
     ethr =  5.14E-07,  avg # of iterations =  6.4

[...]

     total energy              =   -1015.18257525 Ry
     estimated scf accuracy    <       0.00007084 Ry

     iteration # 13     ecut=    55.12 Ry     beta= 0.10
     Davidson diagonalization with overlap
     c_bands:  1 eigenvalues not converged
     ethr =  5.37E-08,  avg # of iterations =  6.5

[...]

     Adding external electric field

     Computed dipole along edir(3) :
        Dipole                0.0401 Ry au,          0.1020 Debye
        Dipole field          0.0001 Ry au,

        Potential amp.       -0.0072 Ry
        Total length         46.3995 bohr

     End of self-consistent calculation

          k = 0.0000 0.0000 0.0000 ( 44603 PWs)   bands (ev):

   -42.9538 -42.9428 -42.9384 -42.9274 -42.5268 -42.5112 -22.9391 -22.9225
   -22.9194 -22.8983 -22.8799 -22.8650 -22.8341 -22.8212 -22.8203 -22.8007
   -22.6563 -22.6418 -22.5667 -22.4566 -22.4212 -22.4055 -22.3826 -22.3320
    -4.6456  -4.3333  -4.3287  -4.3130  -4.2928  -4.2468  -4.1844  -4.1689
    -4.1196  -4.1168  -4.1162  -4.0825  -3.9686  -3.9538  -3.9410  -3.9373
    -3.9363  -3.8742  -3.8576  -3.8423  -3.8395  -3.8178  -3.7709  -3.7192
    -3.6598  -3.6508  -3.5574  -3.5261  -3.4199  -3.3589  -3.3363  -2.9274
    -1.4906  -1.2650  -1.1006  -1.0230   0.3260   0.5165   0.5629   1.0442
     1.1148   1.2748   1.3255   1.3353   1.3963   1.6425   1.7594   1.8430
     1.9518   1.9683   1.9864   2.3351   2.3689   2.5834   2.6507

[...]

          k = 0.0656-0.0372 0.0000 ( 44602 PWs)   bands (ev):

[...]

          k =-0.0788 0.0279 0.0000 ( 44578 PWs)   bands (ev):

[...]

          k =-0.0788-0.0557 0.0000 ( 44588 PWs)   bands (ev):

   -42.9534 -42.9424 -42.9385 -42.9275 -42.5269 -42.5109 -22.9460 -22.9203
   -22.9165 -22.8980 -22.8841 -22.8690 -22.8523 -22.8298 -22.8134 -22.8001
   -22.6572 -22.6427 -22.5688 -22.4452 -22.4313 -22.4117 -22.3848 -22.3340
    -4.1421  -4.1241  -4.0899  -4.0553  -4.0491  -4.0403  -4.0238  -4.0132
    -3.9781  -3.9431  -3.9332  -3.8933  -3.8909  -3.8499  -3.8261  -3.8230
    -3.8225  -3.7911  -3.7823  -3.7637  -3.7535  -3.7303  -3.7135  -3.6924
    -3.6415  -3.6351  -3.5418  -3.5384  -3.4110  -3.3165  -2.9179  -2.6311
    -1.6132  -1.4258  -1.3983  -1.3012  -1.0934  -0.1371  -0.0382  -0.0026
     0.0163   0.3274   0.4668   0.7387   0.9167   1.1821   1.2356   1.3266
     1.5281   2.0007   2.1404   2.1624   2.3288   2.4509   2.6600

     the Fermi energy is     1.0040 ev

!    total energy              =   -1015.18259980 Ry
     estimated scf accuracy    <       0.00000919 Ry
     smearing contrib. (-TS)   =      -0.06134989 Ry
     internal energy E=F+TS    =   -1015.12124992 Ry

     The total energy is F=E-TS. E is the sum of the following terms:
     one-electron contribution =   -6577.78320846 Ry
     hartree contribution      =    3328.81269218 Ry
     xc contribution           =    -249.62717503 Ry
     ewald contribution        =    2483.47643826 Ry
     electric field correction =       0.00000313 Ry

     convergence has been achieved in  13 iterations

     negative rho (up, down):  8.080E-05 0.000E+00

     Forces acting on atoms (cartesian axes, Ry/au):

     atom    1 type  1   force =    -0.00000414    0.00000835    0.00993289
     atom    2 type  1   force =     0.00000459   -0.00000547    0.00993651
     atom    3 type  2   force =    -0.00006760   -0.00004802    0.00092592
     atom    4 type  2   force =    -0.00005580   -0.00003697    0.00092906
     atom    5 type  1   force =    -0.00000854    0.00001269   -0.00036393
     atom    6 type  1   force =     0.00002002   -0.00000480   -0.00038070
     atom    7 type  2   force =     0.00002243    0.00002327   -0.00820478
     atom    8 type  2   force =     0.00004180    0.00002151   -0.00820293
     atom    9 type  1   force =     0.00009698    0.00005100   -0.00035029
     atom   10 type  1   force =     0.00001016    0.00002203   -0.00036466
     atom   11 type  2   force =    -0.00001744   -0.00002164   -0.00193608
     atom   12 type  2   force =    -0.00004247   -0.00002196   -0.00192101

     Total force =     0.018486     Total SCF correction =     0.006111
     SCF correction compared to forces is large: reduce conv_thr to get better values

     Writing output data file ./Ag2Y2/Ag2Y2_beef.save/

     General routines

     Parallel routines

   This run was terminated on:  17:25:32  10Jul2022

   JOB DONE.