     Program PWSCF v.6.6 starts on 10Jul2022 at 12:16:16

     R & G space division:  proc/nbgrp/npool/nimage =      37
     Fft bands division:     nmany     =       1
     Reading input from Au2Hg2.in
Warning: card &CELL ignored
Warning: card / ignored

     Current dimensions of program PWSCF are:
     Max number of different atomic species (ntypx) = 10
     Max number of k-points (npk) =  40000
     Max angular momentum in pseudopotentials (lmaxx) =  3
     Presently stress not available with electric field and gates

     Message from routine cell_base_init:
     DEPRECATED: use true lattice parameter, not A to a.u. conversion factor
     file Hg.pbe-n-rrkjus_psl.1.0.0.UPF: wavefunction(s)  6S renormalized

     IMPORTANT: XC functional enforced from input :
     Exchange-correlation= BEEF-VDW
                           (   1   4  43  14   2   0   0)
     Any further DFT definition will be discarded
     Please, verify this is what you really want

     Subspace diagonalization in iterative solution of the eigenvalue problem:
     a serial algorithm will be used

     bravais-lattice index     =            0
     lattice parameter (alat)  =       1.8897  a.u.
     unit-cell volume          =    5693.0214 (a.u.)^3
     number of atoms/cell      =           12
     number of atomic types    =            2
     number of electrons       =       138.00
     number of Kohn-Sham states=           83
     kinetic-energy cutoff     =      55.1240  Ry
     charge density cutoff     =     551.2396  Ry
     convergence threshold     =      1.0E-05
     mixing beta               =       0.1000
     number of iterations used =           10  plain     mixing
     Exchange-correlation= BEEF-VDW
                           (   1   4  43  14   2   0   0)

     celldm(1)=   1.889726  celldm(2)=   0.000000  celldm(3)=   0.000000
     celldm(4)=   0.000000  celldm(5)=   0.000000  celldm(6)=   0.000000

     crystal axes: (cart. coord. in units of alat)
               a(1) = (   6.148750   0.000000   0.000000 )
               a(2) = (   2.805342   5.471489   0.000000 )
               a(3) = (   0.000000   0.000000  25.075750 )

     reciprocal axes: (cart. coord. in units 2 pi/alat)
               b(1) = (  0.162635 -0.083386  0.000000 )
               b(2) = (  0.000000  0.182766  0.000000 )
               b(3) = (  0.000000  0.000000  0.039879 )

     PseudoPot. # 1 for Au read from file:
     ../pseudo/Au.pbe-n-rrkjus_psl.1.0.0.UPF
     MD5 check sum: d7e77ba19504afed2c9b41c931dde4f0
     Pseudo is Ultrasoft + core correction, Zval = 11.0
     Generated using "atomic" code by A. Dal Corso v.6.3
     Using radial grid of 1279 points,  6 beta functions with:
                l(1) =   0
                l(2) =   0
                l(3) =   1
                l(4) =   1
                l(5) =   2
                l(6) =   2
     Q(r) pseudized with 0 coefficients

     PseudoPot. # 2 for Hg read from file:
     ../pseudo/Hg.pbe-n-rrkjus_psl.1.0.0.UPF
     MD5 check sum: 7519ac2e5b9cac440d3cfd4127d6ea3c
     Pseudo is Ultrasoft + core correction, Zval = 12.0
     Generated using "atomic" code by A. Dal Corso v.6.3
     Using radial grid of 1279 points,  6 beta functions with:
                l(1) =   0
                l(2) =   0
                l(3) =   1
                l(4) =   1
                l(5) =   2
                l(6) =   2
     Q(r) pseudized with 0 coefficients

     atomic species   valence    mass     pseudopotential
        Au            11.00   196.96657     Au( 1.00)
        Hg            12.00   200.59200     Hg( 1.00)

     No symmetry found

   Cartesian axes

     site n.     atom                  positions (alat units)
         1           Au  tau(   1) = (   0.0000000   0.0000000  10.0000000  )
         2           Au  tau(   2) = (   4.4770460   2.7357444  10.0000000  )
         3           Hg  tau(   3) = (   3.0743752   0.0000000  10.0000000  )
         4           Hg  tau(   4) = (   1.4026708   2.7357444  10.0000000  )
         5           Au  tau(   5) = (   6.1487504   3.7572563  12.5378752  )
         6           Au  tau(   6) = (   1.6717043   1.0215119  12.5378752  )
         7           Hg  tau(   7) = (   3.0743752   3.7572563  12.5378752  )
         8           Hg  tau(   8) = (   4.7460795   1.0215119  12.5378752  )
         9           Au  tau(   9) = (   3.0319086   1.8525777  14.9752342  )
        10           Au  tau(  10) = (   7.5088479   4.5886607  14.9757650  )
        11           Hg  tau(  11) = (   6.1069716   1.8532182  15.6412183  )
        12           Hg  tau(  12) = (   4.4352147   4.5887306  15.6410063  )

     number of k points=    74  Fermi-Dirac smearing, width (Ry)=  0.0100
                       cart. coord. in units 2pi/alat
        k(    1) = (   0.0000000   0.0000000   0.0000000), wk =   0.0138889
        k(    2) = (   0.0000000   0.0152305   0.0000000), wk =   0.0277778
        k(    3) = (   0.0000000   0.0304609   0.0000000), wk =   0.0277778
        k(    4) = (   0.0000000   0.0456914   0.0000000), wk =   0.0277778
        k(    5) = (   0.0000000   0.0609219   0.0000000), wk =   0.0277778
        k(    6) = (   0.0000000   0.0761523   0.0000000), wk =   0.0277778
        k(    7) = (   0.0000000  -0.0913828   0.0000000), wk =   0.0138889
        k(    8) = (   0.0135529  -0.0069488   0.0000000), wk =   0.0277778
        k(    9) = (   0.0135529   0.0082816   0.0000000), wk =   0.0277778
        k(   10) = (   0.0135529   0.0235121   0.0000000), wk =   0.0277778
        k(   11) = (   0.0135529   0.0387426   0.0000000), wk =   0.0277778
        k(   12) = (   0.0135529   0.0539730   0.0000000), wk =   0.0277778
        k(   13) = (   0.0135529   0.0692035   0.0000000), wk =   0.0277778
        k(   14) = (   0.0135529  -0.0983316   0.0000000), wk =   0.0277778
        k(   15) = (   0.0135529  -0.0831012   0.0000000), wk =   0.0277778
        k(   16) = (   0.0135529  -0.0678707   0.0000000), wk =   0.0277778
        k(   17) = (   0.0135529  -0.0526402   0.0000000), wk =   0.0277778
        k(   18) = (   0.0135529  -0.0374098   0.0000000), wk =   0.0277778
        k(   19) = (   0.0135529  -0.0221793   0.0000000), wk =   0.0277778
        k(   20) = (   0.0271058  -0.0138977   0.0000000), wk =   0.0277778
        k(   21) = (   0.0271058   0.0013328   0.0000000), wk =   0.0277778
        k(   22) = (   0.0271058   0.0165633   0.0000000), wk =   0.0277778
        k(   23) = (   0.0271058   0.0317937   0.0000000), wk =   0.0277778
        k(   24) = (   0.0271058   0.0470242   0.0000000), wk =   0.0277778
        k(   25) = (   0.0271058   0.0622547   0.0000000), wk =   0.0277778
        k(   26) = (   0.0271058  -0.1052805   0.0000000), wk =   0.0277778
        k(   27) = (   0.0271058  -0.0900500   0.0000000), wk =   0.0277778
        k(   28) = (   0.0271058  -0.0748195   0.0000000), wk =   0.0277778
        k(   29) = (   0.0271058  -0.0595891   0.0000000), wk =   0.0277778
        k(   30) = (   0.0271058  -0.0443586   0.0000000), wk =   0.0277778
        k(   31) = (   0.0271058  -0.0291281   0.0000000), wk =   0.0277778
        k(   32) = (   0.0406587  -0.0208465   0.0000000), wk =   0.0277778
        k(   33) = (   0.0406587  -0.0056160   0.0000000), wk =   0.0277778
        k(   34) = (   0.0406587   0.0096144   0.0000000), wk =   0.0277778
        k(   35) = (   0.0406587   0.0248449   0.0000000), wk =   0.0277778
        k(   36) = (   0.0406587   0.0400754   0.0000000), wk =   0.0277778
        k(   37) = (   0.0406587   0.0553058   0.0000000), wk =   0.0277778
        k(   38) = (   0.0406587  -0.1122293   0.0000000), wk =   0.0277778
        k(   39) = (   0.0406587  -0.0969989   0.0000000), wk =   0.0277778
        k(   40) = (   0.0406587  -0.0817684   0.0000000), wk =   0.0277778
        k(   41) = (   0.0406587  -0.0665379   0.0000000), wk =   0.0277778
        k(   42) = (   0.0406587  -0.0513074   0.0000000), wk =   0.0277778
        k(   43) = (   0.0406587  -0.0360770   0.0000000), wk =   0.0277778
        k(   44) = (   0.0542116  -0.0277954   0.0000000), wk =   0.0277778
        k(   45) = (   0.0542116  -0.0125649   0.0000000), wk =   0.0277778
        k(   46) = (   0.0542116   0.0026656   0.0000000), wk =   0.0277778
        k(   47) = (   0.0542116   0.0178960   0.0000000), wk =   0.0277778
        k(   48) = (   0.0542116   0.0331265   0.0000000), wk =   0.0277778
        k(   49) = (   0.0542116   0.0483570   0.0000000), wk =   0.0277778
        k(   50) = (   0.0542116  -0.1191782   0.0000000), wk =   0.0277778
        k(   51) = (   0.0542116  -0.1039477   0.0000000), wk =   0.0277778
        k(   52) = (   0.0542116  -0.0887172   0.0000000), wk =   0.0277778
        k(   53) = (   0.0542116  -0.0734868   0.0000000), wk =   0.0277778
        k(   54) = (   0.0542116  -0.0582563   0.0000000), wk =   0.0277778
        k(   55) = (   0.0542116  -0.0430258   0.0000000), wk =   0.0277778
        k(   56) = (   0.0677645  -0.0347442   0.0000000), wk =   0.0277778
        k(   57) = (   0.0677645  -0.0195137   0.0000000), wk =   0.0277778
        k(   58) = (   0.0677645  -0.0042833   0.0000000), wk =   0.0277778
        k(   59) = (   0.0677645   0.0109472   0.0000000), wk =   0.0277778
        k(   60) = (   0.0677645   0.0261777   0.0000000), wk =   0.0277778
        k(   61) = (   0.0677645   0.0414081   0.0000000), wk =   0.0277778
        k(   62) = (   0.0677645  -0.1261270   0.0000000), wk =   0.0277778
        k(   63) = (   0.0677645  -0.1108965   0.0000000), wk =   0.0277778
        k(   64) = (   0.0677645  -0.0956661   0.0000000), wk =   0.0277778
        k(   65) = (   0.0677645  -0.0804356   0.0000000), wk =   0.0277778
        k(   66) = (   0.0677645  -0.0652051   0.0000000), wk =   0.0277778
        k(   67) = (   0.0677645  -0.0499747   0.0000000), wk =   0.0277778
        k(   68) = (  -0.0813173   0.0416930   0.0000000), wk =   0.0138889
        k(   69) = (  -0.0813173   0.0569235   0.0000000), wk =   0.0277778
        k(   70) = (  -0.0813173   0.0721540   0.0000000), wk =   0.0277778
        k(   71) = (  -0.0813173   0.0873844   0.0000000), wk =   0.0277778
        k(   72) = (  -0.0813173   0.1026149   0.0000000), wk =   0.0277778
        k(   73) = (  -0.0813173   0.1178454   0.0000000), wk =   0.0277778
        k(   74) = (  -0.0813173  -0.0496898   0.0000000), wk =   0.0138889

     Initial potential from superposition of free atoms

     starting charge  137.99885, renormalised to  138.00000

     negative rho (up, down):  1.564E-03 0.000E+00

     %%%%%%%%%%%%%%%%%%%%%%%%%%%%%%%%%%%%%%%%%%%%%%%%%%%%%%%%%%%%%%%%%%%%%%%%
     %                                                                      %
     % You are using vdW-DF, which was implemented by the Thonhauser group. %
     % Please cite the following two papers that made this development      %
     % possible and the two reviews that describe the various versions:     %
     %                                                                      %
     %   T. Thonhauser et al., PRL 115, 136402 (2015).                      %
     %   T. Thonhauser et al., PRB 76, 125112 (2007).                       %
     %   K. Berland et al., Rep. Prog. Phys. 78, 066501 (2015).             %
     %   D.C. Langreth et al., J. Phys.: Condens. Matter 21, 084203 (2009). %
     %                                                                      %
     %                                                                      %
     % If you are calculating the stress with vdW-DF, please also cite:     %
     %                                                                      %
     %   R. Sabatini et al., J. Phys.: Condens. Matter 24, 424209 (2012).   %
     %                                                                      %
     %%%%%%%%%%%%%%%%%%%%%%%%%%%%%%%%%%%%%%%%%%%%%%%%%%%%%%%%%%%%%%%%%%%%%%%%

     Adding external electric field

     Computed dipole along edir(3) :
        Dipole               -0.0000 Ry au,         -0.0001 Debye
        Dipole field         -0.0000 Ry au,

        Potential amp.        0.0000 Ry
        Total length         46.2016 bohr

     Starting wfcs are  108 randomized atomic wfcs

     Self-consistent Calculation

     iteration #  1     ecut=    55.12 Ry     beta= 0.10
     Davidson diagonalization with overlap
     ethr =  1.00E-02,  avg # of iterations =  3.2

     Threshold (ethr) on eigenvalues was too large:
     Diagonalizing with lowered threshold

     Davidson diagonalization with overlap
     c_bands:  1 eigenvalues not converged
     c_bands:  1 eigenvalues not converged
     c_bands:  1 eigenvalues not converged
     c_bands:  1 eigenvalues not converged
     c_bands:  1 eigenvalues not converged
     c_bands:  1 eigenvalues not converged
     c_bands:  2 eigenvalues not converged
     c_bands:  1 eigenvalues not converged
     c_bands:  1 eigenvalues not converged
     c_bands:  2 eigenvalues not converged
     c_bands:  1 eigenvalues not converged
     c_bands:  1 eigenvalues not converged
     c_bands:  1 eigenvalues not converged
     c_bands:  2 eigenvalues not converged
     c_bands:  1 eigenvalues not converged
     ethr =  7.78E-05,  avg # of iterations = 13.9

[...]

     total energy              =   -1125.55157219 Ry
     estimated scf accuracy    <       0.09604144 Ry

[...]

     iteration #  5     ecut=    55.12 Ry     beta= 0.10
     Davidson diagonalization with overlap
     c_bands:  1 eigenvalues not converged
     c_bands:  1 eigenvalues not converged
     c_bands:  1 eigenvalues not converged
     c_bands:  1 eigenvalues not converged
     c_bands:  1 eigenvalues not converged
     c_bands:  1 eigenvalues not converged
     c_bands:  1 eigenvalues not converged
     c_bands:  1 eigenvalues not converged
     c_bands:  1 eigenvalues not converged
     ethr =  1.12E-05,  avg # of iterations =  9.8

[...]

     iteration #  7     ecut=    55.12 Ry     beta= 0.10
     Davidson diagonalization with overlap
     c_bands:  1 eigenvalues not converged
     ethr =  2.80E-06,  avg # of iterations =  2.8

[...]

     total energy              =   -1125.55322630 Ry
     estimated scf accuracy    <       0.00003524 Ry

     iteration # 11     ecut=    55.12 Ry     beta= 0.10
     Davidson diagonalization with overlap
     ethr =  2.55E-08,  avg # of iterations =  2.4

[...]

     Adding external electric field

     Computed dipole along edir(3) :
        Dipole                0.0803 Ry au,          0.2042 Debye
        Dipole field          0.0002 Ry au,

        Potential amp.       -0.0164 Ry
        Total length         46.2016 bohr

     End of self-consistent calculation

          k = 0.0000 0.0000 0.0000 ( 39399 PWs)   bands (ev):

    -7.7404  -7.3525  -7.2896  -7.2507  -7.2142  -7.1102  -6.9881  -6.9819
    -6.9173  -6.8575  -6.8546  -6.6965  -6.6400  -6.6153  -6.5854  -6.4816
    -6.4714  -6.3958  -6.3403  -6.3281  -6.2493  -6.2291  -6.2257  -6.1333
    -6.0908  -6.0620  -6.0012  -5.8918  -5.8588  -5.7658  -5.6143  -5.6048
    -4.6476  -4.3221  -4.0275  -4.0117  -3.8238  -3.8232  -3.7594  -3.7372
    -3.5985  -3.4593  -3.1789  -3.1314  -3.0494  -3.0361  -2.9997  -2.8929
    -2.8477  -2.8355  -2.7063  -2.6484  -2.6000  -2.5599  -2.5475  -2.5408
    -2.4224  -2.4078  -2.3966  -2.3507  -2.2574  -2.0507  -1.8663  -0.2485
    -0.2135  -0.1118  -0.0590   0.2421   0.3660   0.5066   0.5226   0.8047
     0.9359   1.3455   1.6782   2.1463   2.2119   2.8896   3.0174   3.1408
     3.2762   3.4107   3.6751

[...]

          k = 0.0678-0.0500 0.0000 ( 39340 PWs)   bands (ev):

[...]

          k =-0.0813 0.0417 0.0000 ( 39342 PWs)   bands (ev):

[...]

          k =-0.0813-0.0497 0.0000 ( 39286 PWs)   bands (ev):

    -7.3529  -7.1202  -7.1124  -7.0274  -6.9381  -6.8675  -6.7916  -6.7912
    -6.7879  -6.7597  -6.6378  -6.5552  -6.4991  -6.4503  -6.4470  -6.3685
    -6.3503  -6.3309  -6.3290  -6.2227  -6.2018  -6.1612  -6.1181  -6.0778
    -6.0570  -6.0133  -5.8432  -5.8350  -5.8160  -5.7730  -5.5976  -5.4391
    -4.6682  -4.2950  -4.1964  -4.1827  -4.1185  -4.0232  -3.9739  -3.8056
    -3.7955  -3.7538  -3.6659  -3.6418  -3.5669  -3.5161  -3.3050  -3.2324
    -3.2162  -3.0418  -3.0268  -3.0108  -2.9374  -2.9001  -2.8301  -2.6841
    -2.6665  -2.5745  -2.5712  -2.4236  -2.4158  -2.3452  -2.2740  -2.2502
    -1.8438  -1.0649  -1.0450  -0.7065  -0.6397   0.1072   0.3893   1.5804
     2.3297   2.6373   4.0251   4.1539   4.3273   4.4428   4.6468   4.8746
     5.1959   5.3226   5.7947

     the Fermi energy is     0.3468 ev

!    total energy              =   -1125.55323329 Ry
     estimated scf accuracy    <       0.00000336 Ry
     smearing contrib. (-TS)   =      -0.02119400 Ry
     internal energy E=F+TS    =   -1125.53203929 Ry

     The total energy is F=E-TS. E is the sum of the following terms:
     one-electron contribution =   -7577.19702009 Ry
     hartree contribution      =    3874.71400295 Ry
     xc contribution           =    -399.82911195 Ry
     ewald contribution        =    2976.78007554 Ry
     electric field correction =       0.00001425 Ry

     convergence has been achieved in  11 iterations

     negative rho (up, down):  1.464E-03 0.000E+00

     Forces acting on atoms (cartesian axes, Ry/au):

     atom    1 type  1   force =     0.00256326    0.00157540   -0.00064702
     atom    2 type  1   force =     0.00257921    0.00159003   -0.00066740
     atom    3 type  2   force =    -0.00236607   -0.00144175   -0.01997117
     atom    4 type  2   force =    -0.00239892   -0.00143543   -0.01999197
     atom    5 type  1   force =    -0.00817342   -0.00498651    0.00685157
     atom    6 type  1   force =    -0.00818414   -0.00502679    0.00684120
     atom    7 type  2   force =     0.00738886    0.00453040    0.01057572
     atom    8 type  2   force =     0.00740229    0.00449595    0.01057451
     atom    9 type  1   force =     0.00014154    0.00008179    0.00232451
     atom   10 type  1   force =     0.00015420    0.00007951    0.00229129
     atom   11 type  2   force =     0.00045353    0.00025727    0.00090701
     atom   12 type  2   force =     0.00043966    0.00028014    0.00091176

     Total force =     0.038697     Total SCF correction =     0.006494
     SCF correction compared to forces is large: reduce conv_thr to get better values

     Writing output data file ./Au2Hg2/Au2Hg2_beef.save/

     General routines

     Parallel routines

   This run was terminated on:  12:54: 9  10Jul2022

   JOB DONE.