     Program PWSCF v.6.6 starts on 10Jul2022 at 12:15:46

     R & G space division:  proc/nbgrp/npool/nimage =      37
     Fft bands division:     nmany     =       1
     Reading input from Cd2Au2.in
Warning: card &CELL ignored
Warning: card / ignored

     Current dimensions of program PWSCF are:
     Max number of different atomic species (ntypx) = 10
     Max number of k-points (npk) =  40000
     Max angular momentum in pseudopotentials (lmaxx) =  3
     Presently stress not available with electric field and gates

     Message from routine cell_base_init:
     DEPRECATED: use true lattice parameter, not A to a.u. conversion factor
     file Cd.pbe-n-rrkjus_psl.1.0.0.UPF: wavefunction(s)  4D renormalized

     IMPORTANT: XC functional enforced from input :
     Exchange-correlation= BEEF-VDW
                           (   1   4  43  14   2   0   0)
     Any further DFT definition will be discarded
     Please, verify this is what you really want

     Subspace diagonalization in iterative solution of the eigenvalue problem:
     a serial algorithm will be used

     bravais-lattice index     =            0
     lattice parameter (alat)  =       1.8897  a.u.
     unit-cell volume          =    5526.2045 (a.u.)^3
     number of atoms/cell      =           12
     number of atomic types    =            2
     number of electrons       =       138.00
     number of Kohn-Sham states=           83
     kinetic-energy cutoff     =      55.1240  Ry
     charge density cutoff     =     551.2396  Ry
     convergence threshold     =      1.0E-05
     mixing beta               =       0.1000
     number of iterations used =           10  plain     mixing
     Exchange-correlation= BEEF-VDW
                           (   1   4  43  14   2   0   0)

     celldm(1)=   1.889726  celldm(2)=   0.000000  celldm(3)=   0.000000
     celldm(4)=   0.000000  celldm(5)=   0.000000  celldm(6)=   0.000000

     crystal axes: (cart. coord. in units of alat)
               a(1) = (   5.965654   0.000000   0.000000 )
               a(2) = (   2.297634   5.505444   0.000000 )
               a(3) = (   0.000000   0.000000  24.933315 )

     reciprocal axes: (cart. coord. in units 2 pi/alat)
               b(1) = (  0.167626 -0.069957  0.000000 )
               b(2) = (  0.000000  0.181638  0.000000 )
               b(3) = (  0.000000  0.000000  0.040107 )

     PseudoPot. # 1 for Cd read from file:
     ../pseudo/Cd.pbe-n-rrkjus_psl.1.0.0.UPF
     MD5 check sum: a744746c89d2344a134ead0d8ab94e7a
     Pseudo is Ultrasoft + core correction, Zval = 12.0
     Generated using "atomic" code by A. Dal Corso v.6.3
     Using radial grid of 1239 points,  6 beta functions with:
                l(1) =   0
                l(2) =   0
                l(3) =   1
                l(4) =   1
                l(5) =   2
                l(6) =   2
     Q(r) pseudized with 0 coefficients

     PseudoPot. # 2 for Au read from file:
     ../pseudo/Au.pbe-n-rrkjus_psl.1.0.0.UPF
     MD5 check sum: d7e77ba19504afed2c9b41c931dde4f0
     Pseudo is Ultrasoft + core correction, Zval = 11.0
     Generated using "atomic" code by A. Dal Corso v.6.3
     Using radial grid of 1279 points,  6 beta functions with:
                l(1) =   0
                l(2) =   0
                l(3) =   1
                l(4) =   1
                l(5) =   2
                l(6) =   2
     Q(r) pseudized with 0 coefficients

     atomic species   valence    mass     pseudopotential
        Cd            12.00   112.41400     Cd( 1.00)
        Au            11.00   196.96657     Au( 1.00)

     No symmetry found

   Cartesian axes

     site n.     atom                  positions (alat units)
         1           Cd  tau(   1) = (   0.0000000   0.0000000  10.0000000  )
         2           Cd  tau(   2) = (   4.1316440   2.7527218  10.0000000  )
         3           Au  tau(   3) = (   2.9828271   0.0000000  10.0000000  )
         4           Au  tau(   4) = (   1.1488169   2.7527218  10.0000000  )
         5           Cd  tau(   5) = (   5.9656542   3.9746374  12.4666576  )
         6           Cd  tau(   6) = (   1.8340102   1.2219156  12.4666576  )
         7           Au  tau(   7) = (   2.9828271   3.9746374  12.4666576  )
         8           Au  tau(   8) = (   4.8168373   1.2219156  12.4666576  )
         9           Cd  tau(   9) = (   3.6818624   2.4531124  15.1023732  )
        10           Cd  tau(  10) = (   7.8135333   5.2057014  15.1023511  )
        11           Au  tau(  11) = (   6.6514578   2.4442851  14.9726343  )
        12           Au  tau(  12) = (   4.8175261   5.1969389  14.9725396  )

     number of k points=    74  Fermi-Dirac smearing, width (Ry)=  0.0100
                       cart. coord. in units 2pi/alat
        k(    1) = (   0.0000000   0.0000000   0.0000000), wk =   0.0138889
        k(    2) = (   0.0000000   0.0151365   0.0000000), wk =   0.0277778
        k(    3) = (   0.0000000   0.0302731   0.0000000), wk =   0.0277778
        k(    4) = (   0.0000000   0.0454096   0.0000000), wk =   0.0277778
        k(    5) = (   0.0000000   0.0605461   0.0000000), wk =   0.0277778
        k(    6) = (   0.0000000   0.0756827   0.0000000), wk =   0.0277778
        k(    7) = (   0.0000000  -0.0908192   0.0000000), wk =   0.0138889
        k(    8) = (   0.0139689  -0.0058297   0.0000000), wk =   0.0277778
        k(    9) = (   0.0139689   0.0093068   0.0000000), wk =   0.0277778
        k(   10) = (   0.0139689   0.0244433   0.0000000), wk =   0.0277778
        k(   11) = (   0.0139689   0.0395799   0.0000000), wk =   0.0277778
        k(   12) = (   0.0139689   0.0547164   0.0000000), wk =   0.0277778
        k(   13) = (   0.0139689   0.0698529   0.0000000), wk =   0.0277778
        k(   14) = (   0.0139689  -0.0966489   0.0000000), wk =   0.0277778
        k(   15) = (   0.0139689  -0.0815124   0.0000000), wk =   0.0277778
        k(   16) = (   0.0139689  -0.0663759   0.0000000), wk =   0.0277778
        k(   17) = (   0.0139689  -0.0512393   0.0000000), wk =   0.0277778
        k(   18) = (   0.0139689  -0.0361028   0.0000000), wk =   0.0277778
        k(   19) = (   0.0139689  -0.0209663   0.0000000), wk =   0.0277778
        k(   20) = (   0.0279377  -0.0116595   0.0000000), wk =   0.0277778
        k(   21) = (   0.0279377   0.0034771   0.0000000), wk =   0.0277778
        k(   22) = (   0.0279377   0.0186136   0.0000000), wk =   0.0277778
        k(   23) = (   0.0279377   0.0337501   0.0000000), wk =   0.0277778
        k(   24) = (   0.0279377   0.0488867   0.0000000), wk =   0.0277778
        k(   25) = (   0.0279377   0.0640232   0.0000000), wk =   0.0277778
        k(   26) = (   0.0279377  -0.1024787   0.0000000), wk =   0.0277778
        k(   27) = (   0.0279377  -0.0873421   0.0000000), wk =   0.0277778
        k(   28) = (   0.0279377  -0.0722056   0.0000000), wk =   0.0277778
        k(   29) = (   0.0279377  -0.0570691   0.0000000), wk =   0.0277778
        k(   30) = (   0.0279377  -0.0419325   0.0000000), wk =   0.0277778
        k(   31) = (   0.0279377  -0.0267960   0.0000000), wk =   0.0277778
        k(   32) = (   0.0419066  -0.0174892   0.0000000), wk =   0.0277778
        k(   33) = (   0.0419066  -0.0023527   0.0000000), wk =   0.0277778
        k(   34) = (   0.0419066   0.0127838   0.0000000), wk =   0.0277778
        k(   35) = (   0.0419066   0.0279204   0.0000000), wk =   0.0277778
        k(   36) = (   0.0419066   0.0430569   0.0000000), wk =   0.0277778
        k(   37) = (   0.0419066   0.0581934   0.0000000), wk =   0.0277778
        k(   38) = (   0.0419066  -0.1083084   0.0000000), wk =   0.0277778
        k(   39) = (   0.0419066  -0.0931719   0.0000000), wk =   0.0277778
        k(   40) = (   0.0419066  -0.0780354   0.0000000), wk =   0.0277778
        k(   41) = (   0.0419066  -0.0628988   0.0000000), wk =   0.0277778
        k(   42) = (   0.0419066  -0.0477623   0.0000000), wk =   0.0277778
        k(   43) = (   0.0419066  -0.0326258   0.0000000), wk =   0.0277778
        k(   44) = (   0.0558754  -0.0233190   0.0000000), wk =   0.0277778
        k(   45) = (   0.0558754  -0.0081824   0.0000000), wk =   0.0277778
        k(   46) = (   0.0558754   0.0069541   0.0000000), wk =   0.0277778
        k(   47) = (   0.0558754   0.0220906   0.0000000), wk =   0.0277778
        k(   48) = (   0.0558754   0.0372272   0.0000000), wk =   0.0277778
        k(   49) = (   0.0558754   0.0523637   0.0000000), wk =   0.0277778
        k(   50) = (   0.0558754  -0.1141382   0.0000000), wk =   0.0277778
        k(   51) = (   0.0558754  -0.0990016   0.0000000), wk =   0.0277778
        k(   52) = (   0.0558754  -0.0838651   0.0000000), wk =   0.0277778
        k(   53) = (   0.0558754  -0.0687286   0.0000000), wk =   0.0277778
        k(   54) = (   0.0558754  -0.0535920   0.0000000), wk =   0.0277778
        k(   55) = (   0.0558754  -0.0384555   0.0000000), wk =   0.0277778
        k(   56) = (   0.0698443  -0.0291487   0.0000000), wk =   0.0277778
        k(   57) = (   0.0698443  -0.0140122   0.0000000), wk =   0.0277778
        k(   58) = (   0.0698443   0.0011244   0.0000000), wk =   0.0277778
        k(   59) = (   0.0698443   0.0162609   0.0000000), wk =   0.0277778
        k(   60) = (   0.0698443   0.0313974   0.0000000), wk =   0.0277778
        k(   61) = (   0.0698443   0.0465340   0.0000000), wk =   0.0277778
        k(   62) = (   0.0698443  -0.1199679   0.0000000), wk =   0.0277778
        k(   63) = (   0.0698443  -0.1048314   0.0000000), wk =   0.0277778
        k(   64) = (   0.0698443  -0.0896948   0.0000000), wk =   0.0277778
        k(   65) = (   0.0698443  -0.0745583   0.0000000), wk =   0.0277778
        k(   66) = (   0.0698443  -0.0594218   0.0000000), wk =   0.0277778
        k(   67) = (   0.0698443  -0.0442852   0.0000000), wk =   0.0277778
        k(   68) = (  -0.0838131   0.0349784   0.0000000), wk =   0.0138889
        k(   69) = (  -0.0838131   0.0501150   0.0000000), wk =   0.0277778
        k(   70) = (  -0.0838131   0.0652515   0.0000000), wk =   0.0277778
        k(   71) = (  -0.0838131   0.0803880   0.0000000), wk =   0.0277778
        k(   72) = (  -0.0838131   0.0955246   0.0000000), wk =   0.0277778
        k(   73) = (  -0.0838131   0.1106611   0.0000000), wk =   0.0277778
        k(   74) = (  -0.0838131  -0.0558408   0.0000000), wk =   0.0138889

     Initial potential from superposition of free atoms

     starting charge  137.97004, renormalised to  138.00000

     negative rho (up, down):  3.099E-03 0.000E+00

     %%%%%%%%%%%%%%%%%%%%%%%%%%%%%%%%%%%%%%%%%%%%%%%%%%%%%%%%%%%%%%%%%%%%%%%%
     %                                                                      %
     % You are using vdW-DF, which was implemented by the Thonhauser group. %
     % Please cite the following two papers that made this development      %
     % possible and the two reviews that describe the various versions:     %
     %                                                                      %
     %   T. Thonhauser et al., PRL 115, 136402 (2015).                      %
     %   T. Thonhauser et al., PRB 76, 125112 (2007).                       %
     %   K. Berland et al., Rep. Prog. Phys. 78, 066501 (2015).             %
     %   D.C. Langreth et al., J. Phys.: Condens. Matter 21, 084203 (2009). %
     %                                                                      %
     %                                                                      %
     % If you are calculating the stress with vdW-DF, please also cite:     %
     %                                                                      %
     %   R. Sabatini et al., J. Phys.: Condens. Matter 24, 424209 (2012).   %
     %                                                                      %
     %%%%%%%%%%%%%%%%%%%%%%%%%%%%%%%%%%%%%%%%%%%%%%%%%%%%%%%%%%%%%%%%%%%%%%%%

     Adding external electric field

     Computed dipole along edir(3) :
        Dipole                0.0011 Ry au,          0.0028 Debye
        Dipole field          0.0000 Ry au,

        Potential amp.       -0.0002 Ry
        Total length         45.9392 bohr

     Starting wfcs are  108 randomized atomic wfcs

     Self-consistent Calculation

     iteration #  1     ecut=    55.12 Ry     beta= 0.10
     Davidson diagonalization with overlap
     ethr =  1.00E-02,  avg # of iterations =  2.7

     Threshold (ethr) on eigenvalues was too large:
     Diagonalizing with lowered threshold

     Davidson diagonalization with overlap
     ethr =  4.52E-04,  avg # of iterations =  5.0

[...]

     total energy              =   -1126.45667646 Ry
     estimated scf accuracy    <       0.61566820 Ry

[...]

     iteration #  4     ecut=    55.12 Ry     beta= 0.10
     Davidson diagonalization with overlap
     c_bands:  1 eigenvalues not converged
     c_bands:  1 eigenvalues not converged
     c_bands:  1 eigenvalues not converged
     c_bands:  1 eigenvalues not converged
     c_bands:  2 eigenvalues not converged
     c_bands:  2 eigenvalues not converged
     c_bands:  1 eigenvalues not converged
     c_bands:  1 eigenvalues not converged
     c_bands:  3 eigenvalues not converged
     c_bands:  2 eigenvalues not converged
     c_bands:  1 eigenvalues not converged
     c_bands:  1 eigenvalues not converged
     c_bands:  2 eigenvalues not converged
     c_bands:  2 eigenvalues not converged
     c_bands:  3 eigenvalues not converged
     c_bands:  2 eigenvalues not converged
     c_bands:  2 eigenvalues not converged
     c_bands:  2 eigenvalues not converged
     c_bands:  1 eigenvalues not converged
     c_bands:  1 eigenvalues not converged
     c_bands:  2 eigenvalues not converged
     c_bands:  2 eigenvalues not converged
     c_bands:  3 eigenvalues not converged
     c_bands:  2 eigenvalues not converged
     c_bands:  3 eigenvalues not converged
     c_bands:  2 eigenvalues not converged
     c_bands:  3 eigenvalues not converged
     c_bands:  2 eigenvalues not converged
     c_bands:  2 eigenvalues not converged
     c_bands:  1 eigenvalues not converged
     c_bands:  1 eigenvalues not converged
     c_bands:  1 eigenvalues not converged
     c_bands:  1 eigenvalues not converged
     c_bands:  2 eigenvalues not converged
     c_bands:  1 eigenvalues not converged
     ethr =  2.33E-05,  avg # of iterations = 15.1

[...]

     iteration #  9     ecut=    55.12 Ry     beta= 0.10
     Davidson diagonalization with overlap
     c_bands:  1 eigenvalues not converged
     c_bands:  1 eigenvalues not converged
     c_bands:  1 eigenvalues not converged
     c_bands:  1 eigenvalues not converged
     ethr =  1.28E-06,  avg # of iterations =  4.5

[...]

     total energy              =   -1126.38478600 Ry
     estimated scf accuracy    <       0.00003201 Ry

     iteration # 20     ecut=    55.12 Ry     beta= 0.10
     Davidson diagonalization with overlap
     ethr =  2.32E-08,  avg # of iterations =  3.8

[...]

     Adding external electric field

     Computed dipole along edir(3) :
        Dipole                0.0259 Ry au,          0.0658 Debye
        Dipole field          0.0001 Ry au,

        Potential amp.       -0.0054 Ry
        Total length         45.9392 bohr

     End of self-consistent calculation

          k = 0.0000 0.0000 0.0000 ( 38199 PWs)   bands (ev):

    -8.9255  -8.8968  -8.8527  -8.8232  -8.7208  -8.6645  -8.6454  -8.6439
    -8.6130  -8.6004  -8.5871  -8.5015  -8.5002  -8.4630  -8.4544  -8.4449
    -8.4379  -8.4096  -8.3712  -8.3554  -8.3297  -8.2840  -8.2806  -8.2405
    -8.2118  -8.1676  -8.1539  -8.1270  -8.0589  -7.9840  -7.5162  -5.8492
    -4.9422  -4.8607  -4.6289  -4.2763  -4.2455  -3.9535  -3.9213  -3.8604
    -3.8101  -3.6663  -3.6155  -3.4693  -3.4520  -3.3407  -3.3343  -3.2748
    -3.2336  -3.2197  -3.1715  -3.1325  -3.1149  -2.9519  -2.8956  -2.8720
    -2.8261  -2.8180  -2.7991  -2.7835  -2.7303  -2.4405  -1.9778  -0.7259
    -0.5953  -0.4217   0.0619   0.0675   0.0768   0.2135   0.4456   0.9968
     1.2696   1.9845   2.1238   2.1796   2.4886   2.6755   3.0104   3.5480
     3.8184   3.9189   4.3214

[...]

          k = 0.0698-0.0443 0.0000 ( 38217 PWs)   bands (ev):

[...]

          k =-0.0838 0.0350 0.0000 ( 38222 PWs)   bands (ev):

[...]

          k =-0.0838-0.0558 0.0000 ( 38180 PWs)   bands (ev):

    -8.8417  -8.7859  -8.7174  -8.6634  -8.6198  -8.6028  -8.6020  -8.5988
    -8.5452  -8.5238  -8.4811  -8.4358  -8.4342  -8.4039  -8.4016  -8.3960
    -8.3549  -8.3497  -8.3377  -8.3030  -8.2974  -8.2712  -8.2570  -8.2278
    -8.1960  -8.1529  -8.1457  -8.1356  -8.0585  -7.9858  -5.9162  -5.6660
    -4.9262  -4.7300  -4.5661  -4.4499  -4.2928  -4.2170  -4.1804  -4.0810
    -4.0284  -3.9739  -3.9385  -3.9068  -3.8625  -3.8134  -3.6856  -3.5237
    -3.4958  -3.4485  -3.4313  -3.3962  -3.3298  -3.2324  -3.1809  -3.0851
    -3.0640  -2.9863  -2.8210  -2.8091  -2.7857  -2.7619  -2.4595  -2.3663
    -2.3537  -1.4107  -0.7515  -0.7084  -0.6255  -0.6205   1.1069   1.2922
     2.4119   2.5754   4.0982   4.2080   4.6949   4.7145   4.7470   5.0167
     5.0262   5.6752   5.7164

     the Fermi energy is     0.4200 ev

!    total energy              =   -1126.38478709 Ry
     estimated scf accuracy    <       0.00000743 Ry
     smearing contrib. (-TS)   =      -0.01899113 Ry
     internal energy E=F+TS    =   -1126.36579597 Ry

     The total energy is F=E-TS. E is the sum of the following terms:
     one-electron contribution =   -8126.66683467 Ry
     hartree contribution      =    4147.18471485 Ry
     xc contribution           =    -341.79809705 Ry
     ewald contribution        =    3194.91441938 Ry
     electric field correction =       0.00000153 Ry

     convergence has been achieved in  20 iterations

     negative rho (up, down):  3.355E-03 0.000E+00

     Forces acting on atoms (cartesian axes, Ry/au):

     atom    1 type  1   force =    -0.00137094   -0.00089442   -0.00949817
     atom    2 type  1   force =    -0.00133104   -0.00089094   -0.00951442
     atom    3 type  2   force =     0.00010312    0.00002982   -0.00235183
     atom    4 type  2   force =     0.00005473    0.00008957   -0.00237323
     atom    5 type  1   force =     0.00087529    0.00057525    0.00510721
     atom    6 type  1   force =     0.00085850    0.00055290    0.00512420
     atom    7 type  2   force =    -0.00063877   -0.00040682    0.00770135
     atom    8 type  2   force =    -0.00062525   -0.00042029    0.00769661
     atom    9 type  1   force =    -0.00041837   -0.00031032   -0.00100895
     atom   10 type  1   force =    -0.00039055   -0.00022751   -0.00098842
     atom   11 type  2   force =     0.00143392    0.00091612    0.00005002
     atom   12 type  2   force =     0.00144935    0.00098664    0.00005564

     Total force =     0.019488     Total SCF correction =     0.006939
     SCF correction compared to forces is large: reduce conv_thr to get better values

     Writing output data file ./Cd2Au2/Cd2Au2_beef.save/

     General routines

     Parallel routines

   This run was terminated on:  13:44:33  10Jul2022

   JOB DONE.