     Program PWSCF v.6.6 starts on 23Jun2022 at 16:37:13

     R & G space division:  proc/nbgrp/npool/nimage =      37
     Fft bands division:     nmany     =       1
     Reading input from Cd2Ir2.in
Warning: card &CELL ignored
Warning: card / ignored

     Current dimensions of program PWSCF are:
     Max number of different atomic species (ntypx) = 10
     Max number of k-points (npk) =  40000
     Max angular momentum in pseudopotentials (lmaxx) =  3
     Presently stress not available with electric field and gates

     Message from routine cell_base_init:
     DEPRECATED: use true lattice parameter, not A to a.u. conversion factor
     file Cd.pbe-n-rrkjus_psl.1.0.0.UPF: wavefunction(s)  4D renormalized
     file Ir.pbe-n-rrkjus_psl.0.2.3.UPF: wavefunction(s)  5D renormalized

     IMPORTANT: XC functional enforced from input :
     Exchange-correlation= BEEF-VDW
                           (   1   4  43  14   2   0   0)
     Any further DFT definition will be discarded
     Please, verify this is what you really want

     Subspace diagonalization in iterative solution of the eigenvalue problem:
     a serial algorithm will be used

     Message from routine set_sym_bl:
     NOTICE: Symmetry group for Bravais lattice is not a group (16) - symmetries are disabled
     Found symmetry operation: I + (  0.5000 -0.5000  0.0000)
     This is a supercell, fractional translations are disabled

     bravais-lattice index     =            0
     lattice parameter (alat)  =       1.8897  a.u.
     unit-cell volume          =    4895.4044 (a.u.)^3
     number of atoms/cell      =           12
     number of atomic types    =            2
     number of electrons       =       126.00
     number of Kohn-Sham states=           76
     kinetic-energy cutoff     =      55.1240  Ry
     charge density cutoff     =     551.2396  Ry
     convergence threshold     =      1.0E-05
     mixing beta               =       0.1000
     number of iterations used =           10  plain     mixing
     Exchange-correlation= BEEF-VDW
                           (   1   4  43  14   2   0   0)

     celldm(1)=   1.889726  celldm(2)=   0.000000  celldm(3)=   0.000000
     celldm(4)=   0.000000  celldm(5)=   0.000000  celldm(6)=   0.000000

     crystal axes: (cart. coord. in units of alat)
               a(1) = (   5.817584   0.000000   0.000000 )
               a(2) = (   2.908788   5.038178   0.000000 )
               a(3) = (   0.000000   0.000000  24.750039 )

     reciprocal axes: (cart. coord. in units 2 pi/alat)
               b(1) = (  0.171893 -0.099242  0.000000 )
               b(2) = (  0.000000  0.198484  0.000000 )
               b(3) = (  0.000000  0.000000  0.040404 )

     PseudoPot. # 1 for Cd read from file:
     ../pseudo/Cd.pbe-n-rrkjus_psl.1.0.0.UPF
     MD5 check sum: a744746c89d2344a134ead0d8ab94e7a
     Pseudo is Ultrasoft + core correction, Zval = 12.0
     Generated using "atomic" code by A. Dal Corso v.6.3
     Using radial grid of 1239 points,  6 beta functions with:
                l(1) =   0
                l(2) =   0
                l(3) =   1
                l(4) =   1
                l(5) =   2
                l(6) =   2
     Q(r) pseudized with 0 coefficients

     PseudoPot. # 2 for Ir read from file:
     ../pseudo/Ir.pbe-n-rrkjus_psl.0.2.3.UPF
     MD5 check sum: a93e608e8ddc29ee62145620b5f41564
     Pseudo is Ultrasoft + core correction, Zval =  9.0
     Generated using "atomic" code by A. Dal Corso v.5.0.2 svn rev. 9415
     Using radial grid of 1277 points,  6 beta functions with:
                l(1) =   0
                l(2) =   0
                l(3) =   1
                l(4) =   1
                l(5) =   2
                l(6) =   2
     Q(r) pseudized with 0 coefficients

     atomic species   valence    mass     pseudopotential
        Cd            12.00   112.41400     Cd( 1.00)
        Ir             9.00   192.21700     Ir( 1.00)

     No symmetry found

   Cartesian axes

     site n.     atom                  positions (alat units)
         1           Cd  tau(   1) = (   0.0000000   0.0000000  10.0000000  )
         2           Cd  tau(   2) = (   4.3631858   2.5190891  10.0000000  )
         3           Ir  tau(   3) = (   2.9087920   0.0000000  10.0000000  )
         4           Ir  tau(   4) = (   1.4543938   2.5190891  10.0000000  )
         5           Cd  tau(   5) = (   5.8175841   3.3587872  12.3750194  )
         6           Cd  tau(   6) = (   1.4543983   0.8396981  12.3750194  )
         7           Ir  tau(   7) = (   2.9087920   3.3587872  12.3750194  )
         8           Ir  tau(   8) = (   4.3631903   0.8396981  12.3750194  )
         9           Cd  tau(   9) = (   2.6195840   1.5124386  15.0610264  )
        10           Cd  tau(  10) = (   6.9827828   4.0315207  15.0610341  )
        11           Ir  tau(  11) = (   5.4709635   1.4792585  14.5542263  )
        12           Ir  tau(  12) = (   4.0165511   3.9983795  14.5542142  )

     number of k points=    74  Fermi-Dirac smearing, width (Ry)=  0.0100
                       cart. coord. in units 2pi/alat
        k(    1) = (   0.0000000   0.0000000   0.0000000), wk =   0.0138889
        k(    2) = (   0.0000000   0.0165404   0.0000000), wk =   0.0277778
        k(    3) = (   0.0000000   0.0330807   0.0000000), wk =   0.0277778
        k(    4) = (   0.0000000   0.0496211   0.0000000), wk =   0.0277778
        k(    5) = (   0.0000000   0.0661615   0.0000000), wk =   0.0277778
        k(    6) = (   0.0000000   0.0827019   0.0000000), wk =   0.0277778
        k(    7) = (   0.0000000  -0.0992422   0.0000000), wk =   0.0138889
        k(    8) = (   0.0143244  -0.0082702   0.0000000), wk =   0.0277778
        k(    9) = (   0.0143244   0.0082702   0.0000000), wk =   0.0277778
        k(   10) = (   0.0143244   0.0248106   0.0000000), wk =   0.0277778
        k(   11) = (   0.0143244   0.0413509   0.0000000), wk =   0.0277778
        k(   12) = (   0.0143244   0.0578913   0.0000000), wk =   0.0277778
        k(   13) = (   0.0143244   0.0744317   0.0000000), wk =   0.0277778
        k(   14) = (   0.0143244  -0.1075124   0.0000000), wk =   0.0277778
        k(   15) = (   0.0143244  -0.0909720   0.0000000), wk =   0.0277778
        k(   16) = (   0.0143244  -0.0744317   0.0000000), wk =   0.0277778
        k(   17) = (   0.0143244  -0.0578913   0.0000000), wk =   0.0277778
        k(   18) = (   0.0143244  -0.0413509   0.0000000), wk =   0.0277778
        k(   19) = (   0.0143244  -0.0248105   0.0000000), wk =   0.0277778
        k(   20) = (   0.0286488  -0.0165403   0.0000000), wk =   0.0277778
        k(   21) = (   0.0286488   0.0000000   0.0000000), wk =   0.0277778
        k(   22) = (   0.0286488   0.0165404   0.0000000), wk =   0.0277778
        k(   23) = (   0.0286488   0.0330808   0.0000000), wk =   0.0277778
        k(   24) = (   0.0286488   0.0496211   0.0000000), wk =   0.0277778
        k(   25) = (   0.0286488   0.0661615   0.0000000), wk =   0.0277778
        k(   26) = (   0.0286488  -0.1157826   0.0000000), wk =   0.0277778
        k(   27) = (   0.0286488  -0.0992422   0.0000000), wk =   0.0277778
        k(   28) = (   0.0286488  -0.0827018   0.0000000), wk =   0.0277778
        k(   29) = (   0.0286488  -0.0661615   0.0000000), wk =   0.0277778
        k(   30) = (   0.0286488  -0.0496211   0.0000000), wk =   0.0277778
        k(   31) = (   0.0286488  -0.0330807   0.0000000), wk =   0.0277778
        k(   32) = (   0.0429732  -0.0248105   0.0000000), wk =   0.0277778
        k(   33) = (   0.0429732  -0.0082702   0.0000000), wk =   0.0277778
        k(   34) = (   0.0429732   0.0082702   0.0000000), wk =   0.0277778
        k(   35) = (   0.0429732   0.0248106   0.0000000), wk =   0.0277778
        k(   36) = (   0.0429732   0.0413510   0.0000000), wk =   0.0277778
        k(   37) = (   0.0429732   0.0578913   0.0000000), wk =   0.0277778
        k(   38) = (   0.0429732  -0.1240527   0.0000000), wk =   0.0277778
        k(   39) = (   0.0429732  -0.1075124   0.0000000), wk =   0.0277778
        k(   40) = (   0.0429732  -0.0909720   0.0000000), wk =   0.0277778
        k(   41) = (   0.0429732  -0.0744316   0.0000000), wk =   0.0277778
        k(   42) = (   0.0429732  -0.0578913   0.0000000), wk =   0.0277778
        k(   43) = (   0.0429732  -0.0413509   0.0000000), wk =   0.0277778
        k(   44) = (   0.0572976  -0.0330807   0.0000000), wk =   0.0277778
        k(   45) = (   0.0572976  -0.0165403   0.0000000), wk =   0.0277778
        k(   46) = (   0.0572976   0.0000000   0.0000000), wk =   0.0277778
        k(   47) = (   0.0572976   0.0165404   0.0000000), wk =   0.0277778
        k(   48) = (   0.0572976   0.0330808   0.0000000), wk =   0.0277778
        k(   49) = (   0.0572976   0.0496212   0.0000000), wk =   0.0277778
        k(   50) = (   0.0572976  -0.1323229   0.0000000), wk =   0.0277778
        k(   51) = (   0.0572976  -0.1157826   0.0000000), wk =   0.0277778
        k(   52) = (   0.0572976  -0.0992422   0.0000000), wk =   0.0277778
        k(   53) = (   0.0572976  -0.0827018   0.0000000), wk =   0.0277778
        k(   54) = (   0.0572976  -0.0661614   0.0000000), wk =   0.0277778
        k(   55) = (   0.0572976  -0.0496211   0.0000000), wk =   0.0277778
        k(   56) = (   0.0716219  -0.0413509   0.0000000), wk =   0.0277778
        k(   57) = (   0.0716219  -0.0248105   0.0000000), wk =   0.0277778
        k(   58) = (   0.0716219  -0.0082701   0.0000000), wk =   0.0277778
        k(   59) = (   0.0716219   0.0082702   0.0000000), wk =   0.0277778
        k(   60) = (   0.0716219   0.0248106   0.0000000), wk =   0.0277778
        k(   61) = (   0.0716219   0.0413510   0.0000000), wk =   0.0277778
        k(   62) = (   0.0716219  -0.1405931   0.0000000), wk =   0.0277778
        k(   63) = (   0.0716219  -0.1240527   0.0000000), wk =   0.0277778
        k(   64) = (   0.0716219  -0.1075124   0.0000000), wk =   0.0277778
        k(   65) = (   0.0716219  -0.0909720   0.0000000), wk =   0.0277778
        k(   66) = (   0.0716219  -0.0744316   0.0000000), wk =   0.0277778
        k(   67) = (   0.0716219  -0.0578912   0.0000000), wk =   0.0277778
        k(   68) = (  -0.0859463   0.0496210   0.0000000), wk =   0.0138889
        k(   69) = (  -0.0859463   0.0661614   0.0000000), wk =   0.0277778
        k(   70) = (  -0.0859463   0.0827018   0.0000000), wk =   0.0277778
        k(   71) = (  -0.0859463   0.0992422   0.0000000), wk =   0.0277778
        k(   72) = (  -0.0859463   0.1157825   0.0000000), wk =   0.0277778
        k(   73) = (  -0.0859463   0.1323229   0.0000000), wk =   0.0277778
        k(   74) = (  -0.0859463  -0.0496212   0.0000000), wk =   0.0138889

     Initial potential from superposition of free atoms

     starting charge  125.96981, renormalised to  126.00000

     negative rho (up, down):  2.757E-03 0.000E+00

     %%%%%%%%%%%%%%%%%%%%%%%%%%%%%%%%%%%%%%%%%%%%%%%%%%%%%%%%%%%%%%%%%%%%%%%%
     %                                                                      %
     % You are using vdW-DF, which was implemented by the Thonhauser group. %
     % Please cite the following two papers that made this development      %
     % possible and the two reviews that describe the various versions:     %
     %                                                                      %
     %   T. Thonhauser et al., PRL 115, 136402 (2015).                      %
     %   T. Thonhauser et al., PRB 76, 125112 (2007).                       %
     %   K. Berland et al., Rep. Prog. Phys. 78, 066501 (2015).             %
     %   D.C. Langreth et al., J. Phys.: Condens. Matter 21, 084203 (2009). %
     %                                                                      %
     %                                                                      %
     % If you are calculating the stress with vdW-DF, please also cite:     %
     %                                                                      %
     %   R. Sabatini et al., J. Phys.: Condens. Matter 24, 424209 (2012).   %
     %                                                                      %
     %%%%%%%%%%%%%%%%%%%%%%%%%%%%%%%%%%%%%%%%%%%%%%%%%%%%%%%%%%%%%%%%%%%%%%%%

     Adding external electric field

     Computed dipole along edir(3) :
        Dipole                0.0038 Ry au,          0.0098 Debye
        Dipole field          0.0000 Ry au,

        Potential amp.       -0.0009 Ry
        Total length         45.6015 bohr

     Starting wfcs are  108 randomized atomic wfcs

     Self-consistent Calculation

     iteration #  1     ecut=    55.12 Ry     beta= 0.10
     Davidson diagonalization with overlap
     ethr =  1.00E-02,  avg # of iterations =  2.0

[...]

     total energy              =    -985.35682535 Ry
     estimated scf accuracy    <       2.02317019 Ry

[...]

     iteration #  5     ecut=    55.12 Ry     beta= 0.10
     Davidson diagonalization with overlap
     c_bands:  1 eigenvalues not converged
     ethr =  1.18E-04,  avg # of iterations = 10.9

[...]

     iteration # 15     ecut=    55.12 Ry     beta= 0.10
     Davidson diagonalization with overlap
     c_bands:  1 eigenvalues not converged
     c_bands:  1 eigenvalues not converged
     ethr =  5.03E-08,  avg # of iterations =  7.6

[...]

     total energy              =    -985.50299863 Ry
     estimated scf accuracy    <       0.00003977 Ry

     iteration # 17     ecut=    55.12 Ry     beta= 0.10
     Davidson diagonalization with overlap
     ethr =  2.09E-08,  avg # of iterations =  2.3

[...]

     Adding external electric field

     Computed dipole along edir(3) :
        Dipole                0.1115 Ry au,          0.2833 Debye
        Dipole field          0.0003 Ry au,

        Potential amp.       -0.0261 Ry
        Total length         45.6015 bohr

     End of self-consistent calculation

          k = 0.0000 0.0000 0.0000 ( 33681 PWs)   bands (ev):

    -8.7566  -8.6461  -8.5860  -8.5535  -8.5233  -8.4006  -8.3405  -8.3363
    -8.3045  -8.2079  -8.1841  -8.1638  -7.9952  -7.9451  -7.8825  -7.8456
    -7.7884  -7.7722  -7.7507  -7.7371  -7.6447  -7.6341  -7.6337  -7.5447
    -7.5325  -7.5071  -7.4967  -7.4554  -7.3875  -7.3468  -7.0595  -5.6429
    -3.9142  -3.4326  -3.2990  -3.0754  -2.9204  -2.8361  -2.6631  -2.5958
    -2.4122  -2.0106  -1.7452  -1.5688  -1.4793  -1.1867  -1.1198  -0.8119
    -0.6964  -0.6755  -0.6466  -0.4014  -0.1507  -0.0625   0.0427   0.1778
     0.3117   0.4202   0.5051   0.5983   0.7007   0.7193   0.7446   1.0716
     1.1426   1.1615   1.5589   1.6673   2.0981   2.2938   2.6814   2.6881
     2.9215   3.9517   4.1923   4.5095

[...]

          k = 0.0716-0.0579 0.0000 ( 33843 PWs)   bands (ev):

[...]

          k =-0.0859 0.0496 0.0000 ( 33794 PWs)   bands (ev):

[...]

          k =-0.0859-0.0496 0.0000 ( 33794 PWs)   bands (ev):

    -8.7154  -8.5692  -8.5238  -8.5011  -8.3442  -8.2352  -8.2287  -8.2071
    -8.1845  -8.1825  -8.1571  -8.0697  -7.9352  -7.9298  -7.8758  -7.7896
    -7.7700  -7.7200  -7.7047  -7.6584  -7.6083  -7.5834  -7.5657  -7.5278
    -7.5088  -7.4928  -7.4610  -7.3845  -7.3392  -7.0564  -5.8619  -5.5030
    -4.4456  -3.7620  -3.7586  -3.5843  -3.1188  -3.0537  -2.7842  -2.6354
    -2.5485  -2.4321  -2.2236  -2.2181  -2.2173  -2.1652  -1.9360  -1.7465
    -1.5424  -1.2568  -0.8739  -0.8464  -0.7735  -0.5773  -0.5088  -0.1946
     0.0331   0.1208   0.3731   0.3856   0.5005   0.5155   0.6803   0.7712
     1.1576   1.3841   1.6708   1.8099   3.0846   3.0881   3.2554   3.6504
     3.9958   4.0837   5.4797   5.6902

     the Fermi energy is     0.6728 ev

!    total energy              =    -985.50300071 Ry
     estimated scf accuracy    <       0.00000481 Ry
     smearing contrib. (-TS)   =      -0.05878013 Ry
     internal energy E=F+TS    =    -985.44422058 Ry

     The total energy is F=E-TS. E is the sum of the following terms:
     one-electron contribution =   -7635.57832883 Ry
     hartree contribution      =    3895.02247452 Ry
     xc contribution           =    -337.85672032 Ry
     ewald contribution        =    3092.96832216 Ry
     electric field correction =       0.00003189 Ry

     convergence has been achieved in  17 iterations

     negative rho (up, down):  3.000E-03 0.000E+00

     Forces acting on atoms (cartesian axes, Ry/au):

     atom    1 type  1   force =    -0.00571921   -0.00331271   -0.02877291
     atom    2 type  1   force =    -0.00571566   -0.00329903   -0.02874763
     atom    3 type  2   force =     0.01498605    0.00865628    0.02605479
     atom    4 type  2   force =     0.01499860    0.00867499    0.02605642
     atom    5 type  1   force =     0.01288425    0.00741939   -0.00132791
     atom    6 type  1   force =     0.01286580    0.00743385   -0.00132489
     atom    7 type  2   force =    -0.02269918   -0.01310683   -0.00212120
     atom    8 type  2   force =    -0.02268621   -0.01310107   -0.00212849
     atom    9 type  1   force =    -0.00012825   -0.00007401    0.00030632
     atom   10 type  1   force =    -0.00014608   -0.00007753    0.00029554
     atom   11 type  2   force =     0.00068317    0.00039775    0.00585783
     atom   12 type  2   force =     0.00067672    0.00038893    0.00585214

     Total force =     0.074812     Total SCF correction =     0.010557
     SCF correction compared to forces is large: reduce conv_thr to get better values

     Writing output data file ./Cd2Ir2/Cd2Ir2_beef.save/

     General routines

     Parallel routines

   This run was terminated on:  17:42:52  23Jun2022

   JOB DONE.