     Program PWSCF v.6.6 starts on 10Jul2022 at 13:54: 9

     R & G space division:  proc/nbgrp/npool/nimage =      37
     Fft bands division:     nmany     =       1
     Reading input from Cd2Os2.in
Warning: card &CELL ignored
Warning: card / ignored

     Current dimensions of program PWSCF are:
     Max number of different atomic species (ntypx) = 10
     Max number of k-points (npk) =  40000
     Max angular momentum in pseudopotentials (lmaxx) =  3
     Presently stress not available with electric field and gates

     Message from routine cell_base_init:
     DEPRECATED: use true lattice parameter, not A to a.u. conversion factor
     file Cd.pbe-n-rrkjus_psl.1.0.0.UPF: wavefunction(s)  4D renormalized

     IMPORTANT: XC functional enforced from input :
     Exchange-correlation= BEEF-VDW
                           (   1   4  43  14   2   0   0)
     Any further DFT definition will be discarded
     Please, verify this is what you really want

     Subspace diagonalization in iterative solution of the eigenvalue problem:
     a serial algorithm will be used

     bravais-lattice index     =            0
     lattice parameter (alat)  =       1.8897  a.u.
     unit-cell volume          =    4885.5293 (a.u.)^3
     number of atoms/cell      =           12
     number of atomic types    =            2
     number of electrons       =       168.00
     number of Kohn-Sham states=          101
     kinetic-energy cutoff     =      55.1240  Ry
     charge density cutoff     =     551.2396  Ry
     convergence threshold     =      1.0E-05
     mixing beta               =       0.1000
     number of iterations used =           10  plain     mixing
     Exchange-correlation= BEEF-VDW
                           (   1   4  43  14   2   0   0)

     celldm(1)=   1.889726  celldm(2)=   0.000000  celldm(3)=   0.000000
     celldm(4)=   0.000000  celldm(5)=   0.000000  celldm(6)=   0.000000

     crystal axes: (cart. coord. in units of alat)
               a(1) = (   5.548956   0.000000   0.000000 )
               a(2) = (  -2.774478   5.277754   0.000000 )
               a(3) = (   0.000000   0.000000  24.720354 )

     reciprocal axes: (cart. coord. in units 2 pi/alat)
               b(1) = (  0.180214  0.094737 -0.000000 )
               b(2) = (  0.000000  0.189475  0.000000 )
               b(3) = (  0.000000 -0.000000  0.040452 )

     PseudoPot. # 1 for Cd read from file:
     ../pseudo/Cd.pbe-n-rrkjus_psl.1.0.0.UPF
     MD5 check sum: a744746c89d2344a134ead0d8ab94e7a
     Pseudo is Ultrasoft + core correction, Zval = 12.0
     Generated using "atomic" code by A. Dal Corso v.6.3
     Using radial grid of 1239 points,  6 beta functions with:
                l(1) =   0
                l(2) =   0
                l(3) =   1
                l(4) =   1
                l(5) =   2
                l(6) =   2
     Q(r) pseudized with 0 coefficients

     PseudoPot. # 2 for Os read from file:
     ../pseudo/Os.pbe-spn-rrkjus_psl.1.0.0.UPF
     MD5 check sum: 3e7416ed594f6513d36e5cb31ba709d9
     Pseudo is Ultrasoft + core correction, Zval = 16.0
     Generated using "atomic" code by A. Dal Corso v.6.2.2
     Using radial grid of 1275 points,  6 beta functions with:
                l(1) =   0
                l(2) =   0
                l(3) =   1
                l(4) =   1
                l(5) =   2
                l(6) =   2
     Q(r) pseudized with 0 coefficients

     atomic species   valence    mass     pseudopotential
        Cd            12.00   112.41400     Cd( 1.00)
        Os            16.00   190.23000     Os( 1.00)

     No symmetry found

   Cartesian axes

     site n.     atom                  positions (alat units)
         1           Cd  tau(   1) = (   0.0000000   0.0000000  10.0000000  )
         2           Cd  tau(   2) = (   2.7744778   0.0000000  10.0000000  )
         3           Os  tau(   3) = (   1.3872389   2.6388769  10.0000000  )
         4           Os  tau(   4) = (  -1.3872389   2.6388769  10.0000000  )
         5           Cd  tau(   5) = (   2.7744778   1.4585233  12.3601772  )
         6           Cd  tau(   6) = (  -0.0000000   1.4585233  12.3601772  )
         7           Os  tau(   7) = (  -1.3872389   4.0974002  12.3601772  )
         8           Os  tau(   8) = (   1.3872389   4.0974002  12.3601772  )
         9           Cd  tau(   9) = (  -0.0001108   2.5059093  15.2184597  )
        10           Cd  tau(  10) = (   2.7743527   2.5062482  15.2183613  )
        11           Os  tau(  11) = (   1.3870615   5.0497164  14.4815121  )
        12           Os  tau(  12) = (  -1.3871014   5.0498067  14.4816635  )

     number of k points=    74  Fermi-Dirac smearing, width (Ry)=  0.0100
                       cart. coord. in units 2pi/alat
        k(    1) = (   0.0000000   0.0000000   0.0000000), wk =   0.0138889
        k(    2) = (   0.0000000   0.0157895   0.0000000), wk =   0.0277778
        k(    3) = (   0.0000000   0.0315791   0.0000000), wk =   0.0277778
        k(    4) = (   0.0000000   0.0473686   0.0000000), wk =   0.0277778
        k(    5) = (   0.0000000   0.0631582   0.0000000), wk =   0.0277778
        k(    6) = (   0.0000000   0.0789477   0.0000000), wk =   0.0277778
        k(    7) = (   0.0000000  -0.0947373   0.0000000), wk =   0.0138889
        k(    8) = (   0.0150178   0.0078948   0.0000000), wk =   0.0277778
        k(    9) = (   0.0150178   0.0236843   0.0000000), wk =   0.0277778
        k(   10) = (   0.0150178   0.0394739   0.0000000), wk =   0.0277778
        k(   11) = (   0.0150178   0.0552634   0.0000000), wk =   0.0277778
        k(   12) = (   0.0150178   0.0710530   0.0000000), wk =   0.0277778
        k(   13) = (   0.0150178   0.0868425   0.0000000), wk =   0.0277778
        k(   14) = (   0.0150178  -0.0868425   0.0000000), wk =   0.0277778
        k(   15) = (   0.0150178  -0.0710530   0.0000000), wk =   0.0277778
        k(   16) = (   0.0150178  -0.0552634   0.0000000), wk =   0.0277778
        k(   17) = (   0.0150178  -0.0394739   0.0000000), wk =   0.0277778
        k(   18) = (   0.0150178  -0.0236843   0.0000000), wk =   0.0277778
        k(   19) = (   0.0150178  -0.0078948   0.0000000), wk =   0.0277778
        k(   20) = (   0.0300357   0.0157895   0.0000000), wk =   0.0277778
        k(   21) = (   0.0300357   0.0315791   0.0000000), wk =   0.0277778
        k(   22) = (   0.0300357   0.0473686   0.0000000), wk =   0.0277778
        k(   23) = (   0.0300357   0.0631582   0.0000000), wk =   0.0277778
        k(   24) = (   0.0300357   0.0789477   0.0000000), wk =   0.0277778
        k(   25) = (   0.0300357   0.0947373   0.0000000), wk =   0.0277778
        k(   26) = (   0.0300357  -0.0789477   0.0000000), wk =   0.0277778
        k(   27) = (   0.0300357  -0.0631582   0.0000000), wk =   0.0277778
        k(   28) = (   0.0300357  -0.0473686   0.0000000), wk =   0.0277778
        k(   29) = (   0.0300357  -0.0315791   0.0000000), wk =   0.0277778
        k(   30) = (   0.0300357  -0.0157895   0.0000000), wk =   0.0277778
        k(   31) = (   0.0300357  -0.0000000   0.0000000), wk =   0.0277778
        k(   32) = (   0.0450535   0.0236843   0.0000000), wk =   0.0277778
        k(   33) = (   0.0450535   0.0394739   0.0000000), wk =   0.0277778
        k(   34) = (   0.0450535   0.0552634   0.0000000), wk =   0.0277778
        k(   35) = (   0.0450535   0.0710530   0.0000000), wk =   0.0277778
        k(   36) = (   0.0450535   0.0868425   0.0000000), wk =   0.0277778
        k(   37) = (   0.0450535   0.1026320   0.0000000), wk =   0.0277778
        k(   38) = (   0.0450535  -0.0710530   0.0000000), wk =   0.0277778
        k(   39) = (   0.0450535  -0.0552634   0.0000000), wk =   0.0277778
        k(   40) = (   0.0450535  -0.0394739   0.0000000), wk =   0.0277778
        k(   41) = (   0.0450535  -0.0236843   0.0000000), wk =   0.0277778
        k(   42) = (   0.0450535  -0.0078948   0.0000000), wk =   0.0277778
        k(   43) = (   0.0450535   0.0078948   0.0000000), wk =   0.0277778
        k(   44) = (   0.0600714   0.0315791   0.0000000), wk =   0.0277778
        k(   45) = (   0.0600714   0.0473686   0.0000000), wk =   0.0277778
        k(   46) = (   0.0600714   0.0631582   0.0000000), wk =   0.0277778
        k(   47) = (   0.0600714   0.0789477   0.0000000), wk =   0.0277778
        k(   48) = (   0.0600714   0.0947373   0.0000000), wk =   0.0277778
        k(   49) = (   0.0600714   0.1105268   0.0000000), wk =   0.0277778
        k(   50) = (   0.0600714  -0.0631582   0.0000000), wk =   0.0277778
        k(   51) = (   0.0600714  -0.0473686   0.0000000), wk =   0.0277778
        k(   52) = (   0.0600714  -0.0315791   0.0000000), wk =   0.0277778
        k(   53) = (   0.0600714  -0.0157895   0.0000000), wk =   0.0277778
        k(   54) = (   0.0600714   0.0000000   0.0000000), wk =   0.0277778
        k(   55) = (   0.0600714   0.0157895   0.0000000), wk =   0.0277778
        k(   56) = (   0.0750892   0.0394739   0.0000000), wk =   0.0277778
        k(   57) = (   0.0750892   0.0552634   0.0000000), wk =   0.0277778
        k(   58) = (   0.0750892   0.0710530   0.0000000), wk =   0.0277778
        k(   59) = (   0.0750892   0.0868425   0.0000000), wk =   0.0277778
        k(   60) = (   0.0750892   0.1026320   0.0000000), wk =   0.0277778
        k(   61) = (   0.0750892   0.1184216   0.0000000), wk =   0.0277778
        k(   62) = (   0.0750892  -0.0552634   0.0000000), wk =   0.0277778
        k(   63) = (   0.0750892  -0.0394739   0.0000000), wk =   0.0277778
        k(   64) = (   0.0750892  -0.0236843   0.0000000), wk =   0.0277778
        k(   65) = (   0.0750892  -0.0078948   0.0000000), wk =   0.0277778
        k(   66) = (   0.0750892   0.0078948   0.0000000), wk =   0.0277778
        k(   67) = (   0.0750892   0.0236843   0.0000000), wk =   0.0277778
        k(   68) = (  -0.0901070  -0.0473686   0.0000000), wk =   0.0138889
        k(   69) = (  -0.0901070  -0.0315791   0.0000000), wk =   0.0277778
        k(   70) = (  -0.0901070  -0.0157895   0.0000000), wk =   0.0277778
        k(   71) = (  -0.0901070   0.0000000   0.0000000), wk =   0.0277778
        k(   72) = (  -0.0901070   0.0157895   0.0000000), wk =   0.0277778
        k(   73) = (  -0.0901070   0.0315791   0.0000000), wk =   0.0277778
        k(   74) = (  -0.0901070  -0.1421059   0.0000000), wk =   0.0138889

     Initial potential from superposition of free atoms

     starting charge  167.96924, renormalised to  168.00000

     negative rho (up, down):  2.697E-03 0.000E+00

     %%%%%%%%%%%%%%%%%%%%%%%%%%%%%%%%%%%%%%%%%%%%%%%%%%%%%%%%%%%%%%%%%%%%%%%%
     %                                                                      %
     % You are using vdW-DF, which was implemented by the Thonhauser group. %
     % Please cite the following two papers that made this development      %
     % possible and the two reviews that describe the various versions:     %
     %                                                                      %
     %   T. Thonhauser et al., PRL 115, 136402 (2015).                      %
     %   T. Thonhauser et al., PRB 76, 125112 (2007).                       %
     %   K. Berland et al., Rep. Prog. Phys. 78, 066501 (2015).             %
     %   D.C. Langreth et al., J. Phys.: Condens. Matter 21, 084203 (2009). %
     %                                                                      %
     %                                                                      %
     % If you are calculating the stress with vdW-DF, please also cite:     %
     %                                                                      %
     %   R. Sabatini et al., J. Phys.: Condens. Matter 24, 424209 (2012).   %
     %                                                                      %
     %%%%%%%%%%%%%%%%%%%%%%%%%%%%%%%%%%%%%%%%%%%%%%%%%%%%%%%%%%%%%%%%%%%%%%%%

     Adding external electric field

     Computed dipole along edir(3) :
        Dipole                0.0075 Ry au,          0.0190 Debye
        Dipole field          0.0000 Ry au,

        Potential amp.       -0.0018 Ry
        Total length         45.5468 bohr

     Starting wfcs are  114 randomized atomic wfcs

     Self-consistent Calculation

     iteration #  1     ecut=    55.12 Ry     beta= 0.10
     Davidson diagonalization with overlap
     ethr =  1.00E-02,  avg # of iterations =  2.9

     Threshold (ethr) on eigenvalues was too large:
     Diagonalizing with lowered threshold

     Davidson diagonalization with overlap
     ethr =  8.94E-04,  avg # of iterations =  3.3

[...]

     total energy              =   -1810.44029160 Ry
     estimated scf accuracy    <       1.50470061 Ry

[...]

     iteration #  5     ecut=    55.12 Ry     beta= 0.10
     Davidson diagonalization with overlap
     c_bands:  3 eigenvalues not converged
     c_bands:  1 eigenvalues not converged
     c_bands:  1 eigenvalues not converged
     c_bands:  1 eigenvalues not converged
     c_bands:  1 eigenvalues not converged
     ethr =  1.28E-04,  avg # of iterations =  5.1

[...]

     iteration #  9     ecut=    55.12 Ry     beta= 0.10
     Davidson diagonalization with overlap
     c_bands:  1 eigenvalues not converged
     c_bands:  1 eigenvalues not converged
     c_bands:  1 eigenvalues not converged
     c_bands:  1 eigenvalues not converged
     c_bands:  1 eigenvalues not converged
     ethr =  2.15E-06,  avg # of iterations =  8.1

[...]

     total energy              =   -1810.50509949 Ry
     estimated scf accuracy    <       0.00003126 Ry

     iteration # 14     ecut=    55.12 Ry     beta= 0.10
     Davidson diagonalization with overlap
     ethr =  1.86E-08,  avg # of iterations =  2.0

[...]

     Adding external electric field

     Computed dipole along edir(3) :
        Dipole                0.1670 Ry au,          0.4246 Debye
        Dipole field          0.0004 Ry au,

        Potential amp.       -0.0391 Ry
        Total length         45.5468 bohr

     End of self-consistent calculation

          k = 0.0000 0.0000 0.0000 ( 33761 PWs)   bands (ev):

   -84.9587 -84.9361 -84.7005 -84.6781 -84.3027 -84.2798 -44.9105 -44.8637
   -44.3263 -44.1101 -44.1078 -44.0649 -43.9139 -43.9030 -43.8981 -43.8730
   -43.7693 -43.7330 -43.6992 -43.5790 -43.5370 -43.4784 -43.4504 -43.4094
    -8.3912  -8.1527  -8.1057  -8.0442  -8.0212  -7.8091  -7.7656  -7.7249
    -7.6238  -7.5773  -7.5349  -7.5340  -7.3322  -7.2147  -7.1577  -7.1023
    -7.0720  -7.0259  -6.9901  -6.9872  -6.9845  -6.8989  -6.8658  -6.8021
    -6.7869  -6.6952  -6.6705  -6.6209  -6.5948  -6.4724  -6.2246  -4.9382
    -3.2456  -3.1453  -2.7325  -2.6754  -2.5071  -2.4528  -2.1350  -2.0825
    -1.6298  -1.3252  -1.1639  -1.0373  -0.5334  -0.4736  -0.3646  -0.0355
     0.2699   0.3562   0.5481   0.7177   0.8566   1.0189   1.0626   1.1627
     1.6621   1.6856   1.7596   1.8212   1.8340   2.0233   2.0260   2.2362
     2.3095   2.4198   3.1549   3.2207   3.2626   3.3663   4.1184   4.2757
     4.5491   4.6877   4.8229   4.8893   5.2167

[...]

          k = 0.0751 0.0237 0.0000 ( 33765 PWs)   bands (ev):

[...]

          k =-0.0901-0.0474 0.0000 ( 33766 PWs)   bands (ev):

[...]

          k =-0.0901-0.1421 0.0000 ( 33766 PWs)   bands (ev):

   -84.9475 -84.9473 -84.6893 -84.6892 -84.2914 -84.2911 -44.8875 -44.8869
   -44.1174 -44.1173 -44.0867 -44.0865 -43.9076 -43.9071 -43.8936 -43.8935
   -43.7511 -43.7510 -43.6911 -43.6909 -43.5583 -43.5581 -43.4301 -43.4299
    -7.8191  -7.8191  -7.6625  -7.6625  -7.5836  -7.5836  -7.4904  -7.4904
    -7.4353  -7.4353  -7.2583  -7.2582  -7.2243  -7.2242  -7.1937  -7.1936
    -7.1572  -7.1571  -7.1123  -7.1121  -7.0582  -7.0581  -7.0492  -7.0491
    -6.9779  -6.9779  -6.8970  -6.8970  -6.8759  -6.8759  -5.0302  -5.0302
    -3.3845  -3.3844  -2.9042  -2.9039  -2.4194  -2.4193  -2.0361  -2.0358
    -1.4464  -1.4462  -0.8141  -0.8140  -0.6190  -0.6186  -0.3917  -0.3912
    -0.0553  -0.0551   0.1605   0.1606   0.2754   0.2755   0.4837   0.4838
     0.6786   0.6787   0.9224   0.9225   1.4848   1.4854   2.1106   2.1108
     2.2964   2.2966   2.5131   2.5134   3.0931   3.0933   4.2539   4.2540
     4.8804   4.8807   6.2145   6.2147   6.7563

     the Fermi energy is     1.6468 ev

!    total energy              =   -1810.50510058 Ry
     estimated scf accuracy    <       0.00000642 Ry
     smearing contrib. (-TS)   =      -0.04630688 Ry
     internal energy E=F+TS    =   -1810.45879370 Ry

     The total energy is F=E-TS. E is the sum of the following terms:
     one-electron contribution =  -13998.87136240 Ry
     hartree contribution      =    7031.72265437 Ry
     xc contribution           =    -378.37835523 Ry
     ewald contribution        =    5535.06819779 Ry
     electric field correction =       0.00007176 Ry

     convergence has been achieved in  14 iterations

     negative rho (up, down):  2.865E-03 0.000E+00

     Forces acting on atoms (cartesian axes, Ry/au):

     atom    1 type  1   force =    -0.00001373   -0.01067615   -0.04356829
     atom    2 type  1   force =    -0.00000993   -0.01068040   -0.04356169
     atom    3 type  2   force =     0.00000372    0.01976535    0.04282673
     atom    4 type  2   force =    -0.00000802    0.01975111    0.04282785
     atom    5 type  1   force =     0.00004519    0.02122690    0.01951336
     atom    6 type  1   force =    -0.00000734    0.02120246    0.01952541
     atom    7 type  2   force =    -0.00000445   -0.03063215   -0.01421587
     atom    8 type  2   force =    -0.00000101   -0.03069211   -0.01431737
     atom    9 type  1   force =    -0.00000319    0.00034958   -0.00131436
     atom   10 type  1   force =     0.00001571    0.00035344   -0.00134684
     atom   11 type  2   force =    -0.00001846    0.00002955   -0.00313934
     atom   12 type  2   force =     0.00000151    0.00000241   -0.00322958

     Total force =     0.111564     Total SCF correction =     0.008862

     Writing output data file ./Cd2Os2/Cd2Os2_beef.save/

     General routines

     Parallel routines

   This run was terminated on:  14:30:15  10Jul2022

   JOB DONE.