     Program PWSCF v.6.6 starts on 23Jun2022 at 17:11:13

     R & G space division:  proc/nbgrp/npool/nimage =      37
     Fft bands division:     nmany     =       1
     Reading input from Cd2Pt2.in
Warning: card &CELL ignored
Warning: card / ignored

     Current dimensions of program PWSCF are:
     Max number of different atomic species (ntypx) = 10
     Max number of k-points (npk) =  40000
     Max angular momentum in pseudopotentials (lmaxx) =  3
     Presently stress not available with electric field and gates

     Message from routine cell_base_init:
     DEPRECATED: use true lattice parameter, not A to a.u. conversion factor
     file Cd.pbe-n-rrkjus_psl.1.0.0.UPF: wavefunction(s)  4D renormalized
     file Pt.pbe-n-rrkjus_psl.1.0.0.UPF: wavefunction(s)  6S renormalized

     IMPORTANT: XC functional enforced from input :
     Exchange-correlation= BEEF-VDW
                           (   1   4  43  14   2   0   0)
     Any further DFT definition will be discarded
     Please, verify this is what you really want

     Subspace diagonalization in iterative solution of the eigenvalue problem:
     a serial algorithm will be used

     Found symmetry operation: I + (  0.5000 -0.5000  0.0000)
     This is a supercell, fractional translations are disabled

     bravais-lattice index     =            0
     lattice parameter (alat)  =       1.8897  a.u.
     unit-cell volume          =    5019.0096 (a.u.)^3
     number of atoms/cell      =           12
     number of atomic types    =            2
     number of electrons       =       132.00
     number of Kohn-Sham states=           79
     kinetic-energy cutoff     =      55.1240  Ry
     charge density cutoff     =     551.2396  Ry
     convergence threshold     =      1.0E-05
     mixing beta               =       0.1000
     number of iterations used =           10  plain     mixing
     Exchange-correlation= BEEF-VDW
                           (   1   4  43  14   2   0   0)

     celldm(1)=   1.889726  celldm(2)=   0.000000  celldm(3)=   0.000000
     celldm(4)=   0.000000  celldm(5)=   0.000000  celldm(6)=   0.000000

     crystal axes: (cart. coord. in units of alat)
               a(1) = (   5.796911   0.000000   0.000000 )
               a(2) = (   2.611146   5.175528   0.000000 )
               a(3) = (   0.000000   0.000000  24.789640 )

     reciprocal axes: (cart. coord. in units 2 pi/alat)
               b(1) = (  0.172506 -0.087032  0.000000 )
               b(2) = (  0.000000  0.193217  0.000000 )
               b(3) = (  0.000000  0.000000  0.040339 )

     PseudoPot. # 1 for Cd read from file:
     ../pseudo/Cd.pbe-n-rrkjus_psl.1.0.0.UPF
     MD5 check sum: a744746c89d2344a134ead0d8ab94e7a
     Pseudo is Ultrasoft + core correction, Zval = 12.0
     Generated using "atomic" code by A. Dal Corso v.6.3
     Using radial grid of 1239 points,  6 beta functions with:
                l(1) =   0
                l(2) =   0
                l(3) =   1
                l(4) =   1
                l(5) =   2
                l(6) =   2
     Q(r) pseudized with 0 coefficients

     PseudoPot. # 2 for Pt read from file:
     ../pseudo/Pt.pbe-n-rrkjus_psl.1.0.0.UPF
     MD5 check sum: 6bc887cfe28d63a5fc1f72d35a7d3ef7
     Pseudo is Ultrasoft + core correction, Zval = 10.0
     Generated using "atomic" code by A. Dal Corso v.6.3
     Using radial grid of 1277 points,  6 beta functions with:
                l(1) =   0
                l(2) =   0
                l(3) =   1
                l(4) =   1
                l(5) =   2
                l(6) =   2
     Q(r) pseudized with 0 coefficients

     atomic species   valence    mass     pseudopotential
        Cd            12.00   112.41400     Cd( 1.00)
        Pt            10.00   195.08400     Pt( 1.00)

     No symmetry found

   Cartesian axes

     site n.     atom                  positions (alat units)
         1           Cd  tau(   1) = (   0.0000000   0.0000000  10.0000000  )
         2           Cd  tau(   2) = (   4.2040281   2.5877640  10.0000000  )
         3           Pt  tau(   3) = (   2.8984553   0.0000000  10.0000000  )
         4           Pt  tau(   4) = (   1.3055728   2.5877640  10.0000000  )
         5           Cd  tau(   5) = (   5.7969105   3.5682531  12.3948202  )
         6           Cd  tau(   6) = (   1.5928825   0.9804891  12.3948202  )
         7           Pt  tau(   7) = (   2.8984553   3.5682531  12.3948202  )
         8           Pt  tau(   8) = (   4.4913377   0.9804891  12.3948202  )
         9           Cd  tau(   9) = (   3.1865180   1.9614552  14.9466996  )
        10           Cd  tau(  10) = (   7.3905709   4.5492278  14.9467125  )
        11           Pt  tau(  11) = (   6.0774224   1.9567800  14.6831344  )
        12           Pt  tau(  12) = (   4.4845308   4.5445468  14.6831373  )

     number of k points=    74  Fermi-Dirac smearing, width (Ry)=  0.0100
                       cart. coord. in units 2pi/alat
        k(    1) = (   0.0000000   0.0000000   0.0000000), wk =   0.0138889
        k(    2) = (   0.0000000   0.0161014   0.0000000), wk =   0.0277778
        k(    3) = (   0.0000000   0.0322028   0.0000000), wk =   0.0277778
        k(    4) = (   0.0000000   0.0483043   0.0000000), wk =   0.0277778
        k(    5) = (   0.0000000   0.0644057   0.0000000), wk =   0.0277778
        k(    6) = (   0.0000000   0.0805071   0.0000000), wk =   0.0277778
        k(    7) = (   0.0000000  -0.0966085   0.0000000), wk =   0.0138889
        k(    8) = (   0.0143755  -0.0072527   0.0000000), wk =   0.0277778
        k(    9) = (   0.0143755   0.0088487   0.0000000), wk =   0.0277778
        k(   10) = (   0.0143755   0.0249502   0.0000000), wk =   0.0277778
        k(   11) = (   0.0143755   0.0410516   0.0000000), wk =   0.0277778
        k(   12) = (   0.0143755   0.0571530   0.0000000), wk =   0.0277778
        k(   13) = (   0.0143755   0.0732544   0.0000000), wk =   0.0277778
        k(   14) = (   0.0143755  -0.1038612   0.0000000), wk =   0.0277778
        k(   15) = (   0.0143755  -0.0877598   0.0000000), wk =   0.0277778
        k(   16) = (   0.0143755  -0.0716583   0.0000000), wk =   0.0277778
        k(   17) = (   0.0143755  -0.0555569   0.0000000), wk =   0.0277778
        k(   18) = (   0.0143755  -0.0394555   0.0000000), wk =   0.0277778
        k(   19) = (   0.0143755  -0.0233541   0.0000000), wk =   0.0277778
        k(   20) = (   0.0287509  -0.0145054   0.0000000), wk =   0.0277778
        k(   21) = (   0.0287509   0.0015961   0.0000000), wk =   0.0277778
        k(   22) = (   0.0287509   0.0176975   0.0000000), wk =   0.0277778
        k(   23) = (   0.0287509   0.0337989   0.0000000), wk =   0.0277778
        k(   24) = (   0.0287509   0.0499003   0.0000000), wk =   0.0277778
        k(   25) = (   0.0287509   0.0660017   0.0000000), wk =   0.0277778
        k(   26) = (   0.0287509  -0.1111139   0.0000000), wk =   0.0277778
        k(   27) = (   0.0287509  -0.0950124   0.0000000), wk =   0.0277778
        k(   28) = (   0.0287509  -0.0789110   0.0000000), wk =   0.0277778
        k(   29) = (   0.0287509  -0.0628096   0.0000000), wk =   0.0277778
        k(   30) = (   0.0287509  -0.0467082   0.0000000), wk =   0.0277778
        k(   31) = (   0.0287509  -0.0306068   0.0000000), wk =   0.0277778
        k(   32) = (   0.0431264  -0.0217580   0.0000000), wk =   0.0277778
        k(   33) = (   0.0431264  -0.0056566   0.0000000), wk =   0.0277778
        k(   34) = (   0.0431264   0.0104448   0.0000000), wk =   0.0277778
        k(   35) = (   0.0431264   0.0265462   0.0000000), wk =   0.0277778
        k(   36) = (   0.0431264   0.0426476   0.0000000), wk =   0.0277778
        k(   37) = (   0.0431264   0.0587490   0.0000000), wk =   0.0277778
        k(   38) = (   0.0431264  -0.1183665   0.0000000), wk =   0.0277778
        k(   39) = (   0.0431264  -0.1022651   0.0000000), wk =   0.0277778
        k(   40) = (   0.0431264  -0.0861637   0.0000000), wk =   0.0277778
        k(   41) = (   0.0431264  -0.0700623   0.0000000), wk =   0.0277778
        k(   42) = (   0.0431264  -0.0539609   0.0000000), wk =   0.0277778
        k(   43) = (   0.0431264  -0.0378595   0.0000000), wk =   0.0277778
        k(   44) = (   0.0575019  -0.0290107   0.0000000), wk =   0.0277778
        k(   45) = (   0.0575019  -0.0129093   0.0000000), wk =   0.0277778
        k(   46) = (   0.0575019   0.0031921   0.0000000), wk =   0.0277778
        k(   47) = (   0.0575019   0.0192935   0.0000000), wk =   0.0277778
        k(   48) = (   0.0575019   0.0353949   0.0000000), wk =   0.0277778
        k(   49) = (   0.0575019   0.0514964   0.0000000), wk =   0.0277778
        k(   50) = (   0.0575019  -0.1256192   0.0000000), wk =   0.0277778
        k(   51) = (   0.0575019  -0.1095178   0.0000000), wk =   0.0277778
        k(   52) = (   0.0575019  -0.0934164   0.0000000), wk =   0.0277778
        k(   53) = (   0.0575019  -0.0773150   0.0000000), wk =   0.0277778
        k(   54) = (   0.0575019  -0.0612136   0.0000000), wk =   0.0277778
        k(   55) = (   0.0575019  -0.0451121   0.0000000), wk =   0.0277778
        k(   56) = (   0.0718774  -0.0362634   0.0000000), wk =   0.0277778
        k(   57) = (   0.0718774  -0.0201620   0.0000000), wk =   0.0277778
        k(   58) = (   0.0718774  -0.0040606   0.0000000), wk =   0.0277778
        k(   59) = (   0.0718774   0.0120408   0.0000000), wk =   0.0277778
        k(   60) = (   0.0718774   0.0281423   0.0000000), wk =   0.0277778
        k(   61) = (   0.0718774   0.0442437   0.0000000), wk =   0.0277778
        k(   62) = (   0.0718774  -0.1328719   0.0000000), wk =   0.0277778
        k(   63) = (   0.0718774  -0.1167705   0.0000000), wk =   0.0277778
        k(   64) = (   0.0718774  -0.1006691   0.0000000), wk =   0.0277778
        k(   65) = (   0.0718774  -0.0845677   0.0000000), wk =   0.0277778
        k(   66) = (   0.0718774  -0.0684662   0.0000000), wk =   0.0277778
        k(   67) = (   0.0718774  -0.0523648   0.0000000), wk =   0.0277778
        k(   68) = (  -0.0862528   0.0435161   0.0000000), wk =   0.0138889
        k(   69) = (  -0.0862528   0.0596175   0.0000000), wk =   0.0277778
        k(   70) = (  -0.0862528   0.0757189   0.0000000), wk =   0.0277778
        k(   71) = (  -0.0862528   0.0918203   0.0000000), wk =   0.0277778
        k(   72) = (  -0.0862528   0.1079218   0.0000000), wk =   0.0277778
        k(   73) = (  -0.0862528   0.1240232   0.0000000), wk =   0.0277778
        k(   74) = (  -0.0862528  -0.0530924   0.0000000), wk =   0.0138889

     Initial potential from superposition of free atoms

     starting charge  131.96968, renormalised to  132.00000

     negative rho (up, down):  2.864E-03 0.000E+00

     %%%%%%%%%%%%%%%%%%%%%%%%%%%%%%%%%%%%%%%%%%%%%%%%%%%%%%%%%%%%%%%%%%%%%%%%
     %                                                                      %
     % You are using vdW-DF, which was implemented by the Thonhauser group. %
     % Please cite the following two papers that made this development      %
     % possible and the two reviews that describe the various versions:     %
     %                                                                      %
     %   T. Thonhauser et al., PRL 115, 136402 (2015).                      %
     %   T. Thonhauser et al., PRB 76, 125112 (2007).                       %
     %   K. Berland et al., Rep. Prog. Phys. 78, 066501 (2015).             %
     %   D.C. Langreth et al., J. Phys.: Condens. Matter 21, 084203 (2009). %
     %                                                                      %
     %                                                                      %
     % If you are calculating the stress with vdW-DF, please also cite:     %
     %                                                                      %
     %   R. Sabatini et al., J. Phys.: Condens. Matter 24, 424209 (2012).   %
     %                                                                      %
     %%%%%%%%%%%%%%%%%%%%%%%%%%%%%%%%%%%%%%%%%%%%%%%%%%%%%%%%%%%%%%%%%%%%%%%%

     Adding external electric field

     Computed dipole along edir(3) :
        Dipole                0.0021 Ry au,          0.0054 Debye
        Dipole field          0.0000 Ry au,

        Potential amp.       -0.0005 Ry
        Total length         45.6745 bohr

     Starting wfcs are  108 randomized atomic wfcs

     Self-consistent Calculation

     iteration #  1     ecut=    55.12 Ry     beta= 0.10
     Davidson diagonalization with overlap
     ethr =  1.00E-02,  avg # of iterations =  2.6

     Threshold (ethr) on eigenvalues was too large:
     Diagonalizing with lowered threshold

     Davidson diagonalization with overlap
     ethr =  3.73E-04,  avg # of iterations =  5.5

[...]

     total energy              =   -1004.48203913 Ry
     estimated scf accuracy    <       0.53580875 Ry

[...]

     iteration #  3     ecut=    55.12 Ry     beta= 0.10
     Davidson diagonalization with overlap
     c_bands:  1 eigenvalues not converged
     ethr =  2.11E-04,  avg # of iterations =  4.3

[...]

     iteration #  9     ecut=    55.12 Ry     beta= 0.10
     Davidson diagonalization with overlap
     c_bands:  1 eigenvalues not converged
     c_bands:  1 eigenvalues not converged
     c_bands:  1 eigenvalues not converged
     ethr =  7.01E-07,  avg # of iterations =  6.4

[...]

     total energy              =   -1004.44378853 Ry
     estimated scf accuracy    <       0.00003681 Ry

     iteration # 13     ecut=    55.12 Ry     beta= 0.10
     Davidson diagonalization with overlap
     ethr =  2.79E-08,  avg # of iterations =  4.5

[...]

     Adding external electric field

     Computed dipole along edir(3) :
        Dipole                0.0482 Ry au,          0.1226 Debye
        Dipole field          0.0001 Ry au,

        Potential amp.       -0.0110 Ry
        Total length         45.6745 bohr

     End of self-consistent calculation

          k = 0.0000 0.0000 0.0000 ( 34597 PWs)   bands (ev):

    -8.7395  -8.7148  -8.6112  -8.5742  -8.5528  -8.5202  -8.4543  -8.4249
    -8.3947  -8.3242  -8.2938  -8.2487  -8.1692  -8.1416  -8.0396  -8.0168
    -7.9969  -7.9852  -7.9758  -7.9362  -7.9077  -7.8879  -7.8191  -7.8022
    -7.7566  -7.7462  -7.6883  -7.6516  -7.6036  -7.5010  -7.4009  -5.6883
    -4.1553  -3.8173  -3.3764  -3.1042  -3.0147  -2.8132  -2.7397  -2.5312
    -2.4755  -2.2988  -2.1780  -1.9506  -1.8598  -1.7506  -1.6437  -1.3854
    -1.3357  -1.3322  -1.2794  -1.0277  -0.9325  -0.8998  -0.8469  -0.8126
    -0.6697  -0.6678  -0.5585  -0.5069  -0.4939  -0.2665   0.1619   0.3998
     0.4202   0.7763   0.8118   1.5097   1.5304   1.5447   1.6519   1.8959
     2.5672   3.4576   3.6579   3.9391   4.1313   4.2834   4.3457

[...]

          k = 0.0719-0.0524 0.0000 ( 34671 PWs)   bands (ev):

[...]

          k =-0.0863 0.0435 0.0000 ( 34694 PWs)   bands (ev):

[...]

          k =-0.0863-0.0531 0.0000 ( 34744 PWs)   bands (ev):

    -8.6828  -8.5558  -8.5461  -8.5183  -8.4074  -8.3392  -8.2885  -8.2762
    -8.2613  -8.2531  -8.2363  -8.2240  -8.0988  -8.0843  -8.0176  -7.9907
    -7.9298  -7.9267  -7.9193  -7.8932  -7.8436  -7.8407  -7.7975  -7.7759
    -7.7437  -7.7267  -7.6849  -7.6777  -7.5957  -7.3957  -5.7484  -5.5559
    -4.4877  -3.9332  -3.6632  -3.4491  -3.2030  -3.1867  -3.0531  -2.9438
    -2.8869  -2.7431  -2.6091  -2.5872  -2.5760  -2.5554  -2.3673  -2.1081
    -2.0239  -1.7668  -1.7017  -1.4302  -1.2903  -1.2747  -1.1109  -1.0720
    -0.8497  -0.8417  -0.7987  -0.7736  -0.7106  -0.7090  -0.4571  -0.3061
     0.2605   0.4412   0.6430   1.0533   1.5171   1.9054   2.9447   3.0871
     3.1915   3.5369   5.3784   5.5628   5.6339   5.8794   5.9893

     the Fermi energy is     0.4667 ev

!    total energy              =   -1004.44379489 Ry
     estimated scf accuracy    <       0.00000872 Ry
     smearing contrib. (-TS)   =      -0.02357094 Ry
     internal energy E=F+TS    =   -1004.42022395 Ry

     The total energy is F=E-TS. E is the sum of the following terms:
     one-electron contribution =   -8254.36703996 Ry
     hartree contribution      =    4208.09359915 Ry
     xc contribution           =    -291.31128248 Ry
     ewald contribution        =    3333.16449353 Ry
     electric field correction =       0.00000583 Ry

     convergence has been achieved in  13 iterations

     negative rho (up, down):  3.117E-03 0.000E+00

     Forces acting on atoms (cartesian axes, Ry/au):

     atom    1 type  1   force =    -0.00291424   -0.00180111   -0.01958003
     atom    2 type  1   force =    -0.00293214   -0.00180650   -0.01951459
     atom    3 type  2   force =     0.00148602    0.00091469    0.01754674
     atom    4 type  2   force =     0.00148929    0.00091910    0.01757891
     atom    5 type  1   force =     0.00660610    0.00406220   -0.00856773
     atom    6 type  1   force =     0.00660977    0.00405340   -0.00852198
     atom    7 type  2   force =    -0.00398599   -0.00245416    0.00891821
     atom    8 type  2   force =    -0.00398467   -0.00244111    0.00892597
     atom    9 type  1   force =     0.00044929    0.00028060    0.00102966
     atom   10 type  1   force =     0.00045908    0.00026160    0.00103234
     atom   11 type  2   force =    -0.00163746   -0.00099299    0.00057180
     atom   12 type  2   force =    -0.00164506   -0.00099574    0.00058071

     Total force =     0.043483     Total SCF correction =     0.005814
     SCF correction compared to forces is large: reduce conv_thr to get better values

     Writing output data file ./Cd2Pt2/Cd2Pt2_beef.save/

     General routines

     Parallel routines

   This run was terminated on:  17:59:16  23Jun2022

   JOB DONE.