     Program PWSCF v.6.6 starts on 23Jun2022 at 17:59:29

     R & G space division:  proc/nbgrp/npool/nimage =      37
     Fft bands division:     nmany     =       1
     Reading input from Cd2Re2.in
Warning: card &CELL ignored
Warning: card / ignored

     Current dimensions of program PWSCF are:
     Max number of different atomic species (ntypx) = 10
     Max number of k-points (npk) =  40000
     Max angular momentum in pseudopotentials (lmaxx) =  3
     Presently stress not available with electric field and gates

     Message from routine cell_base_init:
     DEPRECATED: use true lattice parameter, not A to a.u. conversion factor
     file Cd.pbe-n-rrkjus_psl.1.0.0.UPF: wavefunction(s)  4D renormalized

     IMPORTANT: XC functional enforced from input :
     Exchange-correlation= BEEF-VDW
                           (   1   4  43  14   2   0   0)
     Any further DFT definition will be discarded
     Please, verify this is what you really want

     Subspace diagonalization in iterative solution of the eigenvalue problem:
     a serial algorithm will be used

     bravais-lattice index     =            0
     lattice parameter (alat)  =       1.8897  a.u.
     unit-cell volume          =    4953.1136 (a.u.)^3
     number of atoms/cell      =           12
     number of atomic types    =            2
     number of electrons       =       162.00
     number of Kohn-Sham states=           97
     kinetic-energy cutoff     =      55.1240  Ry
     charge density cutoff     =     551.2396  Ry
     convergence threshold     =      1.0E-05
     mixing beta               =       0.1000
     number of iterations used =           10  plain     mixing
     Exchange-correlation= BEEF-VDW
                           (   1   4  43  14   2   0   0)

     celldm(1)=   1.889726  celldm(2)=   0.000000  celldm(3)=   0.000000
     celldm(4)=   0.000000  celldm(5)=   0.000000  celldm(6)=   0.000000

     crystal axes: (cart. coord. in units of alat)
               a(1) = (   5.461962   0.000000   0.000000 )
               a(2) = (  -2.730981   5.435515   0.000000 )
               a(3) = (   0.000000   0.000000  24.722501 )

     reciprocal axes: (cart. coord. in units 2 pi/alat)
               b(1) = (  0.183084  0.091988 -0.000000 )
               b(2) = (  0.000000  0.183975  0.000000 )
               b(3) = (  0.000000 -0.000000  0.040449 )

     PseudoPot. # 1 for Cd read from file:
     ../pseudo/Cd.pbe-n-rrkjus_psl.1.0.0.UPF
     MD5 check sum: a744746c89d2344a134ead0d8ab94e7a
     Pseudo is Ultrasoft + core correction, Zval = 12.0
     Generated using "atomic" code by A. Dal Corso v.6.3
     Using radial grid of 1239 points,  6 beta functions with:
                l(1) =   0
                l(2) =   0
                l(3) =   1
                l(4) =   1
                l(5) =   2
                l(6) =   2
     Q(r) pseudized with 0 coefficients

     PseudoPot. # 2 for Re read from file:
     ../pseudo/Re.pbe-spn-rrkjus_psl.1.0.0.UPF
     MD5 check sum: 1282f1ec51ad523723a04c61ae80a9e6
     Pseudo is Ultrasoft + core correction, Zval = 15.0
     Generated using "atomic" code by A. Dal Corso v.6.2.2
     Using radial grid of 1275 points,  6 beta functions with:
                l(1) =   0
                l(2) =   0
                l(3) =   1
                l(4) =   1
                l(5) =   2
                l(6) =   2
     Q(r) pseudized with 0 coefficients

     atomic species   valence    mass     pseudopotential
        Cd            12.00   112.41400     Cd( 1.00)
        Re            15.00   186.20700     Re( 1.00)

     No symmetry found

   Cartesian axes

     site n.     atom                  positions (alat units)
         1           Cd  tau(   1) = (   0.0000000   0.0000000  10.0000000  )
         2           Cd  tau(   2) = (   2.7309809   0.0000000  10.0000000  )
         3           Re  tau(   3) = (   1.3654905   2.7177573  10.0000000  )
         4           Re  tau(   4) = (  -1.3654905   2.7177573  10.0000000  )
         5           Cd  tau(   5) = (   2.7309809   1.3721345  12.3612505  )
         6           Cd  tau(   6) = (   0.0000000   1.3721345  12.3612505  )
         7           Re  tau(   7) = (  -1.3654905   4.0898918  12.3612505  )
         8           Re  tau(   8) = (   1.3654905   4.0898918  12.3612505  )
         9           Cd  tau(   9) = (  -0.0005474   2.5114239  15.1595673  )
        10           Cd  tau(  10) = (   2.7313693   2.5114296  15.1596266  )
        11           Re  tau(  11) = (   1.3655280   5.1145744  14.5410997  )
        12           Re  tau(  12) = (  -1.3655339   5.1145217  14.5410787  )

     number of k points=    74  Fermi-Dirac smearing, width (Ry)=  0.0100
                       cart. coord. in units 2pi/alat
        k(    1) = (   0.0000000   0.0000000   0.0000000), wk =   0.0138889
        k(    2) = (   0.0000000   0.0153313   0.0000000), wk =   0.0277778
        k(    3) = (   0.0000000   0.0306625   0.0000000), wk =   0.0277778
        k(    4) = (   0.0000000   0.0459938   0.0000000), wk =   0.0277778
        k(    5) = (   0.0000000   0.0613251   0.0000000), wk =   0.0277778
        k(    6) = (   0.0000000   0.0766563   0.0000000), wk =   0.0277778
        k(    7) = (   0.0000000  -0.0919876   0.0000000), wk =   0.0138889
        k(    8) = (   0.0152570   0.0076656   0.0000000), wk =   0.0277778
        k(    9) = (   0.0152570   0.0229969   0.0000000), wk =   0.0277778
        k(   10) = (   0.0152570   0.0383282   0.0000000), wk =   0.0277778
        k(   11) = (   0.0152570   0.0536594   0.0000000), wk =   0.0277778
        k(   12) = (   0.0152570   0.0689907   0.0000000), wk =   0.0277778
        k(   13) = (   0.0152570   0.0843220   0.0000000), wk =   0.0277778
        k(   14) = (   0.0152570  -0.0843220   0.0000000), wk =   0.0277778
        k(   15) = (   0.0152570  -0.0689907   0.0000000), wk =   0.0277778
        k(   16) = (   0.0152570  -0.0536594   0.0000000), wk =   0.0277778
        k(   17) = (   0.0152570  -0.0383282   0.0000000), wk =   0.0277778
        k(   18) = (   0.0152570  -0.0229969   0.0000000), wk =   0.0277778
        k(   19) = (   0.0152570  -0.0076656   0.0000000), wk =   0.0277778
        k(   20) = (   0.0305141   0.0153313   0.0000000), wk =   0.0277778
        k(   21) = (   0.0305141   0.0306625   0.0000000), wk =   0.0277778
        k(   22) = (   0.0305141   0.0459938   0.0000000), wk =   0.0277778
        k(   23) = (   0.0305141   0.0613251   0.0000000), wk =   0.0277778
        k(   24) = (   0.0305141   0.0766563   0.0000000), wk =   0.0277778
        k(   25) = (   0.0305141   0.0919876   0.0000000), wk =   0.0277778
        k(   26) = (   0.0305141  -0.0766563   0.0000000), wk =   0.0277778
        k(   27) = (   0.0305141  -0.0613251   0.0000000), wk =   0.0277778
        k(   28) = (   0.0305141  -0.0459938   0.0000000), wk =   0.0277778
        k(   29) = (   0.0305141  -0.0306625   0.0000000), wk =   0.0277778
        k(   30) = (   0.0305141  -0.0153313   0.0000000), wk =   0.0277778
        k(   31) = (   0.0305141  -0.0000000   0.0000000), wk =   0.0277778
        k(   32) = (   0.0457711   0.0229969   0.0000000), wk =   0.0277778
        k(   33) = (   0.0457711   0.0383282   0.0000000), wk =   0.0277778
        k(   34) = (   0.0457711   0.0536594   0.0000000), wk =   0.0277778
        k(   35) = (   0.0457711   0.0689907   0.0000000), wk =   0.0277778
        k(   36) = (   0.0457711   0.0843220   0.0000000), wk =   0.0277778
        k(   37) = (   0.0457711   0.0996532   0.0000000), wk =   0.0277778
        k(   38) = (   0.0457711  -0.0689907   0.0000000), wk =   0.0277778
        k(   39) = (   0.0457711  -0.0536594   0.0000000), wk =   0.0277778
        k(   40) = (   0.0457711  -0.0383282   0.0000000), wk =   0.0277778
        k(   41) = (   0.0457711  -0.0229969   0.0000000), wk =   0.0277778
        k(   42) = (   0.0457711  -0.0076656   0.0000000), wk =   0.0277778
        k(   43) = (   0.0457711   0.0076656   0.0000000), wk =   0.0277778
        k(   44) = (   0.0610281   0.0306625   0.0000000), wk =   0.0277778
        k(   45) = (   0.0610281   0.0459938   0.0000000), wk =   0.0277778
        k(   46) = (   0.0610281   0.0613251   0.0000000), wk =   0.0277778
        k(   47) = (   0.0610281   0.0766563   0.0000000), wk =   0.0277778
        k(   48) = (   0.0610281   0.0919876   0.0000000), wk =   0.0277778
        k(   49) = (   0.0610281   0.1073189   0.0000000), wk =   0.0277778
        k(   50) = (   0.0610281  -0.0613251   0.0000000), wk =   0.0277778
        k(   51) = (   0.0610281  -0.0459938   0.0000000), wk =   0.0277778
        k(   52) = (   0.0610281  -0.0306625   0.0000000), wk =   0.0277778
        k(   53) = (   0.0610281  -0.0153313   0.0000000), wk =   0.0277778
        k(   54) = (   0.0610281   0.0000000   0.0000000), wk =   0.0277778
        k(   55) = (   0.0610281   0.0153313   0.0000000), wk =   0.0277778
        k(   56) = (   0.0762852   0.0383282   0.0000000), wk =   0.0277778
        k(   57) = (   0.0762852   0.0536594   0.0000000), wk =   0.0277778
        k(   58) = (   0.0762852   0.0689907   0.0000000), wk =   0.0277778
        k(   59) = (   0.0762852   0.0843220   0.0000000), wk =   0.0277778
        k(   60) = (   0.0762852   0.0996532   0.0000000), wk =   0.0277778
        k(   61) = (   0.0762852   0.1149845   0.0000000), wk =   0.0277778
        k(   62) = (   0.0762852  -0.0536594   0.0000000), wk =   0.0277778
        k(   63) = (   0.0762852  -0.0383282   0.0000000), wk =   0.0277778
        k(   64) = (   0.0762852  -0.0229969   0.0000000), wk =   0.0277778
        k(   65) = (   0.0762852  -0.0076656   0.0000000), wk =   0.0277778
        k(   66) = (   0.0762852   0.0076656   0.0000000), wk =   0.0277778
        k(   67) = (   0.0762852   0.0229969   0.0000000), wk =   0.0277778
        k(   68) = (  -0.0915422  -0.0459938   0.0000000), wk =   0.0138889
        k(   69) = (  -0.0915422  -0.0306625   0.0000000), wk =   0.0277778
        k(   70) = (  -0.0915422  -0.0153313   0.0000000), wk =   0.0277778
        k(   71) = (  -0.0915422   0.0000000   0.0000000), wk =   0.0277778
        k(   72) = (  -0.0915422   0.0153313   0.0000000), wk =   0.0277778
        k(   73) = (  -0.0915422   0.0306625   0.0000000), wk =   0.0277778
        k(   74) = (  -0.0915422  -0.1379814   0.0000000), wk =   0.0138889

     Initial potential from superposition of free atoms

     starting charge  161.96890, renormalised to  162.00000

     negative rho (up, down):  2.742E-03 0.000E+00

     %%%%%%%%%%%%%%%%%%%%%%%%%%%%%%%%%%%%%%%%%%%%%%%%%%%%%%%%%%%%%%%%%%%%%%%%
     %                                                                      %
     % You are using vdW-DF, which was implemented by the Thonhauser group. %
     % Please cite the following two papers that made this development      %
     % possible and the two reviews that describe the various versions:     %
     %                                                                      %
     %   T. Thonhauser et al., PRL 115, 136402 (2015).                      %
     %   T. Thonhauser et al., PRB 76, 125112 (2007).                       %
     %   K. Berland et al., Rep. Prog. Phys. 78, 066501 (2015).             %
     %   D.C. Langreth et al., J. Phys.: Condens. Matter 21, 084203 (2009). %
     %                                                                      %
     %                                                                      %
     % If you are calculating the stress with vdW-DF, please also cite:     %
     %                                                                      %
     %   R. Sabatini et al., J. Phys.: Condens. Matter 24, 424209 (2012).   %
     %                                                                      %
     %%%%%%%%%%%%%%%%%%%%%%%%%%%%%%%%%%%%%%%%%%%%%%%%%%%%%%%%%%%%%%%%%%%%%%%%

     Adding external electric field

     Computed dipole along edir(3) :
        Dipole                0.0060 Ry au,          0.0153 Debye
        Dipole field          0.0000 Ry au,

        Potential amp.       -0.0014 Ry
        Total length         45.5508 bohr

     Starting wfcs are  114 randomized atomic wfcs

     Self-consistent Calculation

     iteration #  1     ecut=    55.12 Ry     beta= 0.10
     Davidson diagonalization with overlap
     ethr =  1.00E-02,  avg # of iterations =  2.4

     Threshold (ethr) on eigenvalues was too large:
     Diagonalizing with lowered threshold

     Davidson diagonalization with overlap
     ethr =  6.76E-04,  avg # of iterations =  4.2

[...]

     total energy              =   -1682.48509269 Ry
     estimated scf accuracy    <       1.17422236 Ry

[...]

     iteration #  6     ecut=    55.12 Ry     beta= 0.10
     Davidson diagonalization with overlap
     c_bands:  1 eigenvalues not converged
     c_bands:  1 eigenvalues not converged
     c_bands:  1 eigenvalues not converged
     c_bands:  1 eigenvalues not converged
     c_bands:  1 eigenvalues not converged
     c_bands:  1 eigenvalues not converged
     c_bands:  1 eigenvalues not converged
     c_bands:  1 eigenvalues not converged
     ethr =  4.44E-05,  avg # of iterations =  9.6

[...]

     iteration # 14     ecut=    55.12 Ry     beta= 0.10
     Davidson diagonalization with overlap
     c_bands:  1 eigenvalues not converged
     ethr =  4.74E-08,  avg # of iterations =  4.5

[...]

     total energy              =   -1682.50000610 Ry
     estimated scf accuracy    <       0.00001600 Ry

     iteration # 17     ecut=    55.12 Ry     beta= 0.10
     Davidson diagonalization with overlap
     ethr =  6.72E-09,  avg # of iterations =  2.0

[...]

     Adding external electric field

     Computed dipole along edir(3) :
        Dipole                0.1263 Ry au,          0.3210 Debye
        Dipole field          0.0003 Ry au,

        Potential amp.       -0.0292 Ry
        Total length         45.5508 bohr

     End of self-consistent calculation

          k = 0.0000 0.0000 0.0000 ( 34259 PWs)   bands (ev):

   -78.9960 -78.9556 -78.7073 -78.6670 -78.6164 -78.5759 -41.1737 -41.0965
   -40.9706 -40.7201 -40.7057 -40.6806 -40.6504 -40.4790 -40.4116 -40.3661
   -40.3161 -40.2975 -40.2769 -40.2086 -40.0640 -40.0349 -40.0340 -39.9764
    -8.6554  -8.3711  -8.3145  -8.2728  -8.2074  -7.9807  -7.9542  -7.8522
    -7.8175  -7.7545  -7.6994  -7.6868  -7.4876  -7.3430  -7.2598  -7.2042
    -7.1749  -7.1640  -7.1161  -7.1100  -7.0769  -7.0265  -6.9665  -6.8883
    -6.8874  -6.7532  -6.7459  -6.7067  -6.6767  -6.5486  -6.2842  -5.0060
    -3.1358  -2.8133  -2.6733  -2.3395  -2.2072  -2.0804  -2.0144  -1.6834
    -1.4520  -1.1756  -0.7749  -0.4540  -0.3923  -0.3024  -0.1888   0.2183
     0.5985   0.7430   0.9330   1.1277   1.3564   1.4008   1.4136   1.6079
     1.6099   1.9233   2.0162   2.1813   2.1923   2.3539   2.7603   3.1847
     3.2371   3.3034   3.3481   3.4054   3.8213   4.1238   4.4963   4.5204
     4.5953

[...]

          k = 0.0763 0.0230 0.0000 ( 34235 PWs)   bands (ev):

[...]

          k =-0.0915-0.0460 0.0000 ( 34244 PWs)   bands (ev):

[...]

          k =-0.0915-0.1380 0.0000 ( 34244 PWs)   bands (ev):

   -78.9758 -78.9758 -78.6872 -78.6871 -78.5962 -78.5962 -41.1355 -41.1353
   -40.6855 -40.6855 -40.6498 -40.6498 -40.4455 -40.4454 -40.3912 -40.3910
   -40.3643 -40.3642 -40.3320 -40.3320 -40.2428 -40.2427 -40.0052 -40.0052
    -8.0284  -8.0283  -7.8455  -7.8454  -7.7635  -7.7635  -7.6592  -7.6592
    -7.6215  -7.6215  -7.3922  -7.3906  -7.3401  -7.3387  -7.3274  -7.3268
    -7.2852  -7.2848  -7.2454  -7.2445  -7.1770  -7.1767  -7.1598  -7.1594
    -7.0977  -7.0972  -7.0110  -7.0109  -6.9772  -6.9771  -5.0615  -5.0612
    -3.4152  -3.4141  -2.6533  -2.6532  -2.0876  -2.0871  -1.5669  -1.5669
    -0.9835  -0.9834  -0.6075  -0.6073  -0.1909  -0.1908  -0.0120  -0.0119
     0.2338   0.2338   0.5634   0.5634   0.6776   0.6778   0.9298   0.9298
     1.1013   1.1013   1.3509   1.3509   1.9621   1.9626   2.5016   2.5017
     2.8769   2.8770   3.0768   3.0769   3.4634   3.4637   4.4522   4.4527
     5.0224

     the Fermi energy is     1.5176 ev

!    total energy              =   -1682.50000453 Ry
     estimated scf accuracy    <       0.00000226 Ry
     smearing contrib. (-TS)   =      -0.05438935 Ry
     internal energy E=F+TS    =   -1682.44561518 Ry

     The total energy is F=E-TS. E is the sum of the following terms:
     one-electron contribution =  -12769.33771761 Ry
     hartree contribution      =    6416.54852713 Ry
     xc contribution           =    -387.99016628 Ry
     ewald contribution        =    5058.33370111 Ry
     electric field correction =       0.00004046 Ry

     convergence has been achieved in  17 iterations

     negative rho (up, down):  2.935E-03 0.000E+00

     Forces acting on atoms (cartesian axes, Ry/au):

     atom    1 type  1   force =    -0.00000278   -0.01429098   -0.04860735
     atom    2 type  1   force =    -0.00000658   -0.01428435   -0.04859700
     atom    3 type  2   force =    -0.00000136    0.01739464    0.04791312
     atom    4 type  2   force =     0.00000001    0.01739410    0.04790418
     atom    5 type  1   force =     0.00000757    0.01951573    0.02545494
     atom    6 type  1   force =     0.00001584    0.01951107    0.02545378
     atom    7 type  2   force =     0.00000433   -0.01911061   -0.01923509
     atom    8 type  2   force =    -0.00000567   -0.01910105   -0.01922179
     atom    9 type  1   force =     0.00032802   -0.00148884   -0.00151748
     atom   10 type  1   force =    -0.00032990   -0.00149006   -0.00151853
     atom   11 type  2   force =    -0.00000748   -0.00204922   -0.00401679
     atom   12 type  2   force =    -0.00000201   -0.00200043   -0.00401199

     Total force =     0.117919     Total SCF correction =     0.011853
     SCF correction compared to forces is large: reduce conv_thr to get better values

     Writing output data file ./Cd2Re2/Cd2Re2_beef.save/

     General routines

     Parallel routines

   This run was terminated on:  19:11:55  23Jun2022

   JOB DONE.