     Program PWSCF v.6.6 starts on 23Jun2022 at 20: 4:59

     R & G space division:  proc/nbgrp/npool/nimage =      37
     Fft bands division:     nmany     =       1
     Reading input from Cd2Ta2.in
Warning: card &CELL ignored
Warning: card / ignored

     Current dimensions of program PWSCF are:
     Max number of different atomic species (ntypx) = 10
     Max number of k-points (npk) =  40000
     Max angular momentum in pseudopotentials (lmaxx) =  3
     Presently stress not available with electric field and gates

     Message from routine cell_base_init:
     DEPRECATED: use true lattice parameter, not A to a.u. conversion factor
     file Cd.pbe-n-rrkjus_psl.1.0.0.UPF: wavefunction(s)  4D renormalized
     file Ta.pbe-spfn-rrkjus_psl.1.0.0.UPF: wavefunction(s)  5S 5P renormalized

     IMPORTANT: XC functional enforced from input :
     Exchange-correlation= BEEF-VDW
                           (   1   4  43  14   2   0   0)
     Any further DFT definition will be discarded
     Please, verify this is what you really want

     Subspace diagonalization in iterative solution of the eigenvalue problem:
     a serial algorithm will be used

     Found symmetry operation: I + ( -0.5000  0.0000  0.0000)
     This is a supercell, fractional translations are disabled

     bravais-lattice index     =            0
     lattice parameter (alat)  =       1.8897  a.u.
     unit-cell volume          =    5285.0099 (a.u.)^3
     number of atoms/cell      =           12
     number of atomic types    =            2
     number of electrons       =       234.00
     number of Kohn-Sham states=          140
     kinetic-energy cutoff     =      55.1240  Ry
     charge density cutoff     =     551.2396  Ry
     convergence threshold     =      1.0E-05
     mixing beta               =       0.1000
     number of iterations used =           10  plain     mixing
     Exchange-correlation= BEEF-VDW
                           (   1   4  43  14   2   0   0)

     celldm(1)=   1.889726  celldm(2)=   0.000000  celldm(3)=   0.000000
     celldm(4)=   0.000000  celldm(5)=   0.000000  celldm(6)=   0.000000

     crystal axes: (cart. coord. in units of alat)
               a(1) = (   5.744802   0.000000   0.000000 )
               a(2) = (  -2.872401   5.476797   0.000000 )
               a(3) = (   0.000000   0.000000  24.891300 )

     reciprocal axes: (cart. coord. in units 2 pi/alat)
               b(1) = (  0.174070  0.091294 -0.000000 )
               b(2) = (  0.000000  0.182588  0.000000 )
               b(3) = (  0.000000 -0.000000  0.040175 )

     PseudoPot. # 1 for Cd read from file:
     ../pseudo/Cd.pbe-n-rrkjus_psl.1.0.0.UPF
     MD5 check sum: a744746c89d2344a134ead0d8ab94e7a
     Pseudo is Ultrasoft + core correction, Zval = 12.0
     Generated using "atomic" code by A. Dal Corso v.6.3
     Using radial grid of 1239 points,  6 beta functions with:
                l(1) =   0
                l(2) =   0
                l(3) =   1
                l(4) =   1
                l(5) =   2
                l(6) =   2
     Q(r) pseudized with 0 coefficients

     PseudoPot. # 2 for Ta read from file:
     ../pseudo/Ta.pbe-spfn-rrkjus_psl.1.0.0.UPF
     MD5 check sum: 39d7d349fe394e56adf8454eb9315fbb
     Pseudo is Ultrasoft + core correction, Zval = 27.0
     Generated using "atomic" code by A. Dal Corso v.6.3
     Using radial grid of 1273 points,  8 beta functions with:
                l(1) =   0
                l(2) =   0
                l(3) =   1
                l(4) =   1
                l(5) =   2
                l(6) =   2
                l(7) =   3
                l(8) =   3
     Q(r) pseudized with 0 coefficients

     atomic species   valence    mass     pseudopotential
        Cd            12.00   112.41400     Cd( 1.00)
        Ta            27.00   180.94788     Ta( 1.00)

     No symmetry found

   Cartesian axes

     site n.     atom                  positions (alat units)
         1           Cd  tau(   1) = (   0.0000000   0.0000000  10.0000000  )
         2           Cd  tau(   2) = (   2.8724011   0.0000000  10.0000000  )
         3           Ta  tau(   3) = (   1.4362006   2.7383984  10.0000000  )
         4           Ta  tau(   4) = (  -1.4362006   2.7383984  10.0000000  )
         5           Cd  tau(   5) = (   2.8724011   1.5064806  12.4456501  )
         6           Cd  tau(   6) = (   0.0000000   1.5064806  12.4456501  )
         7           Ta  tau(   7) = (  -1.4362006   4.2448790  12.4456501  )
         8           Ta  tau(   8) = (   1.4362006   4.2448790  12.4456501  )
         9           Cd  tau(   9) = (  -0.0000074   2.9156831  15.1515077  )
        10           Cd  tau(  10) = (   2.8723996   2.9156413  15.1514770  )
        11           Ta  tau(  11) = (   4.3085901   0.1174608  14.7784661  )
        12           Ta  tau(  12) = (   1.4361843   0.1174790  14.7784620  )

     number of k points=    74  Fermi-Dirac smearing, width (Ry)=  0.0100
                       cart. coord. in units 2pi/alat
        k(    1) = (   0.0000000   0.0000000   0.0000000), wk =   0.0138889
        k(    2) = (   0.0000000   0.0152157   0.0000000), wk =   0.0277778
        k(    3) = (   0.0000000   0.0304314   0.0000000), wk =   0.0277778
        k(    4) = (   0.0000000   0.0456471   0.0000000), wk =   0.0277778
        k(    5) = (   0.0000000   0.0608628   0.0000000), wk =   0.0277778
        k(    6) = (   0.0000000   0.0760785   0.0000000), wk =   0.0277778
        k(    7) = (   0.0000000  -0.0912942   0.0000000), wk =   0.0138889
        k(    8) = (   0.0145059   0.0076079   0.0000000), wk =   0.0277778
        k(    9) = (   0.0145059   0.0228236   0.0000000), wk =   0.0277778
        k(   10) = (   0.0145059   0.0380393   0.0000000), wk =   0.0277778
        k(   11) = (   0.0145059   0.0532550   0.0000000), wk =   0.0277778
        k(   12) = (   0.0145059   0.0684707   0.0000000), wk =   0.0277778
        k(   13) = (   0.0145059   0.0836864   0.0000000), wk =   0.0277778
        k(   14) = (   0.0145059  -0.0836864   0.0000000), wk =   0.0277778
        k(   15) = (   0.0145059  -0.0684707   0.0000000), wk =   0.0277778
        k(   16) = (   0.0145059  -0.0532550   0.0000000), wk =   0.0277778
        k(   17) = (   0.0145059  -0.0380393   0.0000000), wk =   0.0277778
        k(   18) = (   0.0145059  -0.0228236   0.0000000), wk =   0.0277778
        k(   19) = (   0.0145059  -0.0076079   0.0000000), wk =   0.0277778
        k(   20) = (   0.0290117   0.0152157   0.0000000), wk =   0.0277778
        k(   21) = (   0.0290117   0.0304314   0.0000000), wk =   0.0277778
        k(   22) = (   0.0290117   0.0456471   0.0000000), wk =   0.0277778
        k(   23) = (   0.0290117   0.0608628   0.0000000), wk =   0.0277778
        k(   24) = (   0.0290117   0.0760785   0.0000000), wk =   0.0277778
        k(   25) = (   0.0290117   0.0912942   0.0000000), wk =   0.0277778
        k(   26) = (   0.0290117  -0.0760785   0.0000000), wk =   0.0277778
        k(   27) = (   0.0290117  -0.0608628   0.0000000), wk =   0.0277778
        k(   28) = (   0.0290117  -0.0456471   0.0000000), wk =   0.0277778
        k(   29) = (   0.0290117  -0.0304314   0.0000000), wk =   0.0277778
        k(   30) = (   0.0290117  -0.0152157   0.0000000), wk =   0.0277778
        k(   31) = (   0.0290117  -0.0000000   0.0000000), wk =   0.0277778
        k(   32) = (   0.0435176   0.0228236   0.0000000), wk =   0.0277778
        k(   33) = (   0.0435176   0.0380393   0.0000000), wk =   0.0277778
        k(   34) = (   0.0435176   0.0532550   0.0000000), wk =   0.0277778
        k(   35) = (   0.0435176   0.0684707   0.0000000), wk =   0.0277778
        k(   36) = (   0.0435176   0.0836864   0.0000000), wk =   0.0277778
        k(   37) = (   0.0435176   0.0989021   0.0000000), wk =   0.0277778
        k(   38) = (   0.0435176  -0.0684707   0.0000000), wk =   0.0277778
        k(   39) = (   0.0435176  -0.0532550   0.0000000), wk =   0.0277778
        k(   40) = (   0.0435176  -0.0380393   0.0000000), wk =   0.0277778
        k(   41) = (   0.0435176  -0.0228236   0.0000000), wk =   0.0277778
        k(   42) = (   0.0435176  -0.0076079   0.0000000), wk =   0.0277778
        k(   43) = (   0.0435176   0.0076079   0.0000000), wk =   0.0277778
        k(   44) = (   0.0580235   0.0304314   0.0000000), wk =   0.0277778
        k(   45) = (   0.0580235   0.0456471   0.0000000), wk =   0.0277778
        k(   46) = (   0.0580235   0.0608628   0.0000000), wk =   0.0277778
        k(   47) = (   0.0580235   0.0760785   0.0000000), wk =   0.0277778
        k(   48) = (   0.0580235   0.0912942   0.0000000), wk =   0.0277778
        k(   49) = (   0.0580235   0.1065099   0.0000000), wk =   0.0277778
        k(   50) = (   0.0580235  -0.0608628   0.0000000), wk =   0.0277778
        k(   51) = (   0.0580235  -0.0456471   0.0000000), wk =   0.0277778
        k(   52) = (   0.0580235  -0.0304314   0.0000000), wk =   0.0277778
        k(   53) = (   0.0580235  -0.0152157   0.0000000), wk =   0.0277778
        k(   54) = (   0.0580235   0.0000000   0.0000000), wk =   0.0277778
        k(   55) = (   0.0580235   0.0152157   0.0000000), wk =   0.0277778
        k(   56) = (   0.0725293   0.0380393   0.0000000), wk =   0.0277778
        k(   57) = (   0.0725293   0.0532550   0.0000000), wk =   0.0277778
        k(   58) = (   0.0725293   0.0684707   0.0000000), wk =   0.0277778
        k(   59) = (   0.0725293   0.0836864   0.0000000), wk =   0.0277778
        k(   60) = (   0.0725293   0.0989021   0.0000000), wk =   0.0277778
        k(   61) = (   0.0725293   0.1141178   0.0000000), wk =   0.0277778
        k(   62) = (   0.0725293  -0.0532550   0.0000000), wk =   0.0277778
        k(   63) = (   0.0725293  -0.0380393   0.0000000), wk =   0.0277778
        k(   64) = (   0.0725293  -0.0228236   0.0000000), wk =   0.0277778
        k(   65) = (   0.0725293  -0.0076079   0.0000000), wk =   0.0277778
        k(   66) = (   0.0725293   0.0076079   0.0000000), wk =   0.0277778
        k(   67) = (   0.0725293   0.0228236   0.0000000), wk =   0.0277778
        k(   68) = (  -0.0870352  -0.0456471   0.0000000), wk =   0.0138889
        k(   69) = (  -0.0870352  -0.0304314   0.0000000), wk =   0.0277778
        k(   70) = (  -0.0870352  -0.0152157   0.0000000), wk =   0.0277778
        k(   71) = (  -0.0870352   0.0000000   0.0000000), wk =   0.0277778
        k(   72) = (  -0.0870352   0.0152157   0.0000000), wk =   0.0277778
        k(   73) = (  -0.0870352   0.0304314   0.0000000), wk =   0.0277778
        k(   74) = (  -0.0870352  -0.1369414   0.0000000), wk =   0.0138889

     Initial potential from superposition of free atoms

     starting charge  233.96564, renormalised to  234.00000

     negative rho (up, down):  2.800E-03 0.000E+00

     %%%%%%%%%%%%%%%%%%%%%%%%%%%%%%%%%%%%%%%%%%%%%%%%%%%%%%%%%%%%%%%%%%%%%%%%
     %                                                                      %
     % You are using vdW-DF, which was implemented by the Thonhauser group. %
     % Please cite the following two papers that made this development      %
     % possible and the two reviews that describe the various versions:     %
     %                                                                      %
     %   T. Thonhauser et al., PRL 115, 136402 (2015).                      %
     %   T. Thonhauser et al., PRB 76, 125112 (2007).                       %
     %   K. Berland et al., Rep. Prog. Phys. 78, 066501 (2015).             %
     %   D.C. Langreth et al., J. Phys.: Condens. Matter 21, 084203 (2009). %
     %                                                                      %
     %                                                                      %
     % If you are calculating the stress with vdW-DF, please also cite:     %
     %                                                                      %
     %   R. Sabatini et al., J. Phys.: Condens. Matter 24, 424209 (2012).   %
     %                                                                      %
     %%%%%%%%%%%%%%%%%%%%%%%%%%%%%%%%%%%%%%%%%%%%%%%%%%%%%%%%%%%%%%%%%%%%%%%%

     Adding external electric field

     Computed dipole along edir(3) :
        Dipole                0.0044 Ry au,          0.0112 Debye
        Dipole field          0.0000 Ry au,

        Potential amp.       -0.0010 Ry
        Total length         45.8618 bohr

     Starting wfcs are  156 randomized atomic wfcs

     Self-consistent Calculation

     iteration #  1     ecut=    55.12 Ry     beta= 0.10
     Davidson diagonalization with overlap
     ethr =  1.00E-02,  avg # of iterations =  2.4

[...]

     total energy              =   -4698.69920407 Ry
     estimated scf accuracy    <       2.45148113 Ry

[...]

     iteration #  5     ecut=    55.12 Ry     beta= 0.10
     Davidson diagonalization with overlap
     c_bands:  1 eigenvalues not converged
     c_bands:  1 eigenvalues not converged
     c_bands:  2 eigenvalues not converged
     c_bands:  1 eigenvalues not converged
     c_bands:  1 eigenvalues not converged
     c_bands:  1 eigenvalues not converged
     c_bands:  1 eigenvalues not converged
     c_bands:  1 eigenvalues not converged
     c_bands:  1 eigenvalues not converged
     c_bands:  1 eigenvalues not converged
     ethr =  1.31E-04,  avg # of iterations = 12.1

[...]

     iteration #  9     ecut=    55.12 Ry     beta= 0.10
     Davidson diagonalization with overlap
     c_bands:  1 eigenvalues not converged
     c_bands:  1 eigenvalues not converged
     c_bands:  1 eigenvalues not converged
     ethr =  1.67E-06,  avg # of iterations =  5.0

[...]

     total energy              =   -4698.85465259 Ry
     estimated scf accuracy    <       0.00002095 Ry

     iteration # 14     ecut=    55.12 Ry     beta= 0.10
     Davidson diagonalization with overlap
     ethr =  8.95E-09,  avg # of iterations =  4.8

[...]

     Adding external electric field

     Computed dipole along edir(3) :
        Dipole               -0.0288 Ry au,         -0.0731 Debye
        Dipole field         -0.0001 Ry au,

        Potential amp.        0.0063 Ry
        Total length         45.8618 bohr

     End of self-consistent calculation

          k = 0.0000 0.0000 0.0000 ( 36519 PWs)   bands (ev):

   -67.0120 -66.9682 -66.8093 -66.7649 -66.5526 -66.5076 -33.4769 -33.4265
   -33.3957 -33.3611 -33.3029 -33.2799 -33.2635 -33.1854 -33.1679 -33.1447
   -33.0884 -32.9943 -32.9139 -32.7211 -32.5874 -32.5544 -32.4847 -32.4309
   -18.7498 -18.7477 -18.7468 -18.7455 -18.7096 -18.6971 -18.6919 -18.6839
   -18.6755 -18.6475 -18.6432 -18.6412 -18.6125 -18.5995 -18.5210 -18.5183
   -18.5175 -18.5161 -18.5002 -18.4878 -18.4858 -18.4775 -18.4747 -18.4524
   -18.4502 -18.4471 -18.4216 -18.4089 -18.2640 -18.2615 -18.2421 -18.2408
   -18.2405 -18.2397 -18.2326 -18.2325 -18.2082 -18.1991 -18.1943 -18.1820
   -18.1619 -18.1619  -7.8924  -7.7158  -7.6362  -7.6180  -7.5234  -7.4455
    -7.4034  -7.3526  -7.2903  -7.2482  -7.2318  -7.1381  -6.9726  -6.9443
    -6.8452  -6.8248  -6.8060  -6.7796  -6.7383  -6.7369  -6.6967  -6.6947
    -6.6343  -6.5357  -6.5303  -6.4728  -6.4062  -6.3559  -6.2803  -6.1617
    -6.0616  -4.3949  -2.4878  -1.5768  -1.1143  -1.0904  -0.9550  -0.6446
    -0.6432   0.0125   0.0463   0.0837   0.1196   0.6602   1.0024   1.0590
     1.1342   1.3002   1.6965   1.8102   1.9272   1.9532   2.0179   2.1593
     2.5898   2.7182   2.9658   3.0874   3.1070   3.2931   3.7758   3.9225
     4.0381   4.3761   4.5934   4.8515   4.8945   5.0251   5.0447   5.2129
     5.2748   5.4275   5.6071   5.6076

[...]

          k = 0.0725 0.0228 0.0000 ( 36544 PWs)   bands (ev):

[...]

          k =-0.0870-0.0456 0.0000 ( 36520 PWs)   bands (ev):

[...]

          k =-0.0870-0.1369 0.0000 ( 36520 PWs)   bands (ev):

   -66.9902 -66.9902 -66.7872 -66.7871 -66.5302 -66.5301 -33.4366 -33.4366
   -33.3210 -33.3210 -33.2249 -33.2249 -33.1288 -33.1287 -33.0823 -33.0823
   -32.9547 -32.9547 -32.9537 -32.9537 -32.7968 -32.7967 -32.5196 -32.5196
   -18.7487 -18.7487 -18.7462 -18.7462 -18.7031 -18.7031 -18.6879 -18.6879
   -18.6618 -18.6618 -18.6271 -18.6271 -18.6235 -18.6234 -18.5195 -18.5194
   -18.5168 -18.5167 -18.4936 -18.4935 -18.4817 -18.4817 -18.4613 -18.4613
   -18.4362 -18.4362 -18.4329 -18.4329 -18.2518 -18.2517 -18.2499 -18.2498
   -18.2369 -18.2368 -18.2367 -18.2366 -18.2047 -18.2046 -18.1805 -18.1804
   -18.1728 -18.1727  -7.4415  -7.4415  -7.3204  -7.3204  -7.2636  -7.2635
    -7.1907  -7.1907  -7.1391  -7.1391  -6.9586  -6.9586  -6.9292  -6.9292
    -6.8637  -6.8637  -6.8441  -6.8441  -6.8181  -6.8181  -6.7884  -6.7884
    -6.7548  -6.7547  -6.6820  -6.6819  -6.6494  -6.6494  -6.5830  -6.5830
    -4.4166  -4.4166  -2.9099  -2.9099  -1.8010  -1.8010  -1.0102  -1.0102
    -0.1383  -0.1383   0.4719   0.4719   0.8302   0.8302   1.1509   1.1509
     1.2809   1.2809   1.5242   1.5242   1.8727   1.8727   2.0158   2.0159
     2.2683   2.2683   2.8096   2.8096   2.8753   2.8753   3.5503   3.5504
     3.8344   3.8344   4.4497   4.4498   4.5490   4.5491   4.7364   4.7364
     5.2899   5.2899   5.8097   5.8098

     the Fermi energy is     1.7611 ev

!    total energy              =   -4698.85465432 Ry
     estimated scf accuracy    <       0.00000940 Ry
     smearing contrib. (-TS)   =      -0.05396644 Ry
     internal energy E=F+TS    =   -4698.80068788 Ry

     The total energy is F=E-TS. E is the sum of the following terms:
     one-electron contribution =  -28034.26208725 Ry
     hartree contribution      =   14156.65681762 Ry
     xc contribution           =    -556.15293146 Ry
     ewald contribution        =    9734.95751123 Ry
     electric field correction =       0.00000197 Ry

     convergence has been achieved in  14 iterations

     negative rho (up, down):  2.832E-03 0.000E+00

     Forces acting on atoms (cartesian axes, Ry/au):

     atom    1 type  1   force =    -0.00000382   -0.00731177   -0.02902777
     atom    2 type  1   force =    -0.00000287   -0.00731381   -0.02907405
     atom    3 type  2   force =    -0.00001336    0.02449147    0.02943225
     atom    4 type  2   force =     0.00002135    0.02451176    0.02944302
     atom    5 type  1   force =    -0.00000282    0.00812441    0.00989333
     atom    6 type  1   force =    -0.00001069    0.00812862    0.00988782
     atom    7 type  2   force =     0.00002740   -0.02140744   -0.01463863
     atom    8 type  2   force =    -0.00002112   -0.02137662   -0.01464166
     atom    9 type  1   force =    -0.00001152    0.00119645    0.00164126
     atom   10 type  1   force =     0.00001761    0.00118548    0.00161673
     atom   11 type  2   force =    -0.00003911   -0.00508303    0.00274277
     atom   12 type  2   force =     0.00003895   -0.00514552    0.00272494

     Total force =     0.080472     Total SCF correction =     0.027248
     SCF correction compared to forces is large: reduce conv_thr to get better values

     Writing output data file ./Cd2Ta2/Cd2Ta2_beef.save/

     General routines

     Parallel routines

   This run was terminated on:  22:24:40  23Jun2022

   JOB DONE.