     Program PWSCF v.6.6 starts on 10Jul2022 at 14:30:22

     R & G space division:  proc/nbgrp/npool/nimage =      37
     Fft bands division:     nmany     =       1
     Reading input from Cd2Y2.in
Warning: card &CELL ignored
Warning: card / ignored

     Current dimensions of program PWSCF are:
     Max number of different atomic species (ntypx) = 10
     Max number of k-points (npk) =  40000
     Max angular momentum in pseudopotentials (lmaxx) =  3
     Presently stress not available with electric field and gates

     Message from routine cell_base_init:
     DEPRECATED: use true lattice parameter, not A to a.u. conversion factor
     file Cd.pbe-n-rrkjus_psl.1.0.0.UPF: wavefunction(s)  4D renormalized
     file Y.pbe-spn-rrkjus_psl.1.0.0.UPF: wavefunction(s)  4S renormalized

     IMPORTANT: XC functional enforced from input :
     Exchange-correlation= BEEF-VDW
                           (   1   4  43  14   2   0   0)
     Any further DFT definition will be discarded
     Please, verify this is what you really want

     Subspace diagonalization in iterative solution of the eigenvalue problem:
     a serial algorithm will be used

     bravais-lattice index     =            0
     lattice parameter (alat)  =       1.8897  a.u.
     unit-cell volume          =    6747.9761 (a.u.)^3
     number of atoms/cell      =           12
     number of atomic types    =            2
     number of electrons       =       138.00
     number of Kohn-Sham states=           83
     kinetic-energy cutoff     =      55.1240  Ry
     charge density cutoff     =     551.2396  Ry
     convergence threshold     =      1.0E-05
     mixing beta               =       0.1000
     number of iterations used =           10  plain     mixing
     Exchange-correlation= BEEF-VDW
                           (   1   4  43  14   2   0   0)

     celldm(1)=   1.889726  celldm(2)=   0.000000  celldm(3)=   0.000000
     celldm(4)=   0.000000  celldm(5)=   0.000000  celldm(6)=   0.000000

     crystal axes: (cart. coord. in units of alat)
               a(1) = (   6.499115   0.000000   0.000000 )
               a(2) = (   2.321753   6.070252   0.000000 )
               a(3) = (   0.000000   0.000000  25.346388 )

     reciprocal axes: (cart. coord. in units 2 pi/alat)
               b(1) = (  0.153867 -0.058851  0.000000 )
               b(2) = (  0.000000  0.164738  0.000000 )
               b(3) = (  0.000000  0.000000  0.039453 )

     PseudoPot. # 1 for Cd read from file:
     ../pseudo/Cd.pbe-n-rrkjus_psl.1.0.0.UPF
     MD5 check sum: a744746c89d2344a134ead0d8ab94e7a
     Pseudo is Ultrasoft + core correction, Zval = 12.0
     Generated using "atomic" code by A. Dal Corso v.6.3
     Using radial grid of 1239 points,  6 beta functions with:
                l(1) =   0
                l(2) =   0
                l(3) =   1
                l(4) =   1
                l(5) =   2
                l(6) =   2
     Q(r) pseudized with 0 coefficients

     PseudoPot. # 2 for Y  read from file:
     ../pseudo/Y.pbe-spn-rrkjus_psl.1.0.0.UPF
     MD5 check sum: 5fe32e6a006803c2ec2edff47948a3c8
     Pseudo is Ultrasoft + core correction, Zval = 11.0
     Generated using "atomic" code by A. Dal Corso v.6.2.2
     Using radial grid of 1223 points,  6 beta functions with:
                l(1) =   0
                l(2) =   0
                l(3) =   1
                l(4) =   1
                l(5) =   2
                l(6) =   2
     Q(r) pseudized with 0 coefficients

     atomic species   valence    mass     pseudopotential
        Cd            12.00   112.41400     Cd( 1.00)
        Y             11.00    88.90584     Y ( 1.00)

     No symmetry found

   Cartesian axes

     site n.     atom                  positions (alat units)
         1           Cd  tau(   1) = (   0.0000000   0.0000000  10.0000000  )
         2           Cd  tau(   2) = (   4.4104339   3.0351261  10.0000000  )
         3           Y   tau(   3) = (   3.2495576   0.0000000  10.0000000  )
         4           Y   tau(   4) = (   1.1608764   3.0351261  10.0000000  )
         5           Cd  tau(   5) = (   6.4991151   4.4724928  12.6731942  )
         6           Cd  tau(   6) = (   2.0886812   1.4373667  12.6731942  )
         7           Y   tau(   7) = (   3.2495576   4.4724928  12.6731942  )
         8           Y   tau(   8) = (   5.3382388   1.4373667  12.6731942  )
         9           Cd  tau(   9) = (   4.2994729   2.9581318  15.3803524  )
        10           Cd  tau(  10) = (   8.7090759   5.9939746  15.3804706  )
        11           Y   tau(  11) = (   7.5419934   2.9545441  15.3132812  )
        12           Y   tau(  12) = (   5.4532745   5.9884291  15.3132674  )

     number of k points=    74  Fermi-Dirac smearing, width (Ry)=  0.0100
                       cart. coord. in units 2pi/alat
        k(    1) = (   0.0000000   0.0000000   0.0000000), wk =   0.0138889
        k(    2) = (   0.0000000   0.0137282   0.0000000), wk =   0.0277778
        k(    3) = (   0.0000000   0.0274563   0.0000000), wk =   0.0277778
        k(    4) = (   0.0000000   0.0411845   0.0000000), wk =   0.0277778
        k(    5) = (   0.0000000   0.0549126   0.0000000), wk =   0.0277778
        k(    6) = (   0.0000000   0.0686408   0.0000000), wk =   0.0277778
        k(    7) = (   0.0000000  -0.0823689   0.0000000), wk =   0.0138889
        k(    8) = (   0.0128223  -0.0049043   0.0000000), wk =   0.0277778
        k(    9) = (   0.0128223   0.0088239   0.0000000), wk =   0.0277778
        k(   10) = (   0.0128223   0.0225520   0.0000000), wk =   0.0277778
        k(   11) = (   0.0128223   0.0362802   0.0000000), wk =   0.0277778
        k(   12) = (   0.0128223   0.0500083   0.0000000), wk =   0.0277778
        k(   13) = (   0.0128223   0.0637365   0.0000000), wk =   0.0277778
        k(   14) = (   0.0128223  -0.0872732   0.0000000), wk =   0.0277778
        k(   15) = (   0.0128223  -0.0735450   0.0000000), wk =   0.0277778
        k(   16) = (   0.0128223  -0.0598169   0.0000000), wk =   0.0277778
        k(   17) = (   0.0128223  -0.0460887   0.0000000), wk =   0.0277778
        k(   18) = (   0.0128223  -0.0323606   0.0000000), wk =   0.0277778
        k(   19) = (   0.0128223  -0.0186324   0.0000000), wk =   0.0277778
        k(   20) = (   0.0256445  -0.0098085   0.0000000), wk =   0.0277778
        k(   21) = (   0.0256445   0.0039196   0.0000000), wk =   0.0277778
        k(   22) = (   0.0256445   0.0176478   0.0000000), wk =   0.0277778
        k(   23) = (   0.0256445   0.0313759   0.0000000), wk =   0.0277778
        k(   24) = (   0.0256445   0.0451041   0.0000000), wk =   0.0277778
        k(   25) = (   0.0256445   0.0588322   0.0000000), wk =   0.0277778
        k(   26) = (   0.0256445  -0.0921774   0.0000000), wk =   0.0277778
        k(   27) = (   0.0256445  -0.0784493   0.0000000), wk =   0.0277778
        k(   28) = (   0.0256445  -0.0647211   0.0000000), wk =   0.0277778
        k(   29) = (   0.0256445  -0.0509930   0.0000000), wk =   0.0277778
        k(   30) = (   0.0256445  -0.0372648   0.0000000), wk =   0.0277778
        k(   31) = (   0.0256445  -0.0235367   0.0000000), wk =   0.0277778
        k(   32) = (   0.0384668  -0.0147128   0.0000000), wk =   0.0277778
        k(   33) = (   0.0384668  -0.0009846   0.0000000), wk =   0.0277778
        k(   34) = (   0.0384668   0.0127435   0.0000000), wk =   0.0277778
        k(   35) = (   0.0384668   0.0264717   0.0000000), wk =   0.0277778
        k(   36) = (   0.0384668   0.0401998   0.0000000), wk =   0.0277778
        k(   37) = (   0.0384668   0.0539280   0.0000000), wk =   0.0277778
        k(   38) = (   0.0384668  -0.0970817   0.0000000), wk =   0.0277778
        k(   39) = (   0.0384668  -0.0833535   0.0000000), wk =   0.0277778
        k(   40) = (   0.0384668  -0.0696254   0.0000000), wk =   0.0277778
        k(   41) = (   0.0384668  -0.0558972   0.0000000), wk =   0.0277778
        k(   42) = (   0.0384668  -0.0421691   0.0000000), wk =   0.0277778
        k(   43) = (   0.0384668  -0.0284409   0.0000000), wk =   0.0277778
        k(   44) = (   0.0512890  -0.0196171   0.0000000), wk =   0.0277778
        k(   45) = (   0.0512890  -0.0058889   0.0000000), wk =   0.0277778
        k(   46) = (   0.0512890   0.0078392   0.0000000), wk =   0.0277778
        k(   47) = (   0.0512890   0.0215674   0.0000000), wk =   0.0277778
        k(   48) = (   0.0512890   0.0352955   0.0000000), wk =   0.0277778
        k(   49) = (   0.0512890   0.0490237   0.0000000), wk =   0.0277778
        k(   50) = (   0.0512890  -0.1019860   0.0000000), wk =   0.0277778
        k(   51) = (   0.0512890  -0.0882578   0.0000000), wk =   0.0277778
        k(   52) = (   0.0512890  -0.0745297   0.0000000), wk =   0.0277778
        k(   53) = (   0.0512890  -0.0608015   0.0000000), wk =   0.0277778
        k(   54) = (   0.0512890  -0.0470734   0.0000000), wk =   0.0277778
        k(   55) = (   0.0512890  -0.0333452   0.0000000), wk =   0.0277778
        k(   56) = (   0.0641113  -0.0245213   0.0000000), wk =   0.0277778
        k(   57) = (   0.0641113  -0.0107932   0.0000000), wk =   0.0277778
        k(   58) = (   0.0641113   0.0029350   0.0000000), wk =   0.0277778
        k(   59) = (   0.0641113   0.0166631   0.0000000), wk =   0.0277778
        k(   60) = (   0.0641113   0.0303913   0.0000000), wk =   0.0277778
        k(   61) = (   0.0641113   0.0441194   0.0000000), wk =   0.0277778
        k(   62) = (   0.0641113  -0.1068902   0.0000000), wk =   0.0277778
        k(   63) = (   0.0641113  -0.0931621   0.0000000), wk =   0.0277778
        k(   64) = (   0.0641113  -0.0794339   0.0000000), wk =   0.0277778
        k(   65) = (   0.0641113  -0.0657058   0.0000000), wk =   0.0277778
        k(   66) = (   0.0641113  -0.0519776   0.0000000), wk =   0.0277778
        k(   67) = (   0.0641113  -0.0382495   0.0000000), wk =   0.0277778
        k(   68) = (  -0.0769336   0.0294256   0.0000000), wk =   0.0138889
        k(   69) = (  -0.0769336   0.0431537   0.0000000), wk =   0.0277778
        k(   70) = (  -0.0769336   0.0568819   0.0000000), wk =   0.0277778
        k(   71) = (  -0.0769336   0.0706100   0.0000000), wk =   0.0277778
        k(   72) = (  -0.0769336   0.0843382   0.0000000), wk =   0.0277778
        k(   73) = (  -0.0769336   0.0980663   0.0000000), wk =   0.0277778
        k(   74) = (  -0.0769336  -0.0529433   0.0000000), wk =   0.0138889

     Initial potential from superposition of free atoms

     starting charge  137.94619, renormalised to  138.00000

     negative rho (up, down):  3.062E-03 0.000E+00

     %%%%%%%%%%%%%%%%%%%%%%%%%%%%%%%%%%%%%%%%%%%%%%%%%%%%%%%%%%%%%%%%%%%%%%%%
     %                                                                      %
     % You are using vdW-DF, which was implemented by the Thonhauser group. %
     % Please cite the following two papers that made this development      %
     % possible and the two reviews that describe the various versions:     %
     %                                                                      %
     %   T. Thonhauser et al., PRL 115, 136402 (2015).                      %
     %   T. Thonhauser et al., PRB 76, 125112 (2007).                       %
     %   K. Berland et al., Rep. Prog. Phys. 78, 066501 (2015).             %
     %   D.C. Langreth et al., J. Phys.: Condens. Matter 21, 084203 (2009). %
     %                                                                      %
     %                                                                      %
     % If you are calculating the stress with vdW-DF, please also cite:     %
     %                                                                      %
     %   R. Sabatini et al., J. Phys.: Condens. Matter 24, 424209 (2012).   %
     %                                                                      %
     %%%%%%%%%%%%%%%%%%%%%%%%%%%%%%%%%%%%%%%%%%%%%%%%%%%%%%%%%%%%%%%%%%%%%%%%

     Adding external electric field

     Computed dipole along edir(3) :
        Dipole                0.0001 Ry au,          0.0001 Debye
        Dipole field          0.0000 Ry au,

        Potential amp.       -0.0000 Ry
        Total length         46.7003 bohr

     Starting wfcs are  132 randomized atomic wfcs

     Self-consistent Calculation

     iteration #  1     ecut=    55.12 Ry     beta= 0.10
     Davidson diagonalization with overlap
     ethr =  1.00E-02,  avg # of iterations =  2.0

[...]

     total energy              =   -1112.12210217 Ry
     estimated scf accuracy    <       1.72618527 Ry

[...]

     iteration #  6     ecut=    55.12 Ry     beta= 0.10
     Davidson diagonalization with overlap
     c_bands:  2 eigenvalues not converged
     c_bands:  1 eigenvalues not converged
     c_bands:  4 eigenvalues not converged
     c_bands:  1 eigenvalues not converged
     c_bands:  2 eigenvalues not converged
     c_bands:  2 eigenvalues not converged
     ethr =  6.06E-05,  avg # of iterations = 13.8

[...]

     iteration # 12     ecut=    55.12 Ry     beta= 0.10
     Davidson diagonalization with overlap
     c_bands:  1 eigenvalues not converged
     c_bands:  1 eigenvalues not converged
     ethr =  9.92E-07,  avg # of iterations =  2.6

[...]

     total energy              =   -1112.17952656 Ry
     estimated scf accuracy    <       0.00004990 Ry

     iteration # 18     ecut=    55.12 Ry     beta= 0.10
     Davidson diagonalization with overlap
     ethr =  2.32E-08,  avg # of iterations =  2.1

[...]

     Adding external electric field

     Computed dipole along edir(3) :
        Dipole               -0.0191 Ry au,         -0.0486 Debye
        Dipole field         -0.0000 Ry au,

        Potential amp.        0.0033 Ry
        Total length         46.7003 bohr

     End of self-consistent calculation

          k = 0.0000 0.0000 0.0000 ( 46759 PWs)   bands (ev):

   -42.9577 -42.9434 -42.9338 -42.9195 -42.6343 -42.6197 -22.9460 -22.9255
   -22.9204 -22.8981 -22.8821 -22.8626 -22.8546 -22.8378 -22.8334 -22.8138
   -22.6681 -22.6623 -22.6481 -22.5638 -22.5350 -22.5316 -22.5121 -22.4382
    -8.0773  -8.0679  -8.0679  -8.0484  -8.0429  -8.0232  -8.0135  -7.9779
    -7.9608  -7.9545  -7.9315  -7.9310  -7.9308  -7.9292  -7.9181  -7.9153
    -7.9119  -7.9010  -7.8990  -7.8768  -7.8714  -7.8620  -7.8584  -7.8524
    -7.8051  -7.7957  -7.7186  -7.7125  -7.6694  -7.6548  -5.3876  -4.1151
    -2.9113  -2.5767  -2.2718  -2.2175  -0.4217  -0.2732  -0.1272   0.2817
     0.4405   0.4530   0.6759   0.7067   0.7563   0.8102   1.2921   1.3396
     1.3735   1.5086   1.5778   1.6494   1.6753   1.7938   2.1898   2.2548
     2.3224   2.8879   2.9609

[...]

          k = 0.0641-0.0382 0.0000 ( 46627 PWs)   bands (ev):

[...]

          k =-0.0769 0.0294 0.0000 ( 46588 PWs)   bands (ev):

[...]

          k =-0.0769-0.0529 0.0000 ( 46532 PWs)   bands (ev):

   -42.9575 -42.9434 -42.9336 -42.9196 -42.6344 -42.6195 -22.9501 -22.9236
   -22.9204 -22.8971 -22.8853 -22.8667 -22.8657 -22.8417 -22.8335 -22.8124
   -22.6688 -22.6637 -22.6487 -22.5557 -22.5394 -22.5391 -22.5139 -22.4398
    -8.0295  -8.0172  -8.0035  -7.9985  -7.9923  -7.9748  -7.9684  -7.9619
    -7.9556  -7.9307  -7.9263  -7.9025  -7.8994  -7.8984  -7.8842  -7.8831
    -7.8751  -7.8645  -7.8613  -7.8547  -7.8498  -7.8451  -7.8403  -7.8340
    -7.8193  -7.7906  -7.7754  -7.7183  -7.7052  -7.6438  -3.9359  -3.8590
    -2.9727  -2.7560  -2.1283  -2.1016  -1.8864  -1.0589  -0.6875  -0.6008
    -0.5364  -0.5269  -0.5205   0.2582   0.3352   0.6635   0.9311   0.9820
     1.3667   1.3711   1.7279   1.7963   1.9750   2.1506   2.1689   2.3849
     2.4515   2.5053   2.5662

     the Fermi energy is     0.8266 ev

!    total energy              =   -1112.17952549 Ry
     estimated scf accuracy    <       0.00000761 Ry
     smearing contrib. (-TS)   =      -0.06377942 Ry
     internal energy E=F+TS    =   -1112.11574607 Ry

     The total energy is F=E-TS. E is the sum of the following terms:
     one-electron contribution =   -6823.36869531 Ry
     hartree contribution      =    3447.94482386 Ry
     xc contribution           =    -253.41735347 Ry
     ewald contribution        =    2516.72547817 Ry
     electric field correction =       0.00000068 Ry

     convergence has been achieved in  18 iterations

     negative rho (up, down):  2.690E-03 0.000E+00

     Forces acting on atoms (cartesian axes, Ry/au):

     atom    1 type  1   force =     0.00023955    0.00014567   -0.00198637
     atom    2 type  1   force =     0.00024146    0.00017793   -0.00198129
     atom    3 type  2   force =    -0.00244217   -0.00169389    0.00460126
     atom    4 type  2   force =    -0.00243739   -0.00167209    0.00460163
     atom    5 type  1   force =    -0.00040275   -0.00024989   -0.00246172
     atom    6 type  1   force =    -0.00037726   -0.00026080   -0.00240269
     atom    7 type  2   force =     0.00231920    0.00159398    0.00132669
     atom    8 type  2   force =     0.00230815    0.00158785    0.00132779
     atom    9 type  1   force =    -0.00051137   -0.00035117    0.00025342
     atom   10 type  1   force =    -0.00043187   -0.00029715    0.00024291
     atom   11 type  2   force =     0.00079020    0.00043069   -0.00176102
     atom   12 type  2   force =     0.00070425    0.00058887   -0.00176061

     Total force =     0.010400     Total SCF correction =     0.015350
     SCF correction compared to forces is large: reduce conv_thr to get better values

     Writing output data file ./Cd2Y2/Cd2Y2_beef.save/

     General routines

     Parallel routines

   This run was terminated on:  15:17:57  10Jul2022

   JOB DONE.