     Program PWSCF v.6.6 starts on 26Jun2022 at 14:47: 6

     R & G space division:  proc/nbgrp/npool/nimage =      37
     Fft bands division:     nmany     =       1
     Reading input from Co2Ag2.in
Warning: card &CELL ignored
Warning: card / ignored

     Current dimensions of program PWSCF are:
     Max number of different atomic species (ntypx) = 10
     Max number of k-points (npk) =  40000
     Max angular momentum in pseudopotentials (lmaxx) =  3
     Presently stress not available with electric field and gates

     Message from routine cell_base_init:
     DEPRECATED: use true lattice parameter, not A to a.u. conversion factor
     file Co.pbe-spn-rrkjus_psl.0.3.1.UPF: wavefunction(s)  3P renormalized

     IMPORTANT: XC functional enforced from input :
     Exchange-correlation= BEEF-VDW
                           (   1   4  43  14   2   0   0)
     Any further DFT definition will be discarded
     Please, verify this is what you really want

     Subspace diagonalization in iterative solution of the eigenvalue problem:
     a serial algorithm will be used

     bravais-lattice index     =            0
     lattice parameter (alat)  =       1.8897  a.u.
     unit-cell volume          =    4394.5709 (a.u.)^3
     number of atoms/cell      =           12
     number of atomic types    =            2
     number of electrons       =       168.00
     number of Kohn-Sham states=          101
     kinetic-energy cutoff     =      55.1240  Ry
     charge density cutoff     =     551.2396  Ry
     convergence threshold     =      1.0E-05
     mixing beta               =       0.1000
     number of iterations used =           10  plain     mixing
     Exchange-correlation= BEEF-VDW
                           (   1   4  43  14   2   0   0)

     celldm(1)=   1.889726  celldm(2)=   0.000000  celldm(3)=   0.000000
     celldm(4)=   0.000000  celldm(5)=   0.000000  celldm(6)=   0.000000

     crystal axes: (cart. coord. in units of alat)
               a(1) = (   5.396886   0.000000   0.000000 )
               a(2) = (  -2.698443   4.922308   0.000000 )
               a(3) = (   0.000000   0.000000  24.513647 )

     reciprocal axes: (cart. coord. in units 2 pi/alat)
               b(1) = (  0.185292  0.101578 -0.000000 )
               b(2) = (  0.000000  0.203157  0.000000 )
               b(3) = (  0.000000 -0.000000  0.040794 )

     PseudoPot. # 1 for Co read from file:
     ../pseudo/Co.pbe-spn-rrkjus_psl.0.3.1.UPF
     MD5 check sum: 99b21b1f85602741a4c0ed67614a7280
     Pseudo is Ultrasoft + core correction, Zval = 17.0
     Generated using "atomic" code by A. Dal Corso v.6.2.2
     Using radial grid of 1193 points,  6 beta functions with:
                l(1) =   0
                l(2) =   0
                l(3) =   1
                l(4) =   1
                l(5) =   2
                l(6) =   2
     Q(r) pseudized with 0 coefficients

     PseudoPot. # 2 for Ag read from file:
     ../pseudo/Ag.pbe-n-rrkjus_psl.1.0.0.UPF
     MD5 check sum: d841cbfac2b0861aec33b46768a516bf
     Pseudo is Ultrasoft + core correction, Zval = 11.0
     Generated using "atomic" code by A. Dal Corso v.6.2.2
     Using radial grid of 1237 points,  6 beta functions with:
                l(1) =   0
                l(2) =   0
                l(3) =   1
                l(4) =   1
                l(5) =   2
                l(6) =   2
     Q(r) pseudized with 0 coefficients

     atomic species   valence    mass     pseudopotential
        Co            17.00    58.93319     Co( 1.00)
        Ag            11.00   107.86820     Ag( 1.00)

     Starting magnetic structure
     atomic species   magnetization
        Co           1.000
        Ag           0.000

     No symmetry found

   Cartesian axes

     site n.     atom                  positions (alat units)
         1           Co  tau(   1) = (   0.0000000   0.0000000  10.0000000  )
         2           Co  tau(   2) = (   2.6984431   0.0000000  10.0000000  )
         3           Ag  tau(   3) = (   1.3492215   2.4611538  10.0000000  )
         4           Ag  tau(   4) = (  -1.3492215   2.4611538  10.0000000  )
         5           Co  tau(   5) = (   2.6984431   1.4793052  12.2568233  )
         6           Co  tau(   6) = (  -0.0000000   1.4793052  12.2568233  )
         7           Ag  tau(   7) = (  -1.3492215   3.9404590  12.2568233  )
         8           Ag  tau(   8) = (   1.3492215   3.9404590  12.2568233  )
         9           Co  tau(   9) = (   0.0000963   2.6202626  14.2612330  )
        10           Co  tau(  10) = (   2.6985428   2.6201224  14.2611415  )
        11           Ag  tau(  11) = (   4.0473750   0.2702824  14.7311116  )
        12           Ag  tau(  12) = (   1.3500779   0.2702843  14.7311085  )

     number of k points=    74  Fermi-Dirac smearing, width (Ry)=  0.0100
                       cart. coord. in units 2pi/alat
        k(    1) = (   0.0000000   0.0000000   0.0000000), wk =   0.0069444
        k(    2) = (   0.0000000   0.0169297   0.0000000), wk =   0.0138889
        k(    3) = (   0.0000000   0.0338595   0.0000000), wk =   0.0138889
        k(    4) = (   0.0000000   0.0507892   0.0000000), wk =   0.0138889
        k(    5) = (   0.0000000   0.0677189   0.0000000), wk =   0.0138889
        k(    6) = (   0.0000000   0.0846486   0.0000000), wk =   0.0138889
        k(    7) = (   0.0000000  -0.1015784   0.0000000), wk =   0.0069444
        k(    8) = (   0.0154410   0.0084649   0.0000000), wk =   0.0138889
        k(    9) = (   0.0154410   0.0253946   0.0000000), wk =   0.0138889
        k(   10) = (   0.0154410   0.0423243   0.0000000), wk =   0.0138889
        k(   11) = (   0.0154410   0.0592540   0.0000000), wk =   0.0138889
        k(   12) = (   0.0154410   0.0761838   0.0000000), wk =   0.0138889
        k(   13) = (   0.0154410   0.0931135   0.0000000), wk =   0.0138889
        k(   14) = (   0.0154410  -0.0931135   0.0000000), wk =   0.0138889
        k(   15) = (   0.0154410  -0.0761838   0.0000000), wk =   0.0138889
        k(   16) = (   0.0154410  -0.0592540   0.0000000), wk =   0.0138889
        k(   17) = (   0.0154410  -0.0423243   0.0000000), wk =   0.0138889
        k(   18) = (   0.0154410  -0.0253946   0.0000000), wk =   0.0138889
        k(   19) = (   0.0154410  -0.0084649   0.0000000), wk =   0.0138889
        k(   20) = (   0.0308820   0.0169297   0.0000000), wk =   0.0138889
        k(   21) = (   0.0308820   0.0338595   0.0000000), wk =   0.0138889
        k(   22) = (   0.0308820   0.0507892   0.0000000), wk =   0.0138889
        k(   23) = (   0.0308820   0.0677189   0.0000000), wk =   0.0138889
        k(   24) = (   0.0308820   0.0846486   0.0000000), wk =   0.0138889
        k(   25) = (   0.0308820   0.1015784   0.0000000), wk =   0.0138889
        k(   26) = (   0.0308820  -0.0846486   0.0000000), wk =   0.0138889
        k(   27) = (   0.0308820  -0.0677189   0.0000000), wk =   0.0138889
        k(   28) = (   0.0308820  -0.0507892   0.0000000), wk =   0.0138889
        k(   29) = (   0.0308820  -0.0338595   0.0000000), wk =   0.0138889
        k(   30) = (   0.0308820  -0.0169297   0.0000000), wk =   0.0138889
        k(   31) = (   0.0308820  -0.0000000   0.0000000), wk =   0.0138889
        k(   32) = (   0.0463230   0.0253946   0.0000000), wk =   0.0138889
        k(   33) = (   0.0463230   0.0423243   0.0000000), wk =   0.0138889
        k(   34) = (   0.0463230   0.0592540   0.0000000), wk =   0.0138889
        k(   35) = (   0.0463230   0.0761838   0.0000000), wk =   0.0138889
        k(   36) = (   0.0463230   0.0931135   0.0000000), wk =   0.0138889
        k(   37) = (   0.0463230   0.1100432   0.0000000), wk =   0.0138889
        k(   38) = (   0.0463230  -0.0761838   0.0000000), wk =   0.0138889
        k(   39) = (   0.0463230  -0.0592540   0.0000000), wk =   0.0138889
        k(   40) = (   0.0463230  -0.0423243   0.0000000), wk =   0.0138889
        k(   41) = (   0.0463230  -0.0253946   0.0000000), wk =   0.0138889
        k(   42) = (   0.0463230  -0.0084649   0.0000000), wk =   0.0138889
        k(   43) = (   0.0463230   0.0084649   0.0000000), wk =   0.0138889
        k(   44) = (   0.0617640   0.0338595   0.0000000), wk =   0.0138889
        k(   45) = (   0.0617640   0.0507892   0.0000000), wk =   0.0138889
        k(   46) = (   0.0617640   0.0677189   0.0000000), wk =   0.0138889
        k(   47) = (   0.0617640   0.0846486   0.0000000), wk =   0.0138889
        k(   48) = (   0.0617640   0.1015784   0.0000000), wk =   0.0138889
        k(   49) = (   0.0617640   0.1185081   0.0000000), wk =   0.0138889
        k(   50) = (   0.0617640  -0.0677189   0.0000000), wk =   0.0138889
        k(   51) = (   0.0617640  -0.0507892   0.0000000), wk =   0.0138889
        k(   52) = (   0.0617640  -0.0338595   0.0000000), wk =   0.0138889
        k(   53) = (   0.0617640  -0.0169297   0.0000000), wk =   0.0138889
        k(   54) = (   0.0617640   0.0000000   0.0000000), wk =   0.0138889
        k(   55) = (   0.0617640   0.0169297   0.0000000), wk =   0.0138889
        k(   56) = (   0.0772050   0.0423243   0.0000000), wk =   0.0138889
        k(   57) = (   0.0772050   0.0592540   0.0000000), wk =   0.0138889
        k(   58) = (   0.0772050   0.0761838   0.0000000), wk =   0.0138889
        k(   59) = (   0.0772050   0.0931135   0.0000000), wk =   0.0138889
        k(   60) = (   0.0772050   0.1100432   0.0000000), wk =   0.0138889
        k(   61) = (   0.0772050   0.1269730   0.0000000), wk =   0.0138889
        k(   62) = (   0.0772050  -0.0592540   0.0000000), wk =   0.0138889
        k(   63) = (   0.0772050  -0.0423243   0.0000000), wk =   0.0138889
        k(   64) = (   0.0772050  -0.0253946   0.0000000), wk =   0.0138889
        k(   65) = (   0.0772050  -0.0084649   0.0000000), wk =   0.0138889
        k(   66) = (   0.0772050   0.0084649   0.0000000), wk =   0.0138889
        k(   67) = (   0.0772050   0.0253946   0.0000000), wk =   0.0138889
        k(   68) = (  -0.0926460  -0.0507892   0.0000000), wk =   0.0069444
        k(   69) = (  -0.0926460  -0.0338595   0.0000000), wk =   0.0138889
        k(   70) = (  -0.0926460  -0.0169297   0.0000000), wk =   0.0138889
        k(   71) = (  -0.0926460   0.0000000   0.0000000), wk =   0.0138889
        k(   72) = (  -0.0926460   0.0169297   0.0000000), wk =   0.0138889
        k(   73) = (  -0.0926460   0.0338595   0.0000000), wk =   0.0138889
        k(   74) = (  -0.0926460  -0.1523675   0.0000000), wk =   0.0069444

     Check: negative core charge=   -0.000005
     Generating pointlists ...
     new r_m :   0.9513 (alat units)  1.7977 (a.u.) for type    1
     new r_m :   1.1126 (alat units)  2.1026 (a.u.) for type    2

     Initial potential from superposition of free atoms

     starting charge  167.99590, renormalised to  168.00000

     %%%%%%%%%%%%%%%%%%%%%%%%%%%%%%%%%%%%%%%%%%%%%%%%%%%%%%%%%%%%%%%%%%%%%%%%
     %                                                                      %
     % You are using vdW-DF, which was implemented by the Thonhauser group. %
     % Please cite the following two papers that made this development      %
     % possible and the two reviews that describe the various versions:     %
     %                                                                      %
     %   T. Thonhauser et al., PRL 115, 136402 (2015).                      %
     %   T. Thonhauser et al., PRB 76, 125112 (2007).                       %
     %   K. Berland et al., Rep. Prog. Phys. 78, 066501 (2015).             %
     %   D.C. Langreth et al., J. Phys.: Condens. Matter 21, 084203 (2009). %
     %                                                                      %
     %                                                                      %
     % If you are calculating the stress with vdW-DF, please also cite:     %
     %                                                                      %
     %   R. Sabatini et al., J. Phys.: Condens. Matter 24, 424209 (2012).   %
     %                                                                      %
     %%%%%%%%%%%%%%%%%%%%%%%%%%%%%%%%%%%%%%%%%%%%%%%%%%%%%%%%%%%%%%%%%%%%%%%%

     Adding external electric field

     Computed dipole along edir(3) :
        Dipole                0.0002 Ry au,          0.0006 Debye
        Dipole field          0.0000 Ry au,

        Potential amp.       -0.0001 Ry
        Total length         45.1660 bohr

[...]

     Starting wfcs are  114 randomized atomic wfcs

     Self-consistent Calculation

     iteration #  1     ecut=    55.12 Ry     beta= 0.10
     Davidson diagonalization with overlap
     ethr =  1.00E-02,  avg # of iterations =  9.7

[...]

     total energy              =   -2242.92303580 Ry
     estimated scf accuracy    <      40.51857577 Ry

     total magnetization       =    32.49 Bohr mag/cell
     absolute magnetization    =    34.24 Bohr mag/cell

[...]

     iteration # 30     ecut=    55.12 Ry     beta= 0.10
     Davidson diagonalization with overlap
     c_bands:  1 eigenvalues not converged
     c_bands:  1 eigenvalues not converged
     c_bands:  1 eigenvalues not converged
     c_bands:  2 eigenvalues not converged
     c_bands:  1 eigenvalues not converged
     c_bands:  1 eigenvalues not converged
     c_bands:  1 eigenvalues not converged
     c_bands:  1 eigenvalues not converged
     c_bands:  1 eigenvalues not converged
     c_bands:  1 eigenvalues not converged
     c_bands:  1 eigenvalues not converged
     c_bands:  1 eigenvalues not converged
     c_bands:  1 eigenvalues not converged
     c_bands:  1 eigenvalues not converged
     c_bands:  1 eigenvalues not converged
     ethr =  3.37E-05,  avg # of iterations = 11.3

[...]

     iteration # 44     ecut=    55.12 Ry     beta= 0.10
     Davidson diagonalization with overlap
     c_bands:  1 eigenvalues not converged
     ethr =  2.75E-08,  avg # of iterations =  4.3

[...]

     total energy              =   -2266.96467997 Ry
     estimated scf accuracy    <       0.00001129 Ry

[...]

     iteration # 47     ecut=    55.12 Ry     beta= 0.10
     Davidson diagonalization with overlap
     ethr =  6.72E-09,  avg # of iterations =  4.7

[...]

     Adding external electric field

     Computed dipole along edir(3) :
        Dipole               -0.0026 Ry au,         -0.0067 Debye
        Dipole field         -0.0000 Ry au,

        Potential amp.        0.0007 Ry
        Total length         45.1660 bohr

     Magnetic moment per site:
     atom:    1    charge:   15.0596    magn:    1.9427    constr:    0.0000
     atom:    2    charge:   15.0597    magn:    1.9427    constr:    0.0000
     atom:    3    charge:    9.3444    magn:    0.0044    constr:    0.0000
     atom:    4    charge:    9.3444    magn:    0.0044    constr:    0.0000
     atom:    5    charge:   15.0927    magn:    1.9292    constr:    0.0000
     atom:    6    charge:   15.0922    magn:    1.9297    constr:    0.0000
     atom:    7    charge:    9.3806    magn:    0.0041    constr:    0.0000
     atom:    8    charge:    9.3806    magn:    0.0041    constr:    0.0000
     atom:    9    charge:   15.0930    magn:    1.9148    constr:    0.0000
     atom:   10    charge:   15.0926    magn:    1.9160    constr:    0.0000
     atom:   11    charge:    9.3224    magn:   -0.0049    constr:    0.0000
     atom:   12    charge:    9.3224    magn:   -0.0049    constr:    0.0000

     End of self-consistent calculation

     Number of k-points >= 100: set verbosity='high' to print the bands.

     the Fermi energy is     0.3489 ev

!    total energy              =   -2266.03559389 Ry
     estimated scf accuracy    <       0.00000748 Ry
     smearing contrib. (-TS)   =      -0.06672435 Ry
     internal energy E=F+TS    =   -2265.96886954 Ry

     The total energy is F=E-TS. E is the sum of the following terms:
     one-electron contribution =  -16899.46325877 Ry
     hartree contribution      =    8493.64783878 Ry
     xc contribution           =    -330.20521861 Ry
     ewald contribution        =    6470.05176903 Ry
     electric field correction =       0.00000002 Ry

     total magnetization       =    11.11 Bohr mag/cell
     absolute magnetization    =    12.95 Bohr mag/cell

     convergence has been achieved in  47 iterations

     Forces acting on atoms (cartesian axes, Ry/au):

     atom    1 type  1   force =     0.00001327    0.01393479    0.02225439
     atom    2 type  1   force =    -0.00001062    0.01411145    0.02233879
     atom    3 type  2   force =     0.00005335   -0.01570375   -0.02628574
     atom    4 type  2   force =    -0.00005743   -0.01570386   -0.02628128
     atom    5 type  1   force =     0.00002207   -0.01177372    0.00015647
     atom    6 type  1   force =    -0.00000913   -0.01183280    0.00032506
     atom    7 type  2   force =    -0.00008627    0.01339628    0.00350886
     atom    8 type  2   force =     0.00008384    0.01339842    0.00350956
     atom    9 type  1   force =     0.00001607    0.00034953   -0.00043323
     atom   10 type  1   force =    -0.00000573    0.00048214   -0.00029643
     atom   11 type  2   force =     0.00034225   -0.00033184    0.00060243
     atom   12 type  2   force =    -0.00036166   -0.00032663    0.00060113

     Total force =     0.062663     Total SCF correction =     0.007263
     SCF correction compared to forces is large: reduce conv_thr to get better values

     Writing output data file ./Co2Ag2/Co2Ag2_beef.save/

     General routines

     Parallel routines

   This run was terminated on:  20:10: 8  26Jun2022

   JOB DONE.