     Program PWSCF v.6.6 starts on 26Jun2022 at 20:10:11

     R & G space division:  proc/nbgrp/npool/nimage =      37
     Fft bands division:     nmany     =       1
     Reading input from Co2Au2.in
Warning: card &CELL ignored
Warning: card / ignored

     Current dimensions of program PWSCF are:
     Max number of different atomic species (ntypx) = 10
     Max number of k-points (npk) =  40000
     Max angular momentum in pseudopotentials (lmaxx) =  3
     Presently stress not available with electric field and gates

     Message from routine cell_base_init:
     DEPRECATED: use true lattice parameter, not A to a.u. conversion factor
     file Co.pbe-spn-rrkjus_psl.0.3.1.UPF: wavefunction(s)  3P renormalized

     IMPORTANT: XC functional enforced from input :
     Exchange-correlation= BEEF-VDW
                           (   1   4  43  14   2   0   0)
     Any further DFT definition will be discarded
     Please, verify this is what you really want

     Subspace diagonalization in iterative solution of the eigenvalue problem:
     a serial algorithm will be used

     bravais-lattice index     =            0
     lattice parameter (alat)  =       1.8897  a.u.
     unit-cell volume          =    4378.5638 (a.u.)^3
     number of atoms/cell      =           12
     number of atomic types    =            2
     number of electrons       =       168.00
     number of Kohn-Sham states=          101
     kinetic-energy cutoff     =      55.1240  Ry
     charge density cutoff     =     551.2396  Ry
     convergence threshold     =      1.0E-05
     mixing beta               =       0.1000
     number of iterations used =           10  plain     mixing
     Exchange-correlation= BEEF-VDW
                           (   1   4  43  14   2   0   0)

     celldm(1)=   1.889726  celldm(2)=   0.000000  celldm(3)=   0.000000
     celldm(4)=   0.000000  celldm(5)=   0.000000  celldm(6)=   0.000000

     crystal axes: (cart. coord. in units of alat)
               a(1) = (   5.499664   0.000000   0.000000 )
               a(2) = (   2.661146   4.812962   0.000000 )
               a(3) = (   0.000000   0.000000  24.512442 )

     reciprocal axes: (cart. coord. in units 2 pi/alat)
               b(1) = (  0.181829 -0.100536  0.000000 )
               b(2) = (  0.000000  0.207772  0.000000 )
               b(3) = (  0.000000  0.000000  0.040796 )

     PseudoPot. # 1 for Co read from file:
     ../pseudo/Co.pbe-spn-rrkjus_psl.0.3.1.UPF
     MD5 check sum: 99b21b1f85602741a4c0ed67614a7280
     Pseudo is Ultrasoft + core correction, Zval = 17.0
     Generated using "atomic" code by A. Dal Corso v.6.2.2
     Using radial grid of 1193 points,  6 beta functions with:
                l(1) =   0
                l(2) =   0
                l(3) =   1
                l(4) =   1
                l(5) =   2
                l(6) =   2
     Q(r) pseudized with 0 coefficients

     PseudoPot. # 2 for Au read from file:
     ../pseudo/Au.pbe-n-rrkjus_psl.1.0.0.UPF
     MD5 check sum: d7e77ba19504afed2c9b41c931dde4f0
     Pseudo is Ultrasoft + core correction, Zval = 11.0
     Generated using "atomic" code by A. Dal Corso v.6.3
     Using radial grid of 1279 points,  6 beta functions with:
                l(1) =   0
                l(2) =   0
                l(3) =   1
                l(4) =   1
                l(5) =   2
                l(6) =   2
     Q(r) pseudized with 0 coefficients

     atomic species   valence    mass     pseudopotential
        Co            17.00    58.93319     Co( 1.00)
        Au            11.00   196.96657     Au( 1.00)

     Starting magnetic structure
     atomic species   magnetization
        Co           1.000
        Au           0.000

     No symmetry found

   Cartesian axes

     site n.     atom                  positions (alat units)
         1           Co  tau(   1) = (   0.0000000   0.0000000  10.0000000  )
         2           Co  tau(   2) = (   4.0804049   2.4064811  10.0000000  )
         3           Au  tau(   3) = (   2.7498320   0.0000000  10.0000000  )
         4           Au  tau(   4) = (   1.3305730   2.4064811  10.0000000  )
         5           Co  tau(   5) = (   5.4996639   3.2435108  12.2562209  )
         6           Co  tau(   6) = (   1.4192590   0.8370297  12.2562209  )
         7           Au  tau(   7) = (   2.7498320   3.2435108  12.2562209  )
         8           Au  tau(   8) = (   4.1690909   0.8370297  12.2562209  )
         9           Co  tau(   9) = (   2.6199356   1.5451477  14.3286099  )
        10           Co  tau(  10) = (   6.7005912   3.9517736  14.3290228  )
        11           Au  tau(  11) = (   5.4561510   1.5961856  14.6623493  )
        12           Au  tau(  12) = (   4.0369791   4.0025317  14.6623434  )

     number of k points=    74  Fermi-Dirac smearing, width (Ry)=  0.0100
                       cart. coord. in units 2pi/alat
        k(    1) = (   0.0000000   0.0000000   0.0000000), wk =   0.0069444
        k(    2) = (   0.0000000   0.0173144   0.0000000), wk =   0.0138889
        k(    3) = (   0.0000000   0.0346287   0.0000000), wk =   0.0138889
        k(    4) = (   0.0000000   0.0519431   0.0000000), wk =   0.0138889
        k(    5) = (   0.0000000   0.0692574   0.0000000), wk =   0.0138889
        k(    6) = (   0.0000000   0.0865718   0.0000000), wk =   0.0138889
        k(    7) = (   0.0000000  -0.1038861   0.0000000), wk =   0.0069444
        k(    8) = (   0.0151524  -0.0083780   0.0000000), wk =   0.0138889
        k(    9) = (   0.0151524   0.0089364   0.0000000), wk =   0.0138889
        k(   10) = (   0.0151524   0.0262507   0.0000000), wk =   0.0138889
        k(   11) = (   0.0151524   0.0435651   0.0000000), wk =   0.0138889
        k(   12) = (   0.0151524   0.0608794   0.0000000), wk =   0.0138889
        k(   13) = (   0.0151524   0.0781938   0.0000000), wk =   0.0138889
        k(   14) = (   0.0151524  -0.1122641   0.0000000), wk =   0.0138889
        k(   15) = (   0.0151524  -0.0949497   0.0000000), wk =   0.0138889
        k(   16) = (   0.0151524  -0.0776354   0.0000000), wk =   0.0138889
        k(   17) = (   0.0151524  -0.0603210   0.0000000), wk =   0.0138889
        k(   18) = (   0.0151524  -0.0430067   0.0000000), wk =   0.0138889
        k(   19) = (   0.0151524  -0.0256923   0.0000000), wk =   0.0138889
        k(   20) = (   0.0303049  -0.0167559   0.0000000), wk =   0.0138889
        k(   21) = (   0.0303049   0.0005584   0.0000000), wk =   0.0138889
        k(   22) = (   0.0303049   0.0178728   0.0000000), wk =   0.0138889
        k(   23) = (   0.0303049   0.0351871   0.0000000), wk =   0.0138889
        k(   24) = (   0.0303049   0.0525015   0.0000000), wk =   0.0138889
        k(   25) = (   0.0303049   0.0698158   0.0000000), wk =   0.0138889
        k(   26) = (   0.0303049  -0.1206421   0.0000000), wk =   0.0138889
        k(   27) = (   0.0303049  -0.1033277   0.0000000), wk =   0.0138889
        k(   28) = (   0.0303049  -0.0860134   0.0000000), wk =   0.0138889
        k(   29) = (   0.0303049  -0.0686990   0.0000000), wk =   0.0138889
        k(   30) = (   0.0303049  -0.0513847   0.0000000), wk =   0.0138889
        k(   31) = (   0.0303049  -0.0340703   0.0000000), wk =   0.0138889
        k(   32) = (   0.0454573  -0.0251339   0.0000000), wk =   0.0138889
        k(   33) = (   0.0454573  -0.0078196   0.0000000), wk =   0.0138889
        k(   34) = (   0.0454573   0.0094948   0.0000000), wk =   0.0138889
        k(   35) = (   0.0454573   0.0268092   0.0000000), wk =   0.0138889
        k(   36) = (   0.0454573   0.0441235   0.0000000), wk =   0.0138889
        k(   37) = (   0.0454573   0.0614379   0.0000000), wk =   0.0138889
        k(   38) = (   0.0454573  -0.1290200   0.0000000), wk =   0.0138889
        k(   39) = (   0.0454573  -0.1117057   0.0000000), wk =   0.0138889
        k(   40) = (   0.0454573  -0.0943913   0.0000000), wk =   0.0138889
        k(   41) = (   0.0454573  -0.0770770   0.0000000), wk =   0.0138889
        k(   42) = (   0.0454573  -0.0597626   0.0000000), wk =   0.0138889
        k(   43) = (   0.0454573  -0.0424483   0.0000000), wk =   0.0138889
        k(   44) = (   0.0606098  -0.0335119   0.0000000), wk =   0.0138889
        k(   45) = (   0.0606098  -0.0161975   0.0000000), wk =   0.0138889
        k(   46) = (   0.0606098   0.0011168   0.0000000), wk =   0.0138889
        k(   47) = (   0.0606098   0.0184312   0.0000000), wk =   0.0138889
        k(   48) = (   0.0606098   0.0357455   0.0000000), wk =   0.0138889
        k(   49) = (   0.0606098   0.0530599   0.0000000), wk =   0.0138889
        k(   50) = (   0.0606098  -0.1373980   0.0000000), wk =   0.0138889
        k(   51) = (   0.0606098  -0.1200837   0.0000000), wk =   0.0138889
        k(   52) = (   0.0606098  -0.1027693   0.0000000), wk =   0.0138889
        k(   53) = (   0.0606098  -0.0854550   0.0000000), wk =   0.0138889
        k(   54) = (   0.0606098  -0.0681406   0.0000000), wk =   0.0138889
        k(   55) = (   0.0606098  -0.0508262   0.0000000), wk =   0.0138889
        k(   56) = (   0.0757622  -0.0418899   0.0000000), wk =   0.0138889
        k(   57) = (   0.0757622  -0.0245755   0.0000000), wk =   0.0138889
        k(   58) = (   0.0757622  -0.0072611   0.0000000), wk =   0.0138889
        k(   59) = (   0.0757622   0.0100532   0.0000000), wk =   0.0138889
        k(   60) = (   0.0757622   0.0273676   0.0000000), wk =   0.0138889
        k(   61) = (   0.0757622   0.0446819   0.0000000), wk =   0.0138889
        k(   62) = (   0.0757622  -0.1457760   0.0000000), wk =   0.0138889
        k(   63) = (   0.0757622  -0.1284616   0.0000000), wk =   0.0138889
        k(   64) = (   0.0757622  -0.1111473   0.0000000), wk =   0.0138889
        k(   65) = (   0.0757622  -0.0938329   0.0000000), wk =   0.0138889
        k(   66) = (   0.0757622  -0.0765186   0.0000000), wk =   0.0138889
        k(   67) = (   0.0757622  -0.0592042   0.0000000), wk =   0.0138889
        k(   68) = (  -0.0909146   0.0502678   0.0000000), wk =   0.0069444
        k(   69) = (  -0.0909146   0.0675822   0.0000000), wk =   0.0138889
        k(   70) = (  -0.0909146   0.0848965   0.0000000), wk =   0.0138889
        k(   71) = (  -0.0909146   0.1022109   0.0000000), wk =   0.0138889
        k(   72) = (  -0.0909146   0.1195252   0.0000000), wk =   0.0138889
        k(   73) = (  -0.0909146   0.1368396   0.0000000), wk =   0.0138889
        k(   74) = (  -0.0909146  -0.0536183   0.0000000), wk =   0.0069444

     Check: negative core charge=   -0.000005
     Generating pointlists ...
     new r_m :   1.0302 (alat units)  1.9469 (a.u.) for type    1
     new r_m :   1.1066 (alat units)  2.0911 (a.u.) for type    2

     Initial potential from superposition of free atoms

     starting charge  167.99764, renormalised to  168.00000

     %%%%%%%%%%%%%%%%%%%%%%%%%%%%%%%%%%%%%%%%%%%%%%%%%%%%%%%%%%%%%%%%%%%%%%%%
     %                                                                      %
     % You are using vdW-DF, which was implemented by the Thonhauser group. %
     % Please cite the following two papers that made this development      %
     % possible and the two reviews that describe the various versions:     %
     %                                                                      %
     %   T. Thonhauser et al., PRL 115, 136402 (2015).                      %
     %   T. Thonhauser et al., PRB 76, 125112 (2007).                       %
     %   K. Berland et al., Rep. Prog. Phys. 78, 066501 (2015).             %
     %   D.C. Langreth et al., J. Phys.: Condens. Matter 21, 084203 (2009). %
     %                                                                      %
     %                                                                      %
     % If you are calculating the stress with vdW-DF, please also cite:     %
     %                                                                      %
     %   R. Sabatini et al., J. Phys.: Condens. Matter 24, 424209 (2012).   %
     %                                                                      %
     %%%%%%%%%%%%%%%%%%%%%%%%%%%%%%%%%%%%%%%%%%%%%%%%%%%%%%%%%%%%%%%%%%%%%%%%

     Adding external electric field

     Computed dipole along edir(3) :
        Dipole               -0.0001 Ry au,         -0.0001 Debye
        Dipole field         -0.0000 Ry au,

        Potential amp.        0.0000 Ry
        Total length         45.1638 bohr

[...]

     Starting wfcs are  114 randomized atomic wfcs

     Self-consistent Calculation

     iteration #  1     ecut=    55.12 Ry     beta= 0.10
     Davidson diagonalization with overlap
     ethr =  1.00E-02,  avg # of iterations =  9.6

[...]

     total energy              =   -2252.23496581 Ry
     estimated scf accuracy    <      39.10624280 Ry

     total magnetization       =    31.95 Bohr mag/cell
     absolute magnetization    =    33.75 Bohr mag/cell

[...]

     iteration # 23     ecut=    55.12 Ry     beta= 0.10
     Davidson diagonalization with overlap
     c_bands:  2 eigenvalues not converged
     ethr =  1.80E-04,  avg # of iterations =  4.4

[...]

     iteration # 32     ecut=    55.12 Ry     beta= 0.10
     Davidson diagonalization with overlap
     c_bands:  1 eigenvalues not converged
     c_bands:  1 eigenvalues not converged
     ethr =  8.37E-07,  avg # of iterations =  6.0

[...]

     total energy              =   -2275.71559173 Ry
     estimated scf accuracy    <       0.00001710 Ry

[...]

     iteration # 43     ecut=    55.12 Ry     beta= 0.10
     Davidson diagonalization with overlap
     ethr =  9.72E-09,  avg # of iterations =  1.8

[...]

     Adding external electric field

     Computed dipole along edir(3) :
        Dipole               -0.0555 Ry au,         -0.1410 Debye
        Dipole field         -0.0002 Ry au,

        Potential amp.        0.0144 Ry
        Total length         45.1638 bohr

     Magnetic moment per site:
     atom:    1    charge:   15.3992    magn:    2.0026    constr:    0.0000
     atom:    2    charge:   15.3996    magn:    2.0019    constr:    0.0000
     atom:    3    charge:    8.8433    magn:    0.0567    constr:    0.0000
     atom:    4    charge:    8.8433    magn:    0.0567    constr:    0.0000
     atom:    5    charge:   15.4434    magn:    1.9904    constr:    0.0000
     atom:    6    charge:   15.4420    magn:    1.9918    constr:    0.0000
     atom:    7    charge:    8.8828    magn:    0.0551    constr:    0.0000
     atom:    8    charge:    8.8828    magn:    0.0551    constr:    0.0000
     atom:    9    charge:   15.4295    magn:    1.9928    constr:    0.0000
     atom:   10    charge:   15.4301    magn:    1.9922    constr:    0.0000
     atom:   11    charge:    8.8305    magn:    0.0457    constr:    0.0000
     atom:   12    charge:    8.8305    magn:    0.0457    constr:    0.0000

     End of self-consistent calculation

     Number of k-points >= 100: set verbosity='high' to print the bands.

     the Fermi energy is     0.6350 ev

!    total energy              =   -2274.82731892 Ry
     estimated scf accuracy    <       0.00000798 Ry
     smearing contrib. (-TS)   =      -0.07355688 Ry
     internal energy E=F+TS    =   -2274.75376204 Ry

     The total energy is F=E-TS. E is the sum of the following terms:
     one-electron contribution =  -16809.44195645 Ry
     hartree contribution      =    8447.15371808 Ry
     xc contribution           =    -390.55959439 Ry
     ewald contribution        =    6478.09406188 Ry
     electric field correction =       0.00000883 Ry

     total magnetization       =    11.72 Bohr mag/cell
     absolute magnetization    =    13.40 Bohr mag/cell

     convergence has been achieved in  43 iterations

     Forces acting on atoms (cartesian axes, Ry/au):

     atom    1 type  1   force =     0.01155474    0.00679590    0.01488137
     atom    2 type  1   force =     0.01148559    0.00678900    0.01497263
     atom    3 type  2   force =    -0.01527483   -0.00891115   -0.02467184
     atom    4 type  2   force =    -0.01517505   -0.00904357   -0.02467010
     atom    5 type  1   force =    -0.00571062   -0.00336453    0.00961085
     atom    6 type  1   force =    -0.00565826   -0.00335115    0.00969008
     atom    7 type  2   force =     0.00977343    0.00575138   -0.00540923
     atom    8 type  2   force =     0.00975747    0.00576631   -0.00543354
     atom    9 type  1   force =    -0.00099277   -0.00056103    0.00130395
     atom   10 type  1   force =    -0.00088941   -0.00052862    0.00135886
     atom   11 type  2   force =     0.00064815    0.00019273    0.00418740
     atom   12 type  2   force =     0.00048158    0.00046473    0.00417956

     Total force =     0.057241     Total SCF correction =     0.010750
     SCF correction compared to forces is large: reduce conv_thr to get better values

     Writing output data file ./Co2Au2/Co2Au2_beef.save/

     General routines

     Parallel routines

   This run was terminated on:   1:11:38  27Jun2022

   JOB DONE.