     Program PWSCF v.6.6 starts on 27Jun2022 at  8: 7:35

     R & G space division:  proc/nbgrp/npool/nimage =      37
     Fft bands division:     nmany     =       1
     Reading input from Co2Cu2.in
Warning: card &CELL ignored
Warning: card / ignored

     Current dimensions of program PWSCF are:
     Max number of different atomic species (ntypx) = 10
     Max number of k-points (npk) =  40000
     Max angular momentum in pseudopotentials (lmaxx) =  3
     Presently stress not available with electric field and gates

     Message from routine cell_base_init:
     DEPRECATED: use true lattice parameter, not A to a.u. conversion factor
     file Co.pbe-spn-rrkjus_psl.0.3.1.UPF: wavefunction(s)  3P renormalized
     file Cu.pbe-dn-rrkjus_psl.1.0.0.UPF: wavefunction(s)  3D renormalized

     IMPORTANT: XC functional enforced from input :
     Exchange-correlation= BEEF-VDW
                           (   1   4  43  14   2   0   0)
     Any further DFT definition will be discarded
     Please, verify this is what you really want

     Subspace diagonalization in iterative solution of the eigenvalue problem:
     a serial algorithm will be used

     bravais-lattice index     =            0
     lattice parameter (alat)  =       1.8897  a.u.
     unit-cell volume          =    3672.8165 (a.u.)^3
     number of atoms/cell      =           12
     number of atomic types    =            2
     number of electrons       =       168.00
     number of Kohn-Sham states=          101
     kinetic-energy cutoff     =      55.1240  Ry
     charge density cutoff     =     551.2396  Ry
     convergence threshold     =      1.0E-05
     mixing beta               =       0.1000
     number of iterations used =           10  plain     mixing
     Exchange-correlation= BEEF-VDW
                           (   1   4  43  14   2   0   0)

     celldm(1)=   1.889726  celldm(2)=   0.000000  celldm(3)=   0.000000
     celldm(4)=   0.000000  celldm(5)=   0.000000  celldm(6)=   0.000000

     crystal axes: (cart. coord. in units of alat)
               a(1) = (   4.952079   0.000000   0.000000 )
               a(2) = (  -2.476040   4.550034   0.000000 )
               a(3) = (   0.000000   0.000000  24.154637 )

     reciprocal axes: (cart. coord. in units 2 pi/alat)
               b(1) = (  0.201935  0.109889 -0.000000 )
               b(2) = (  0.000000  0.219779  0.000000 )
               b(3) = (  0.000000 -0.000000  0.041400 )

     PseudoPot. # 1 for Co read from file:
     ../pseudo/Co.pbe-spn-rrkjus_psl.0.3.1.UPF
     MD5 check sum: 99b21b1f85602741a4c0ed67614a7280
     Pseudo is Ultrasoft + core correction, Zval = 17.0
     Generated using "atomic" code by A. Dal Corso v.6.2.2
     Using radial grid of 1193 points,  6 beta functions with:
                l(1) =   0
                l(2) =   0
                l(3) =   1
                l(4) =   1
                l(5) =   2
                l(6) =   2
     Q(r) pseudized with 0 coefficients

     PseudoPot. # 2 for Cu read from file:
     ../pseudo/Cu.pbe-dn-rrkjus_psl.1.0.0.UPF
     MD5 check sum: 8469560995d0c2df1ffe68c099c04a63
     Pseudo is Ultrasoft + core correction, Zval = 11.0
     Generated using "atomic" code by A. Dal Corso v.6.3
     Using radial grid of 1199 points,  6 beta functions with:
                l(1) =   0
                l(2) =   0
                l(3) =   1
                l(4) =   1
                l(5) =   2
                l(6) =   2
     Q(r) pseudized with 0 coefficients

     atomic species   valence    mass     pseudopotential
        Co            17.00    58.93319     Co( 1.00)
        Cu            11.00    63.54600     Cu( 1.00)

     Starting magnetic structure
     atomic species   magnetization
        Co           1.000
        Cu           0.000

     No symmetry found

   Cartesian axes

     site n.     atom                  positions (alat units)
         1           Co  tau(   1) = (   0.0000000   0.0000000  10.0000000  )
         2           Co  tau(   2) = (   2.4760396   0.0000000  10.0000000  )
         3           Cu  tau(   3) = (   1.2380198   2.2750170  10.0000000  )
         4           Cu  tau(   4) = (  -1.2380198   2.2750170  10.0000000  )
         5           Co  tau(   5) = (   2.4760396   1.3474124  12.0773184  )
         6           Co  tau(   6) = (   0.0000000   1.3474124  12.0773184  )
         7           Cu  tau(   7) = (  -1.2380198   3.6224293  12.0773184  )
         8           Cu  tau(   8) = (   1.2380198   3.6224293  12.0773184  )
         9           Co  tau(   9) = (   0.0000010   2.6480668  14.0826092  )
        10           Co  tau(  10) = (   2.4760390   2.6480062  14.0828274  )
        11           Cu  tau(  11) = (   3.7137326   0.3967044  14.2048148  )
        12           Cu  tau(  12) = (   1.2383495   0.3967075  14.2048156  )

     number of k points=    74  Fermi-Dirac smearing, width (Ry)=  0.0100
                       cart. coord. in units 2pi/alat
        k(    1) = (   0.0000000   0.0000000   0.0000000), wk =   0.0069444
        k(    2) = (   0.0000000   0.0183149   0.0000000), wk =   0.0138889
        k(    3) = (   0.0000000   0.0366298   0.0000000), wk =   0.0138889
        k(    4) = (   0.0000000   0.0549446   0.0000000), wk =   0.0138889
        k(    5) = (   0.0000000   0.0732595   0.0000000), wk =   0.0138889
        k(    6) = (   0.0000000   0.0915744   0.0000000), wk =   0.0138889
        k(    7) = (   0.0000000  -0.1098893   0.0000000), wk =   0.0069444
        k(    8) = (   0.0168279   0.0091574   0.0000000), wk =   0.0138889
        k(    9) = (   0.0168279   0.0274723   0.0000000), wk =   0.0138889
        k(   10) = (   0.0168279   0.0457872   0.0000000), wk =   0.0138889
        k(   11) = (   0.0168279   0.0641021   0.0000000), wk =   0.0138889
        k(   12) = (   0.0168279   0.0824170   0.0000000), wk =   0.0138889
        k(   13) = (   0.0168279   0.1007318   0.0000000), wk =   0.0138889
        k(   14) = (   0.0168279  -0.1007318   0.0000000), wk =   0.0138889
        k(   15) = (   0.0168279  -0.0824170   0.0000000), wk =   0.0138889
        k(   16) = (   0.0168279  -0.0641021   0.0000000), wk =   0.0138889
        k(   17) = (   0.0168279  -0.0457872   0.0000000), wk =   0.0138889
        k(   18) = (   0.0168279  -0.0274723   0.0000000), wk =   0.0138889
        k(   19) = (   0.0168279  -0.0091574   0.0000000), wk =   0.0138889
        k(   20) = (   0.0336559   0.0183149   0.0000000), wk =   0.0138889
        k(   21) = (   0.0336559   0.0366298   0.0000000), wk =   0.0138889
        k(   22) = (   0.0336559   0.0549446   0.0000000), wk =   0.0138889
        k(   23) = (   0.0336559   0.0732595   0.0000000), wk =   0.0138889
        k(   24) = (   0.0336559   0.0915744   0.0000000), wk =   0.0138889
        k(   25) = (   0.0336559   0.1098893   0.0000000), wk =   0.0138889
        k(   26) = (   0.0336559  -0.0915744   0.0000000), wk =   0.0138889
        k(   27) = (   0.0336559  -0.0732595   0.0000000), wk =   0.0138889
        k(   28) = (   0.0336559  -0.0549446   0.0000000), wk =   0.0138889
        k(   29) = (   0.0336559  -0.0366298   0.0000000), wk =   0.0138889
        k(   30) = (   0.0336559  -0.0183149   0.0000000), wk =   0.0138889
        k(   31) = (   0.0336559   0.0000000   0.0000000), wk =   0.0138889
        k(   32) = (   0.0504838   0.0274723   0.0000000), wk =   0.0138889
        k(   33) = (   0.0504838   0.0457872   0.0000000), wk =   0.0138889
        k(   34) = (   0.0504838   0.0641021   0.0000000), wk =   0.0138889
        k(   35) = (   0.0504838   0.0824170   0.0000000), wk =   0.0138889
        k(   36) = (   0.0504838   0.1007319   0.0000000), wk =   0.0138889
        k(   37) = (   0.0504838   0.1190467   0.0000000), wk =   0.0138889
        k(   38) = (   0.0504838  -0.0824170   0.0000000), wk =   0.0138889
        k(   39) = (   0.0504838  -0.0641021   0.0000000), wk =   0.0138889
        k(   40) = (   0.0504838  -0.0457872   0.0000000), wk =   0.0138889
        k(   41) = (   0.0504838  -0.0274723   0.0000000), wk =   0.0138889
        k(   42) = (   0.0504838  -0.0091574   0.0000000), wk =   0.0138889
        k(   43) = (   0.0504838   0.0091574   0.0000000), wk =   0.0138889
        k(   44) = (   0.0673118   0.0366298   0.0000000), wk =   0.0138889
        k(   45) = (   0.0673118   0.0549447   0.0000000), wk =   0.0138889
        k(   46) = (   0.0673118   0.0732595   0.0000000), wk =   0.0138889
        k(   47) = (   0.0673118   0.0915744   0.0000000), wk =   0.0138889
        k(   48) = (   0.0673118   0.1098893   0.0000000), wk =   0.0138889
        k(   49) = (   0.0673118   0.1282042   0.0000000), wk =   0.0138889
        k(   50) = (   0.0673118  -0.0732595   0.0000000), wk =   0.0138889
        k(   51) = (   0.0673118  -0.0549446   0.0000000), wk =   0.0138889
        k(   52) = (   0.0673118  -0.0366298   0.0000000), wk =   0.0138889
        k(   53) = (   0.0673118  -0.0183149   0.0000000), wk =   0.0138889
        k(   54) = (   0.0673118   0.0000000   0.0000000), wk =   0.0138889
        k(   55) = (   0.0673118   0.0183149   0.0000000), wk =   0.0138889
        k(   56) = (   0.0841397   0.0457872   0.0000000), wk =   0.0138889
        k(   57) = (   0.0841397   0.0641021   0.0000000), wk =   0.0138889
        k(   58) = (   0.0841397   0.0824170   0.0000000), wk =   0.0138889
        k(   59) = (   0.0841397   0.1007319   0.0000000), wk =   0.0138889
        k(   60) = (   0.0841397   0.1190467   0.0000000), wk =   0.0138889
        k(   61) = (   0.0841397   0.1373616   0.0000000), wk =   0.0138889
        k(   62) = (   0.0841397  -0.0641021   0.0000000), wk =   0.0138889
        k(   63) = (   0.0841397  -0.0457872   0.0000000), wk =   0.0138889
        k(   64) = (   0.0841397  -0.0274723   0.0000000), wk =   0.0138889
        k(   65) = (   0.0841397  -0.0091574   0.0000000), wk =   0.0138889
        k(   66) = (   0.0841397   0.0091574   0.0000000), wk =   0.0138889
        k(   67) = (   0.0841397   0.0274723   0.0000000), wk =   0.0138889
        k(   68) = (  -0.1009677  -0.0549447   0.0000000), wk =   0.0069444
        k(   69) = (  -0.1009677  -0.0366298   0.0000000), wk =   0.0138889
        k(   70) = (  -0.1009677  -0.0183149   0.0000000), wk =   0.0138889
        k(   71) = (  -0.1009677  -0.0000000   0.0000000), wk =   0.0138889
        k(   72) = (  -0.1009677   0.0183149   0.0000000), wk =   0.0138889
        k(   73) = (  -0.1009677   0.0366298   0.0000000), wk =   0.0138889
        k(   74) = (  -0.1009677  -0.1648339   0.0000000), wk =   0.0069444

     Check: negative core charge=   -0.000006
     Generating pointlists ...
     new r_m :   0.9859 (alat units)  1.8632 (a.u.) for type    1
     new r_m :   1.0211 (alat units)  1.9296 (a.u.) for type    2

     Initial potential from superposition of free atoms

     starting charge  167.99691, renormalised to  168.00000

     %%%%%%%%%%%%%%%%%%%%%%%%%%%%%%%%%%%%%%%%%%%%%%%%%%%%%%%%%%%%%%%%%%%%%%%%
     %                                                                      %
     % You are using vdW-DF, which was implemented by the Thonhauser group. %
     % Please cite the following two papers that made this development      %
     % possible and the two reviews that describe the various versions:     %
     %                                                                      %
     %   T. Thonhauser et al., PRL 115, 136402 (2015).                      %
     %   T. Thonhauser et al., PRB 76, 125112 (2007).                       %
     %   K. Berland et al., Rep. Prog. Phys. 78, 066501 (2015).             %
     %   D.C. Langreth et al., J. Phys.: Condens. Matter 21, 084203 (2009). %
     %                                                                      %
     %                                                                      %
     % If you are calculating the stress with vdW-DF, please also cite:     %
     %                                                                      %
     %   R. Sabatini et al., J. Phys.: Condens. Matter 24, 424209 (2012).   %
     %                                                                      %
     %%%%%%%%%%%%%%%%%%%%%%%%%%%%%%%%%%%%%%%%%%%%%%%%%%%%%%%%%%%%%%%%%%%%%%%%

     Adding external electric field

     Computed dipole along edir(3) :
        Dipole                0.0000 Ry au,          0.0000 Debye
        Dipole field          0.0000 Ry au,

        Potential amp.       -0.0000 Ry
        Total length         44.5045 bohr

[...]

     Starting wfcs are  114 randomized atomic wfcs

     Self-consistent Calculation

     iteration #  1     ecut=    55.12 Ry     beta= 0.10
     Davidson diagonalization with overlap
     ethr =  1.00E-02,  avg # of iterations =  9.1

[...]

     total energy              =   -2477.20090126 Ry
     estimated scf accuracy    <      39.97156374 Ry

     total magnetization       =    31.47 Bohr mag/cell
     absolute magnetization    =    33.05 Bohr mag/cell

[...]

     iteration # 24     ecut=    55.12 Ry     beta= 0.10
     Davidson diagonalization with overlap
     c_bands:  1 eigenvalues not converged
     c_bands:  2 eigenvalues not converged
     c_bands:  1 eigenvalues not converged
     c_bands:  1 eigenvalues not converged
     c_bands:  1 eigenvalues not converged
     c_bands:  1 eigenvalues not converged
     c_bands:  1 eigenvalues not converged
     c_bands:  2 eigenvalues not converged
     ethr =  7.11E-05,  avg # of iterations =  5.2

[...]

     iteration # 33     ecut=    55.12 Ry     beta= 0.10
     Davidson diagonalization with overlap
     c_bands:  1 eigenvalues not converged
     c_bands:  1 eigenvalues not converged
     ethr =  5.81E-07,  avg # of iterations =  6.0

[...]

     total energy              =   -2500.80689839 Ry
     estimated scf accuracy    <       0.00001177 Ry

[...]

     iteration # 43     ecut=    55.12 Ry     beta= 0.10
     Davidson diagonalization with overlap
     ethr =  7.01E-09,  avg # of iterations =  2.6

[...]

     Adding external electric field

     Computed dipole along edir(3) :
        Dipole               -0.0127 Ry au,         -0.0324 Debye
        Dipole field         -0.0000 Ry au,

        Potential amp.        0.0039 Ry
        Total length         44.5045 bohr

     Magnetic moment per site:
     atom:    1    charge:   15.2840    magn:    1.8584    constr:    0.0000
     atom:    2    charge:   15.2841    magn:    1.8583    constr:    0.0000
     atom:    3    charge:    9.6518    magn:    0.0409    constr:    0.0000
     atom:    4    charge:    9.6518    magn:    0.0409    constr:    0.0000
     atom:    5    charge:   15.3276    magn:    1.8597    constr:    0.0000
     atom:    6    charge:   15.3277    magn:    1.8596    constr:    0.0000
     atom:    7    charge:    9.7104    magn:    0.0502    constr:    0.0000
     atom:    8    charge:    9.7104    magn:    0.0502    constr:    0.0000
     atom:    9    charge:   15.2995    magn:    1.8464    constr:    0.0000
     atom:   10    charge:   15.2996    magn:    1.8462    constr:    0.0000
     atom:   11    charge:    9.6423    magn:    0.0368    constr:    0.0000
     atom:   12    charge:    9.6424    magn:    0.0368    constr:    0.0000

     End of self-consistent calculation

     Number of k-points >= 100: set verbosity='high' to print the bands.

     the Fermi energy is     0.1393 ev

!    total energy              =   -2500.08399901 Ry
     estimated scf accuracy    <       0.00000588 Ry
     smearing contrib. (-TS)   =      -0.05863711 Ry
     internal energy E=F+TS    =   -2500.02536190 Ry

     The total energy is F=E-TS. E is the sum of the following terms:
     one-electron contribution =  -20221.95118736 Ry
     hartree contribution      =   10180.97102969 Ry
     xc contribution           =    -466.85725372 Ry
     ewald contribution        =    8007.81204894 Ry
     electric field correction =       0.00000056 Ry

     total magnetization       =    10.75 Bohr mag/cell
     absolute magnetization    =    12.76 Bohr mag/cell

     convergence has been achieved in  43 iterations

     Forces acting on atoms (cartesian axes, Ry/au):

     atom    1 type  1   force =    -0.00003473    0.00616937    0.01413750
     atom    2 type  1   force =    -0.00001290    0.00622256    0.01404271
     atom    3 type  2   force =     0.00000515   -0.00465529   -0.01073134
     atom    4 type  2   force =    -0.00001688   -0.00468933   -0.01074000
     atom    5 type  1   force =     0.00006928   -0.00568713   -0.00094640
     atom    6 type  1   force =     0.00008752   -0.00570364   -0.00092281
     atom    7 type  2   force =    -0.00001273    0.00455912   -0.00282988
     atom    8 type  2   force =    -0.00000371    0.00452134   -0.00286208
     atom    9 type  1   force =    -0.00003701   -0.00080877   -0.00051276
     atom   10 type  1   force =    -0.00002280   -0.00078948   -0.00062683
     atom   11 type  2   force =     0.00014363    0.00043441    0.00099665
     atom   12 type  2   force =    -0.00016481    0.00042684    0.00099524

     Total force =     0.029604     Total SCF correction =     0.010001
     SCF correction compared to forces is large: reduce conv_thr to get better values

     Writing output data file ./Co2Cu2/Co2Cu2_beef.save/

     General routines

     Parallel routines

   This run was terminated on:  11:54: 8  27Jun2022

   JOB DONE.