     Program PWSCF v.6.6 starts on 27Jun2022 at  1:11:40

     R & G space division:  proc/nbgrp/npool/nimage =      37
     Fft bands division:     nmany     =       1
     Reading input from Co2Cd2.in
Warning: card &CELL ignored
Warning: card / ignored

     Current dimensions of program PWSCF are:
     Max number of different atomic species (ntypx) = 10
     Max number of k-points (npk) =  40000
     Max angular momentum in pseudopotentials (lmaxx) =  3
     Presently stress not available with electric field and gates

     Message from routine cell_base_init:
     DEPRECATED: use true lattice parameter, not A to a.u. conversion factor
     file Co.pbe-spn-rrkjus_psl.0.3.1.UPF: wavefunction(s)  3P renormalized
     file Cd.pbe-n-rrkjus_psl.1.0.0.UPF: wavefunction(s)  4D renormalized

     IMPORTANT: XC functional enforced from input :
     Exchange-correlation= BEEF-VDW
                           (   1   4  43  14   2   0   0)
     Any further DFT definition will be discarded
     Please, verify this is what you really want

     Subspace diagonalization in iterative solution of the eigenvalue problem:
     a serial algorithm will be used

     bravais-lattice index     =            0
     lattice parameter (alat)  =       1.8897  a.u.
     unit-cell volume          =    4617.9287 (a.u.)^3
     number of atoms/cell      =           12
     number of atomic types    =            2
     number of electrons       =       174.00
     number of Kohn-Sham states=          104
     kinetic-energy cutoff     =      55.1240  Ry
     charge density cutoff     =     551.2396  Ry
     convergence threshold     =      1.0E-05
     mixing beta               =       0.1000
     number of iterations used =           10  plain     mixing
     Exchange-correlation= BEEF-VDW
                           (   1   4  43  14   2   0   0)

     celldm(1)=   1.889726  celldm(2)=   0.000000  celldm(3)=   0.000000
     celldm(4)=   0.000000  celldm(5)=   0.000000  celldm(6)=   0.000000

     crystal axes: (cart. coord. in units of alat)
               a(1) = (   5.652184   0.000000   0.000000 )
               a(2) = (  -2.826092   4.916508   0.000000 )
               a(3) = (   0.000000   0.000000  24.625081 )

     reciprocal axes: (cart. coord. in units 2 pi/alat)
               b(1) = (  0.176923  0.101698 -0.000000 )
               b(2) = (  0.000000  0.203396  0.000000 )
               b(3) = (  0.000000 -0.000000  0.040609 )

     PseudoPot. # 1 for Co read from file:
     ../pseudo/Co.pbe-spn-rrkjus_psl.0.3.1.UPF
     MD5 check sum: 99b21b1f85602741a4c0ed67614a7280
     Pseudo is Ultrasoft + core correction, Zval = 17.0
     Generated using "atomic" code by A. Dal Corso v.6.2.2
     Using radial grid of 1193 points,  6 beta functions with:
                l(1) =   0
                l(2) =   0
                l(3) =   1
                l(4) =   1
                l(5) =   2
                l(6) =   2
     Q(r) pseudized with 0 coefficients

     PseudoPot. # 2 for Cd read from file:
     ../pseudo/Cd.pbe-n-rrkjus_psl.1.0.0.UPF
     MD5 check sum: a744746c89d2344a134ead0d8ab94e7a
     Pseudo is Ultrasoft + core correction, Zval = 12.0
     Generated using "atomic" code by A. Dal Corso v.6.3
     Using radial grid of 1239 points,  6 beta functions with:
                l(1) =   0
                l(2) =   0
                l(3) =   1
                l(4) =   1
                l(5) =   2
                l(6) =   2
     Q(r) pseudized with 0 coefficients

     atomic species   valence    mass     pseudopotential
        Co            17.00    58.93319     Co( 1.00)
        Cd            12.00   112.41400     Cd( 1.00)

     Starting magnetic structure
     atomic species   magnetization
        Co           1.000
        Cd           0.000

     No symmetry found

   Cartesian axes

     site n.     atom                  positions (alat units)
         1           Co  tau(   1) = (   0.0000000   0.0000000  10.0000000  )
         2           Co  tau(   2) = (   2.8260918   0.0000000  10.0000000  )
         3           Cd  tau(   3) = (   1.4130459   2.4582542  10.0000000  )
         4           Cd  tau(   4) = (  -1.4130459   2.4582542  10.0000000  )
         5           Co  tau(   5) = (   2.8260918   1.6244851  12.3125403  )
         6           Co  tau(   6) = (  -0.0000000   1.6244851  12.3125403  )
         7           Cd  tau(   7) = (  -1.4130459   4.0827393  12.3125403  )
         8           Cd  tau(   8) = (   1.4130459   4.0827393  12.3125403  )
         9           Co  tau(   9) = (  -0.0000114   2.7490509  14.3190261  )
        10           Co  tau(  10) = (   2.8261020   2.7491099  14.3189460  )
        11           Cd  tau(  11) = (   4.2390508   0.4258519  14.9878599  )
        12           Cd  tau(  12) = (   1.4131347   0.4258687  14.9878572  )

     number of k points=    74  Fermi-Dirac smearing, width (Ry)=  0.0100
                       cart. coord. in units 2pi/alat
        k(    1) = (   0.0000000   0.0000000   0.0000000), wk =   0.0069444
        k(    2) = (   0.0000000   0.0169497   0.0000000), wk =   0.0138889
        k(    3) = (   0.0000000   0.0338994   0.0000000), wk =   0.0138889
        k(    4) = (   0.0000000   0.0508491   0.0000000), wk =   0.0138889
        k(    5) = (   0.0000000   0.0677988   0.0000000), wk =   0.0138889
        k(    6) = (   0.0000000   0.0847485   0.0000000), wk =   0.0138889
        k(    7) = (   0.0000000  -0.1016982   0.0000000), wk =   0.0069444
        k(    8) = (   0.0147436   0.0084748   0.0000000), wk =   0.0138889
        k(    9) = (   0.0147436   0.0254245   0.0000000), wk =   0.0138889
        k(   10) = (   0.0147436   0.0423742   0.0000000), wk =   0.0138889
        k(   11) = (   0.0147436   0.0593239   0.0000000), wk =   0.0138889
        k(   12) = (   0.0147436   0.0762736   0.0000000), wk =   0.0138889
        k(   13) = (   0.0147436   0.0932233   0.0000000), wk =   0.0138889
        k(   14) = (   0.0147436  -0.0932233   0.0000000), wk =   0.0138889
        k(   15) = (   0.0147436  -0.0762736   0.0000000), wk =   0.0138889
        k(   16) = (   0.0147436  -0.0593239   0.0000000), wk =   0.0138889
        k(   17) = (   0.0147436  -0.0423742   0.0000000), wk =   0.0138889
        k(   18) = (   0.0147436  -0.0254245   0.0000000), wk =   0.0138889
        k(   19) = (   0.0147436  -0.0084748   0.0000000), wk =   0.0138889
        k(   20) = (   0.0294871   0.0169497   0.0000000), wk =   0.0138889
        k(   21) = (   0.0294871   0.0338994   0.0000000), wk =   0.0138889
        k(   22) = (   0.0294871   0.0508491   0.0000000), wk =   0.0138889
        k(   23) = (   0.0294871   0.0677988   0.0000000), wk =   0.0138889
        k(   24) = (   0.0294871   0.0847485   0.0000000), wk =   0.0138889
        k(   25) = (   0.0294871   0.1016982   0.0000000), wk =   0.0138889
        k(   26) = (   0.0294871  -0.0847485   0.0000000), wk =   0.0138889
        k(   27) = (   0.0294871  -0.0677988   0.0000000), wk =   0.0138889
        k(   28) = (   0.0294871  -0.0508491   0.0000000), wk =   0.0138889
        k(   29) = (   0.0294871  -0.0338994   0.0000000), wk =   0.0138889
        k(   30) = (   0.0294871  -0.0169497   0.0000000), wk =   0.0138889
        k(   31) = (   0.0294871  -0.0000000   0.0000000), wk =   0.0138889
        k(   32) = (   0.0442307   0.0254245   0.0000000), wk =   0.0138889
        k(   33) = (   0.0442307   0.0423742   0.0000000), wk =   0.0138889
        k(   34) = (   0.0442307   0.0593239   0.0000000), wk =   0.0138889
        k(   35) = (   0.0442307   0.0762736   0.0000000), wk =   0.0138889
        k(   36) = (   0.0442307   0.0932233   0.0000000), wk =   0.0138889
        k(   37) = (   0.0442307   0.1101730   0.0000000), wk =   0.0138889
        k(   38) = (   0.0442307  -0.0762736   0.0000000), wk =   0.0138889
        k(   39) = (   0.0442307  -0.0593239   0.0000000), wk =   0.0138889
        k(   40) = (   0.0442307  -0.0423742   0.0000000), wk =   0.0138889
        k(   41) = (   0.0442307  -0.0254245   0.0000000), wk =   0.0138889
        k(   42) = (   0.0442307  -0.0084748   0.0000000), wk =   0.0138889
        k(   43) = (   0.0442307   0.0084748   0.0000000), wk =   0.0138889
        k(   44) = (   0.0589743   0.0338994   0.0000000), wk =   0.0138889
        k(   45) = (   0.0589743   0.0508491   0.0000000), wk =   0.0138889
        k(   46) = (   0.0589743   0.0677988   0.0000000), wk =   0.0138889
        k(   47) = (   0.0589743   0.0847485   0.0000000), wk =   0.0138889
        k(   48) = (   0.0589743   0.1016982   0.0000000), wk =   0.0138889
        k(   49) = (   0.0589743   0.1186479   0.0000000), wk =   0.0138889
        k(   50) = (   0.0589743  -0.0677988   0.0000000), wk =   0.0138889
        k(   51) = (   0.0589743  -0.0508491   0.0000000), wk =   0.0138889
        k(   52) = (   0.0589743  -0.0338994   0.0000000), wk =   0.0138889
        k(   53) = (   0.0589743  -0.0169497   0.0000000), wk =   0.0138889
        k(   54) = (   0.0589743   0.0000000   0.0000000), wk =   0.0138889
        k(   55) = (   0.0589743   0.0169497   0.0000000), wk =   0.0138889
        k(   56) = (   0.0737178   0.0423742   0.0000000), wk =   0.0138889
        k(   57) = (   0.0737178   0.0593239   0.0000000), wk =   0.0138889
        k(   58) = (   0.0737178   0.0762736   0.0000000), wk =   0.0138889
        k(   59) = (   0.0737178   0.0932233   0.0000000), wk =   0.0138889
        k(   60) = (   0.0737178   0.1101730   0.0000000), wk =   0.0138889
        k(   61) = (   0.0737178   0.1271227   0.0000000), wk =   0.0138889
        k(   62) = (   0.0737178  -0.0593239   0.0000000), wk =   0.0138889
        k(   63) = (   0.0737178  -0.0423742   0.0000000), wk =   0.0138889
        k(   64) = (   0.0737178  -0.0254245   0.0000000), wk =   0.0138889
        k(   65) = (   0.0737178  -0.0084748   0.0000000), wk =   0.0138889
        k(   66) = (   0.0737178   0.0084748   0.0000000), wk =   0.0138889
        k(   67) = (   0.0737178   0.0254245   0.0000000), wk =   0.0138889
        k(   68) = (  -0.0884614  -0.0508491   0.0000000), wk =   0.0069444
        k(   69) = (  -0.0884614  -0.0338994   0.0000000), wk =   0.0138889
        k(   70) = (  -0.0884614  -0.0169497   0.0000000), wk =   0.0138889
        k(   71) = (  -0.0884614   0.0000000   0.0000000), wk =   0.0138889
        k(   72) = (  -0.0884614   0.0169497   0.0000000), wk =   0.0138889
        k(   73) = (  -0.0884614   0.0338994   0.0000000), wk =   0.0138889
        k(   74) = (  -0.0884614  -0.1525473   0.0000000), wk =   0.0069444

     Check: negative core charge=   -0.000006
     Generating pointlists ...
     new r_m :   0.9488 (alat units)  1.7930 (a.u.) for type    1
     new r_m :   1.1521 (alat units)  2.1772 (a.u.) for type    2

     Initial potential from superposition of free atoms

     starting charge  173.96899, renormalised to  174.00000

     %%%%%%%%%%%%%%%%%%%%%%%%%%%%%%%%%%%%%%%%%%%%%%%%%%%%%%%%%%%%%%%%%%%%%%%%
     %                                                                      %
     % You are using vdW-DF, which was implemented by the Thonhauser group. %
     % Please cite the following two papers that made this development      %
     % possible and the two reviews that describe the various versions:     %
     %                                                                      %
     %   T. Thonhauser et al., PRL 115, 136402 (2015).                      %
     %   T. Thonhauser et al., PRB 76, 125112 (2007).                       %
     %   K. Berland et al., Rep. Prog. Phys. 78, 066501 (2015).             %
     %   D.C. Langreth et al., J. Phys.: Condens. Matter 21, 084203 (2009). %
     %                                                                      %
     %                                                                      %
     % If you are calculating the stress with vdW-DF, please also cite:     %
     %                                                                      %
     %   R. Sabatini et al., J. Phys.: Condens. Matter 24, 424209 (2012).   %
     %                                                                      %
     %%%%%%%%%%%%%%%%%%%%%%%%%%%%%%%%%%%%%%%%%%%%%%%%%%%%%%%%%%%%%%%%%%%%%%%%

     Adding external electric field

     Computed dipole along edir(3) :
        Dipole                0.0069 Ry au,          0.0176 Debye
        Dipole field          0.0000 Ry au,

        Potential amp.       -0.0017 Ry
        Total length         45.3713 bohr

[...]

     Starting wfcs are  114 randomized atomic wfcs

     Self-consistent Calculation

     iteration #  1     ecut=    55.12 Ry     beta= 0.10
     Davidson diagonalization with overlap
     ethr =  1.00E-02,  avg # of iterations =  8.8

[...]

     total energy              =   -2340.82312294 Ry
     estimated scf accuracy    <      42.41353039 Ry

     total magnetization       =    32.46 Bohr mag/cell
     absolute magnetization    =    33.88 Bohr mag/cell

[...]

     iteration # 27     ecut=    55.12 Ry     beta= 0.10
     Davidson diagonalization with overlap
     c_bands:  1 eigenvalues not converged
     ethr =  1.62E-04,  avg # of iterations =  2.5

[...]

     iteration # 38     ecut=    55.12 Ry     beta= 0.10
     Davidson diagonalization with overlap
     c_bands:  1 eigenvalues not converged
     c_bands:  1 eigenvalues not converged
     ethr =  1.64E-07,  avg # of iterations =  2.5

[...]

     total energy              =   -2363.89875438 Ry
     estimated scf accuracy    <       0.00001370 Ry

[...]

     iteration # 47     ecut=    55.12 Ry     beta= 0.10
     Davidson diagonalization with overlap
     ethr =  7.88E-09,  avg # of iterations =  4.7

[...]

     Adding external electric field

     Computed dipole along edir(3) :
        Dipole                0.0536 Ry au,          0.1362 Debye
        Dipole field          0.0001 Ry au,

        Potential amp.       -0.0132 Ry
        Total length         45.3713 bohr

     Magnetic moment per site:
     atom:    1    charge:   15.0678    magn:    1.7812    constr:    0.0000
     atom:    2    charge:   15.0680    magn:    1.7809    constr:    0.0000
     atom:    3    charge:   10.2838    magn:   -0.0388    constr:    0.0000
     atom:    4    charge:   10.2837    magn:   -0.0388    constr:    0.0000
     atom:    5    charge:   15.1067    magn:    1.7271    constr:    0.0000
     atom:    6    charge:   15.1070    magn:    1.7267    constr:    0.0000
     atom:    7    charge:   10.3275    magn:   -0.0424    constr:    0.0000
     atom:    8    charge:   10.3275    magn:   -0.0424    constr:    0.0000
     atom:    9    charge:   15.0938    magn:    1.7769    constr:    0.0000
     atom:   10    charge:   15.0939    magn:    1.7768    constr:    0.0000
     atom:   11    charge:   10.2354    magn:   -0.0302    constr:    0.0000
     atom:   12    charge:   10.2354    magn:   -0.0302    constr:    0.0000

     End of self-consistent calculation

     Number of k-points >= 100: set verbosity='high' to print the bands.

     the Fermi energy is     0.6646 ev

!    total energy              =   -2363.17642003 Ry
     estimated scf accuracy    <       0.00000773 Ry
     smearing contrib. (-TS)   =      -0.06442895 Ry
     internal energy E=F+TS    =   -2363.11199108 Ry

     The total energy is F=E-TS. E is the sum of the following terms:
     one-electron contribution =  -17101.11332038 Ry
     hartree contribution      =    8592.45187278 Ry
     xc contribution           =    -334.01145372 Ry
     ewald contribution        =    6479.56090243 Ry
     electric field correction =       0.00000781 Ry

     total magnetization       =     9.80 Bohr mag/cell
     absolute magnetization    =    11.96 Bohr mag/cell

     convergence has been achieved in  47 iterations

     Forces acting on atoms (cartesian axes, Ry/au):

     atom    1 type  1   force =     0.00002148    0.01309979    0.02147855
     atom    2 type  1   force =     0.00009749    0.01323294    0.02156159
     atom    3 type  2   force =     0.00024387   -0.01200256   -0.03295588
     atom    4 type  2   force =    -0.00012618   -0.01204312   -0.03292183
     atom    5 type  1   force =    -0.00011491   -0.01255160    0.00445520
     atom    6 type  1   force =    -0.00014156   -0.01250501    0.00453307
     atom    7 type  2   force =     0.00008381    0.01325420    0.00737002
     atom    8 type  2   force =     0.00003053    0.01327482    0.00738102
     atom    9 type  1   force =    -0.00010675   -0.00010790   -0.00135799
     atom   10 type  1   force =    -0.00010616   -0.00017872   -0.00144152
     atom   11 type  2   force =     0.00005229   -0.00174307    0.00095555
     atom   12 type  2   force =     0.00006608   -0.00172977    0.00094222

     Total force =     0.067520     Total SCF correction =     0.007960
     SCF correction compared to forces is large: reduce conv_thr to get better values

     Writing output data file ./Co2Cd2/Co2Cd2_beef.save/

     General routines

     Parallel routines

   This run was terminated on:   8: 7:28  27Jun2022

   JOB DONE.