     Program PWSCF v.6.6 starts on 27Jun2022 at 19:50: 6

     R & G space division:  proc/nbgrp/npool/nimage =      37
     Fft bands division:     nmany     =       1
     Reading input from Co2Fe2.in
Warning: card &CELL ignored
Warning: card / ignored

     Current dimensions of program PWSCF are:
     Max number of different atomic species (ntypx) = 10
     Max number of k-points (npk) =  40000
     Max angular momentum in pseudopotentials (lmaxx) =  3
     Presently stress not available with electric field and gates

     Message from routine cell_base_init:
     DEPRECATED: use true lattice parameter, not A to a.u. conversion factor
     file Co.pbe-spn-rrkjus_psl.0.3.1.UPF: wavefunction(s)  3P renormalized
     file Fe.pbe-n-rrkjus_psl.1.0.0.UPF: wavefunction(s)  3D renormalized

     IMPORTANT: XC functional enforced from input :
     Exchange-correlation= BEEF-VDW
                           (   1   4  43  14   2   0   0)
     Any further DFT definition will be discarded
     Please, verify this is what you really want

     Subspace diagonalization in iterative solution of the eigenvalue problem:
     a serial algorithm will be used

     bravais-lattice index     =            0
     lattice parameter (alat)  =       1.8897  a.u.
     unit-cell volume          =    3753.8005 (a.u.)^3
     number of atoms/cell      =           12
     number of atomic types    =            2
     number of electrons       =       150.00
     number of Kohn-Sham states=           90
     kinetic-energy cutoff     =      55.1240  Ry
     charge density cutoff     =     551.2396  Ry
     convergence threshold     =      1.0E-05
     mixing beta               =       0.1000
     number of iterations used =           10  plain     mixing
     Exchange-correlation= BEEF-VDW
                           (   1   4  43  14   2   0   0)

     celldm(1)=   1.889726  celldm(2)=   0.000000  celldm(3)=   0.000000
     celldm(4)=   0.000000  celldm(5)=   0.000000  celldm(6)=   0.000000

     crystal axes: (cart. coord. in units of alat)
               a(1) = (   4.951490   0.000000   0.000000 )
               a(2) = (   1.635988   4.673414   0.000000 )
               a(3) = (   0.000000   0.000000  24.038342 )

     reciprocal axes: (cart. coord. in units 2 pi/alat)
               b(1) = (  0.201959 -0.070698  0.000000 )
               b(2) = (  0.000000  0.213976  0.000000 )
               b(3) = (  0.000000  0.000000  0.041600 )

     PseudoPot. # 1 for Co read from file:
     ../pseudo/Co.pbe-spn-rrkjus_psl.0.3.1.UPF
     MD5 check sum: 99b21b1f85602741a4c0ed67614a7280
     Pseudo is Ultrasoft + core correction, Zval = 17.0
     Generated using "atomic" code by A. Dal Corso v.6.2.2
     Using radial grid of 1193 points,  6 beta functions with:
                l(1) =   0
                l(2) =   0
                l(3) =   1
                l(4) =   1
                l(5) =   2
                l(6) =   2
     Q(r) pseudized with 0 coefficients

     PseudoPot. # 2 for Fe read from file:
     ../pseudo/Fe.pbe-n-rrkjus_psl.1.0.0.UPF
     MD5 check sum: e37eda618788e2416bb099156d582190
     Pseudo is Ultrasoft + core correction, Zval =  8.0
     Generated using "atomic" code by A. Dal Corso v.6.5
     Using radial grid of 1191 points,  6 beta functions with:
                l(1) =   0
                l(2) =   0
                l(3) =   1
                l(4) =   1
                l(5) =   2
                l(6) =   2
     Q(r) pseudized with 0 coefficients

     atomic species   valence    mass     pseudopotential
        Co            17.00    58.93319     Co( 1.00)
        Fe             8.00    55.84500     Fe( 1.00)

     Starting magnetic structure
     atomic species   magnetization
        Co           1.000
        Fe           0.750

     No symmetry found

   Cartesian axes

     site n.     atom                  positions (alat units)
         1           Co  tau(   1) = (   0.0000000   0.0000000  10.0000000  )
         2           Co  tau(   2) = (   3.2937388   2.3367069  10.0000000  )
         3           Fe  tau(   3) = (   2.4757450   0.0000000  10.0000000  )
         4           Fe  tau(   4) = (   0.8179938   2.3367069  10.0000000  )
         5           Co  tau(   5) = (   4.9514900   3.5127803  12.0191708  )
         6           Co  tau(   6) = (   1.6577512   1.1760734  12.0191708  )
         7           Fe  tau(   7) = (   2.4757450   3.5127803  12.0191708  )
         8           Fe  tau(   8) = (   4.1334961   1.1760734  12.0191708  )
         9           Co  tau(   9) = (   3.3138621   2.3509804  13.9437973  )
        10           Co  tau(  10) = (   0.0202365   0.0143582  13.9439596  )
        11           Fe  tau(  11) = (   0.8373436   2.3503320  14.0562439  )
        12           Fe  tau(  12) = (   2.4949983   0.0137620  14.0562489  )

     number of k points=    74  Fermi-Dirac smearing, width (Ry)=  0.0100
                       cart. coord. in units 2pi/alat
        k(    1) = (   0.0000000   0.0000000   0.0000000), wk =   0.0069444
        k(    2) = (   0.0000000   0.0178314   0.0000000), wk =   0.0138889
        k(    3) = (   0.0000000   0.0356627   0.0000000), wk =   0.0138889
        k(    4) = (   0.0000000   0.0534941   0.0000000), wk =   0.0138889
        k(    5) = (   0.0000000   0.0713254   0.0000000), wk =   0.0138889
        k(    6) = (   0.0000000   0.0891568   0.0000000), wk =   0.0138889
        k(    7) = (   0.0000000  -0.1069882   0.0000000), wk =   0.0069444
        k(    8) = (   0.0168300  -0.0058915   0.0000000), wk =   0.0138889
        k(    9) = (   0.0168300   0.0119398   0.0000000), wk =   0.0138889
        k(   10) = (   0.0168300   0.0297712   0.0000000), wk =   0.0138889
        k(   11) = (   0.0168300   0.0476025   0.0000000), wk =   0.0138889
        k(   12) = (   0.0168300   0.0654339   0.0000000), wk =   0.0138889
        k(   13) = (   0.0168300   0.0832653   0.0000000), wk =   0.0138889
        k(   14) = (   0.0168300  -0.1128797   0.0000000), wk =   0.0138889
        k(   15) = (   0.0168300  -0.0950483   0.0000000), wk =   0.0138889
        k(   16) = (   0.0168300  -0.0772170   0.0000000), wk =   0.0138889
        k(   17) = (   0.0168300  -0.0593856   0.0000000), wk =   0.0138889
        k(   18) = (   0.0168300  -0.0415543   0.0000000), wk =   0.0138889
        k(   19) = (   0.0168300  -0.0237229   0.0000000), wk =   0.0138889
        k(   20) = (   0.0336599  -0.0117831   0.0000000), wk =   0.0138889
        k(   21) = (   0.0336599   0.0060483   0.0000000), wk =   0.0138889
        k(   22) = (   0.0336599   0.0238796   0.0000000), wk =   0.0138889
        k(   23) = (   0.0336599   0.0417110   0.0000000), wk =   0.0138889
        k(   24) = (   0.0336599   0.0595424   0.0000000), wk =   0.0138889
        k(   25) = (   0.0336599   0.0773737   0.0000000), wk =   0.0138889
        k(   26) = (   0.0336599  -0.1187712   0.0000000), wk =   0.0138889
        k(   27) = (   0.0336599  -0.1009399   0.0000000), wk =   0.0138889
        k(   28) = (   0.0336599  -0.0831085   0.0000000), wk =   0.0138889
        k(   29) = (   0.0336599  -0.0652772   0.0000000), wk =   0.0138889
        k(   30) = (   0.0336599  -0.0474458   0.0000000), wk =   0.0138889
        k(   31) = (   0.0336599  -0.0296144   0.0000000), wk =   0.0138889
        k(   32) = (   0.0504899  -0.0176746   0.0000000), wk =   0.0138889
        k(   33) = (   0.0504899   0.0001567   0.0000000), wk =   0.0138889
        k(   34) = (   0.0504899   0.0179881   0.0000000), wk =   0.0138889
        k(   35) = (   0.0504899   0.0358195   0.0000000), wk =   0.0138889
        k(   36) = (   0.0504899   0.0536508   0.0000000), wk =   0.0138889
        k(   37) = (   0.0504899   0.0714822   0.0000000), wk =   0.0138889
        k(   38) = (   0.0504899  -0.1246628   0.0000000), wk =   0.0138889
        k(   39) = (   0.0504899  -0.1068314   0.0000000), wk =   0.0138889
        k(   40) = (   0.0504899  -0.0890001   0.0000000), wk =   0.0138889
        k(   41) = (   0.0504899  -0.0711687   0.0000000), wk =   0.0138889
        k(   42) = (   0.0504899  -0.0533373   0.0000000), wk =   0.0138889
        k(   43) = (   0.0504899  -0.0355060   0.0000000), wk =   0.0138889
        k(   44) = (   0.0673198  -0.0235662   0.0000000), wk =   0.0138889
        k(   45) = (   0.0673198  -0.0057348   0.0000000), wk =   0.0138889
        k(   46) = (   0.0673198   0.0120966   0.0000000), wk =   0.0138889
        k(   47) = (   0.0673198   0.0299279   0.0000000), wk =   0.0138889
        k(   48) = (   0.0673198   0.0477593   0.0000000), wk =   0.0138889
        k(   49) = (   0.0673198   0.0655907   0.0000000), wk =   0.0138889
        k(   50) = (   0.0673198  -0.1305543   0.0000000), wk =   0.0138889
        k(   51) = (   0.0673198  -0.1127230   0.0000000), wk =   0.0138889
        k(   52) = (   0.0673198  -0.0948916   0.0000000), wk =   0.0138889
        k(   53) = (   0.0673198  -0.0770602   0.0000000), wk =   0.0138889
        k(   54) = (   0.0673198  -0.0592289   0.0000000), wk =   0.0138889
        k(   55) = (   0.0673198  -0.0413975   0.0000000), wk =   0.0138889
        k(   56) = (   0.0841498  -0.0294577   0.0000000), wk =   0.0138889
        k(   57) = (   0.0841498  -0.0116263   0.0000000), wk =   0.0138889
        k(   58) = (   0.0841498   0.0062050   0.0000000), wk =   0.0138889
        k(   59) = (   0.0841498   0.0240364   0.0000000), wk =   0.0138889
        k(   60) = (   0.0841498   0.0418678   0.0000000), wk =   0.0138889
        k(   61) = (   0.0841498   0.0596991   0.0000000), wk =   0.0138889
        k(   62) = (   0.0841498  -0.1364459   0.0000000), wk =   0.0138889
        k(   63) = (   0.0841498  -0.1186145   0.0000000), wk =   0.0138889
        k(   64) = (   0.0841498  -0.1007831   0.0000000), wk =   0.0138889
        k(   65) = (   0.0841498  -0.0829518   0.0000000), wk =   0.0138889
        k(   66) = (   0.0841498  -0.0651204   0.0000000), wk =   0.0138889
        k(   67) = (   0.0841498  -0.0472891   0.0000000), wk =   0.0138889
        k(   68) = (  -0.1009797   0.0353492   0.0000000), wk =   0.0069444
        k(   69) = (  -0.1009797   0.0531806   0.0000000), wk =   0.0138889
        k(   70) = (  -0.1009797   0.0710120   0.0000000), wk =   0.0138889
        k(   71) = (  -0.1009797   0.0888433   0.0000000), wk =   0.0138889
        k(   72) = (  -0.1009797   0.1066747   0.0000000), wk =   0.0138889
        k(   73) = (  -0.1009797   0.1245060   0.0000000), wk =   0.0138889
        k(   74) = (  -0.1009797  -0.0716389   0.0000000), wk =   0.0069444

     Check: negative core charge=   -0.000005
     Generating pointlists ...
     new r_m :   0.9897 (alat units)  1.8702 (a.u.) for type    1
     new r_m :   0.9897 (alat units)  1.8702 (a.u.) for type    2

     Initial potential from superposition of free atoms

     starting charge  149.99515, renormalised to  150.00000

     %%%%%%%%%%%%%%%%%%%%%%%%%%%%%%%%%%%%%%%%%%%%%%%%%%%%%%%%%%%%%%%%%%%%%%%%
     %                                                                      %
     % You are using vdW-DF, which was implemented by the Thonhauser group. %
     % Please cite the following two papers that made this development      %
     % possible and the two reviews that describe the various versions:     %
     %                                                                      %
     %   T. Thonhauser et al., PRL 115, 136402 (2015).                      %
     %   T. Thonhauser et al., PRB 76, 125112 (2007).                       %
     %   K. Berland et al., Rep. Prog. Phys. 78, 066501 (2015).             %
     %   D.C. Langreth et al., J. Phys.: Condens. Matter 21, 084203 (2009). %
     %                                                                      %
     %                                                                      %
     % If you are calculating the stress with vdW-DF, please also cite:     %
     %                                                                      %
     %   R. Sabatini et al., J. Phys.: Condens. Matter 24, 424209 (2012).   %
     %                                                                      %
     %%%%%%%%%%%%%%%%%%%%%%%%%%%%%%%%%%%%%%%%%%%%%%%%%%%%%%%%%%%%%%%%%%%%%%%%

     Adding external electric field

     Computed dipole along edir(3) :
        Dipole                0.0001 Ry au,          0.0003 Debye
        Dipole field          0.0000 Ry au,

        Potential amp.       -0.0000 Ry
        Total length         44.2902 bohr

[...]

     Starting wfcs are  114 randomized atomic wfcs

     Self-consistent Calculation

     iteration #  1     ecut=    55.12 Ry     beta= 0.10
     Davidson diagonalization with overlap
     ethr =  1.00E-02,  avg # of iterations =  5.9

[...]

     total energy              =   -2103.91728040 Ry
     estimated scf accuracy    <      63.87958306 Ry

     total magnetization       =    30.00 Bohr mag/cell
     absolute magnetization    =    32.42 Bohr mag/cell

[...]

     iteration # 18     ecut=    55.12 Ry     beta= 0.10
     Davidson diagonalization with overlap
     c_bands:  2 eigenvalues not converged
     c_bands:  1 eigenvalues not converged
     ethr =  5.82E-04,  avg # of iterations =  5.4

[...]

     iteration # 35     ecut=    55.12 Ry     beta= 0.10
     Davidson diagonalization with overlap
     ethr =  2.42E-08,  avg # of iterations =  5.0

[...]

     total energy              =   -2130.82666871 Ry
     estimated scf accuracy    <       0.00001404 Ry

[...]

     iteration # 36     ecut=    55.12 Ry     beta= 0.10
     Davidson diagonalization with overlap
     c_bands:  1 eigenvalues not converged
     c_bands:  1 eigenvalues not converged
     ethr =  9.36E-09,  avg # of iterations =  7.4

[...]

     Adding external electric field

     Computed dipole along edir(3) :
        Dipole                0.0180 Ry au,          0.0458 Debye
        Dipole field          0.0001 Ry au,

        Potential amp.       -0.0053 Ry
        Total length         44.2902 bohr

     Magnetic moment per site:
     atom:    1    charge:   15.3375    magn:    1.9008    constr:    0.0000
     atom:    2    charge:   15.3373    magn:    1.9012    constr:    0.0000
     atom:    3    charge:    6.2083    magn:    2.8643    constr:    0.0000
     atom:    4    charge:    6.2078    magn:    2.8646    constr:    0.0000
     atom:    5    charge:   15.3913    magn:    1.9065    constr:    0.0000
     atom:    6    charge:   15.3915    magn:    1.9063    constr:    0.0000
     atom:    7    charge:    6.2860    magn:    2.7715    constr:    0.0000
     atom:    8    charge:    6.2860    magn:    2.7715    constr:    0.0000
     atom:    9    charge:   15.3638    magn:    1.8641    constr:    0.0000
     atom:   10    charge:   15.3642    magn:    1.8637    constr:    0.0000
     atom:   11    charge:    6.2018    magn:    2.8818    constr:    0.0000
     atom:   12    charge:    6.2018    magn:    2.8820    constr:    0.0000

     End of self-consistent calculation

     Number of k-points >= 100: set verbosity='high' to print the bands.

     the Fermi energy is     0.1535 ev

!    total energy              =   -2130.01561060 Ry
     estimated scf accuracy    <       0.00000752 Ry
     smearing contrib. (-TS)   =      -0.04445149 Ry
     internal energy E=F+TS    =   -2129.97115911 Ry

     The total energy is F=E-TS. E is the sum of the following terms:
     one-electron contribution =  -16035.47776182 Ry
     hartree contribution      =    8057.15790712 Ry
     xc contribution           =    -383.52479795 Ry
     ewald contribution        =    6231.87349245 Ry
     electric field correction =       0.00000109 Ry

     total magnetization       =    27.53 Bohr mag/cell
     absolute magnetization    =    30.05 Bohr mag/cell

     convergence has been achieved in  36 iterations

     Forces acting on atoms (cartesian axes, Ry/au):

     atom    1 type  1   force =     0.00044474    0.00018003    0.01669619
     atom    2 type  1   force =     0.00041229    0.00041345    0.01671346
     atom    3 type  2   force =     0.00061105    0.00039426   -0.00201101
     atom    4 type  2   force =     0.00062738    0.00049340   -0.00191259
     atom    5 type  1   force =    -0.00003525   -0.00029009   -0.00157168
     atom    6 type  1   force =    -0.00016706    0.00016228   -0.00151845
     atom    7 type  2   force =    -0.00010671   -0.00019140   -0.01244001
     atom    8 type  2   force =    -0.00003045    0.00009717   -0.01243478
     atom    9 type  1   force =    -0.00063625   -0.00038184    0.00193616
     atom   10 type  1   force =    -0.00061559   -0.00052873    0.00190373
     atom   11 type  2   force =    -0.00025385   -0.00012861   -0.00272147
     atom   12 type  2   force =    -0.00025031   -0.00021990   -0.00263957

     Total force =     0.030084     Total SCF correction =     0.012573
     SCF correction compared to forces is large: reduce conv_thr to get better values

     Writing output data file ./Co2Fe2/Co2Fe2_beef.save/

     General routines

     Parallel routines

   This run was terminated on:  22:34:27  27Jun2022

   JOB DONE.