     Program PWSCF v.6.6 starts on 27Jun2022 at 11:54:12

     R & G space division:  proc/nbgrp/npool/nimage =      37
     Fft bands division:     nmany     =       1
     Reading input from Co2Hf2.in
Warning: card &CELL ignored
Warning: card / ignored

     Current dimensions of program PWSCF are:
     Max number of different atomic species (ntypx) = 10
     Max number of k-points (npk) =  40000
     Max angular momentum in pseudopotentials (lmaxx) =  3
     Presently stress not available with electric field and gates

     Message from routine cell_base_init:
     DEPRECATED: use true lattice parameter, not A to a.u. conversion factor
     file Co.pbe-spn-rrkjus_psl.0.3.1.UPF: wavefunction(s)  3P renormalized

     IMPORTANT: XC functional enforced from input :
     Exchange-correlation= BEEF-VDW
                           (   1   4  43  14   2   0   0)
     Any further DFT definition will be discarded
     Please, verify this is what you really want

     Subspace diagonalization in iterative solution of the eigenvalue problem:
     a serial algorithm will be used

     bravais-lattice index     =            0
     lattice parameter (alat)  =       1.8897  a.u.
     unit-cell volume          =    4688.9473 (a.u.)^3
     number of atoms/cell      =           12
     number of atomic types    =            2
     number of electrons       =       174.00
     number of Kohn-Sham states=          104
     kinetic-energy cutoff     =      55.1240  Ry
     charge density cutoff     =     551.2396  Ry
     convergence threshold     =      1.0E-05
     mixing beta               =       0.1000
     number of iterations used =           10  plain     mixing
     Exchange-correlation= BEEF-VDW
                           (   1   4  43  14   2   0   0)

     celldm(1)=   1.889726  celldm(2)=   0.000000  celldm(3)=   0.000000
     celldm(4)=   0.000000  celldm(5)=   0.000000  celldm(6)=   0.000000

     crystal axes: (cart. coord. in units of alat)
               a(1) = (   5.484216   0.000000   0.000000 )
               a(2) = (   1.809157   5.177217   0.000000 )
               a(3) = (   0.000000   0.000000  24.471913 )

     reciprocal axes: (cart. coord. in units 2 pi/alat)
               b(1) = (  0.182341 -0.063718  0.000000 )
               b(2) = (  0.000000  0.193154  0.000000 )
               b(3) = (  0.000000  0.000000  0.040863 )

     PseudoPot. # 1 for Co read from file:
     ../pseudo/Co.pbe-spn-rrkjus_psl.0.3.1.UPF
     MD5 check sum: 99b21b1f85602741a4c0ed67614a7280
     Pseudo is Ultrasoft + core correction, Zval = 17.0
     Generated using "atomic" code by A. Dal Corso v.6.2.2
     Using radial grid of 1193 points,  6 beta functions with:
                l(1) =   0
                l(2) =   0
                l(3) =   1
                l(4) =   1
                l(5) =   2
                l(6) =   2
     Q(r) pseudized with 0 coefficients

     PseudoPot. # 2 for Hf read from file:
     ../pseudo/Hf.pbe-spn-rrkjus_psl.1.0.0.UPF
     MD5 check sum: 9605440c6f839e558204c6a924125fd0
     Pseudo is Ultrasoft + core correction, Zval = 12.0
     Generated using "atomic" code by A. Dal Corso v.6.2.2
     Using radial grid of 1271 points,  6 beta functions with:
                l(1) =   0
                l(2) =   0
                l(3) =   1
                l(4) =   1
                l(5) =   2
                l(6) =   2
     Q(r) pseudized with 0 coefficients

     atomic species   valence    mass     pseudopotential
        Co            17.00    58.93319     Co( 1.00)
        Hf            12.00   178.49000     Hf( 1.00)

     Starting magnetic structure
     atomic species   magnetization
        Co           1.000
        Hf           0.000

     No symmetry found

   Cartesian axes

     site n.     atom                  positions (alat units)
         1           Co  tau(   1) = (   0.0000000   0.0000000  10.0000000  )
         2           Co  tau(   2) = (   3.6466861   2.5886084  10.0000000  )
         3           Hf  tau(   3) = (   2.7421078   0.0000000  10.0000000  )
         4           Hf  tau(   4) = (   0.9045783   2.5886084  10.0000000  )
         5           Co  tau(   5) = (   5.4842157   3.8929830  12.2359563  )
         6           Co  tau(   6) = (   1.8375296   1.3043745  12.2359563  )
         7           Hf  tau(   7) = (   2.7421078   3.8929830  12.2359563  )
         8           Hf  tau(   8) = (   4.5796374   1.3043745  12.2359563  )
         9           Co  tau(   9) = (   3.6677266   2.6035481  14.2240196  )
        10           Co  tau(  10) = (   0.0211424   0.0150038  14.2239791  )
        11           Hf  tau(  11) = (   0.9227746   2.6015019  14.4686227  )
        12           Hf  tau(  12) = (   2.7602843   0.0129255  14.4686254  )

     number of k points=    74  Fermi-Dirac smearing, width (Ry)=  0.0100
                       cart. coord. in units 2pi/alat
        k(    1) = (   0.0000000   0.0000000   0.0000000), wk =   0.0069444
        k(    2) = (   0.0000000   0.0160962   0.0000000), wk =   0.0138889
        k(    3) = (   0.0000000   0.0321923   0.0000000), wk =   0.0138889
        k(    4) = (   0.0000000   0.0482885   0.0000000), wk =   0.0138889
        k(    5) = (   0.0000000   0.0643847   0.0000000), wk =   0.0138889
        k(    6) = (   0.0000000   0.0804808   0.0000000), wk =   0.0138889
        k(    7) = (   0.0000000  -0.0965770   0.0000000), wk =   0.0069444
        k(    8) = (   0.0151951  -0.0053099   0.0000000), wk =   0.0138889
        k(    9) = (   0.0151951   0.0107863   0.0000000), wk =   0.0138889
        k(   10) = (   0.0151951   0.0268825   0.0000000), wk =   0.0138889
        k(   11) = (   0.0151951   0.0429786   0.0000000), wk =   0.0138889
        k(   12) = (   0.0151951   0.0590748   0.0000000), wk =   0.0138889
        k(   13) = (   0.0151951   0.0751709   0.0000000), wk =   0.0138889
        k(   14) = (   0.0151951  -0.1018869   0.0000000), wk =   0.0138889
        k(   15) = (   0.0151951  -0.0857907   0.0000000), wk =   0.0138889
        k(   16) = (   0.0151951  -0.0696945   0.0000000), wk =   0.0138889
        k(   17) = (   0.0151951  -0.0535984   0.0000000), wk =   0.0138889
        k(   18) = (   0.0151951  -0.0375022   0.0000000), wk =   0.0138889
        k(   19) = (   0.0151951  -0.0214060   0.0000000), wk =   0.0138889
        k(   20) = (   0.0303902  -0.0106197   0.0000000), wk =   0.0138889
        k(   21) = (   0.0303902   0.0054764   0.0000000), wk =   0.0138889
        k(   22) = (   0.0303902   0.0215726   0.0000000), wk =   0.0138889
        k(   23) = (   0.0303902   0.0376687   0.0000000), wk =   0.0138889
        k(   24) = (   0.0303902   0.0537649   0.0000000), wk =   0.0138889
        k(   25) = (   0.0303902   0.0698611   0.0000000), wk =   0.0138889
        k(   26) = (   0.0303902  -0.1071967   0.0000000), wk =   0.0138889
        k(   27) = (   0.0303902  -0.0911006   0.0000000), wk =   0.0138889
        k(   28) = (   0.0303902  -0.0750044   0.0000000), wk =   0.0138889
        k(   29) = (   0.0303902  -0.0589082   0.0000000), wk =   0.0138889
        k(   30) = (   0.0303902  -0.0428121   0.0000000), wk =   0.0138889
        k(   31) = (   0.0303902  -0.0267159   0.0000000), wk =   0.0138889
        k(   32) = (   0.0455854  -0.0159296   0.0000000), wk =   0.0138889
        k(   33) = (   0.0455854   0.0001665   0.0000000), wk =   0.0138889
        k(   34) = (   0.0455854   0.0162627   0.0000000), wk =   0.0138889
        k(   35) = (   0.0455854   0.0323589   0.0000000), wk =   0.0138889
        k(   36) = (   0.0455854   0.0484550   0.0000000), wk =   0.0138889
        k(   37) = (   0.0455854   0.0645512   0.0000000), wk =   0.0138889
        k(   38) = (   0.0455854  -0.1125066   0.0000000), wk =   0.0138889
        k(   39) = (   0.0455854  -0.0964104   0.0000000), wk =   0.0138889
        k(   40) = (   0.0455854  -0.0803143   0.0000000), wk =   0.0138889
        k(   41) = (   0.0455854  -0.0642181   0.0000000), wk =   0.0138889
        k(   42) = (   0.0455854  -0.0481219   0.0000000), wk =   0.0138889
        k(   43) = (   0.0455854  -0.0320258   0.0000000), wk =   0.0138889
        k(   44) = (   0.0607805  -0.0212395   0.0000000), wk =   0.0138889
        k(   45) = (   0.0607805  -0.0051433   0.0000000), wk =   0.0138889
        k(   46) = (   0.0607805   0.0109528   0.0000000), wk =   0.0138889
        k(   47) = (   0.0607805   0.0270490   0.0000000), wk =   0.0138889
        k(   48) = (   0.0607805   0.0431452   0.0000000), wk =   0.0138889
        k(   49) = (   0.0607805   0.0592413   0.0000000), wk =   0.0138889
        k(   50) = (   0.0607805  -0.1178165   0.0000000), wk =   0.0138889
        k(   51) = (   0.0607805  -0.1017203   0.0000000), wk =   0.0138889
        k(   52) = (   0.0607805  -0.0856241   0.0000000), wk =   0.0138889
        k(   53) = (   0.0607805  -0.0695280   0.0000000), wk =   0.0138889
        k(   54) = (   0.0607805  -0.0534318   0.0000000), wk =   0.0138889
        k(   55) = (   0.0607805  -0.0373357   0.0000000), wk =   0.0138889
        k(   56) = (   0.0759756  -0.0265494   0.0000000), wk =   0.0138889
        k(   57) = (   0.0759756  -0.0104532   0.0000000), wk =   0.0138889
        k(   58) = (   0.0759756   0.0056430   0.0000000), wk =   0.0138889
        k(   59) = (   0.0759756   0.0217391   0.0000000), wk =   0.0138889
        k(   60) = (   0.0759756   0.0378353   0.0000000), wk =   0.0138889
        k(   61) = (   0.0759756   0.0539315   0.0000000), wk =   0.0138889
        k(   62) = (   0.0759756  -0.1231263   0.0000000), wk =   0.0138889
        k(   63) = (   0.0759756  -0.1070302   0.0000000), wk =   0.0138889
        k(   64) = (   0.0759756  -0.0909340   0.0000000), wk =   0.0138889
        k(   65) = (   0.0759756  -0.0748379   0.0000000), wk =   0.0138889
        k(   66) = (   0.0759756  -0.0587417   0.0000000), wk =   0.0138889
        k(   67) = (   0.0759756  -0.0426455   0.0000000), wk =   0.0138889
        k(   68) = (  -0.0911707   0.0318592   0.0000000), wk =   0.0069444
        k(   69) = (  -0.0911707   0.0479554   0.0000000), wk =   0.0138889
        k(   70) = (  -0.0911707   0.0640516   0.0000000), wk =   0.0138889
        k(   71) = (  -0.0911707   0.0801477   0.0000000), wk =   0.0138889
        k(   72) = (  -0.0911707   0.0962439   0.0000000), wk =   0.0138889
        k(   73) = (  -0.0911707   0.1123401   0.0000000), wk =   0.0138889
        k(   74) = (  -0.0911707  -0.0647177   0.0000000), wk =   0.0069444

     Check: negative core charge=   -0.000004
     Generating pointlists ...
     new r_m :   1.0494 (alat units)  1.9830 (a.u.) for type    1
     new r_m :   1.0494 (alat units)  1.9830 (a.u.) for type    2

     Initial potential from superposition of free atoms

     starting charge  173.98666, renormalised to  174.00000

     %%%%%%%%%%%%%%%%%%%%%%%%%%%%%%%%%%%%%%%%%%%%%%%%%%%%%%%%%%%%%%%%%%%%%%%%
     %                                                                      %
     % You are using vdW-DF, which was implemented by the Thonhauser group. %
     % Please cite the following two papers that made this development      %
     % possible and the two reviews that describe the various versions:     %
     %                                                                      %
     %   T. Thonhauser et al., PRL 115, 136402 (2015).                      %
     %   T. Thonhauser et al., PRB 76, 125112 (2007).                       %
     %   K. Berland et al., Rep. Prog. Phys. 78, 066501 (2015).             %
     %   D.C. Langreth et al., J. Phys.: Condens. Matter 21, 084203 (2009). %
     %                                                                      %
     %                                                                      %
     % If you are calculating the stress with vdW-DF, please also cite:     %
     %                                                                      %
     %   R. Sabatini et al., J. Phys.: Condens. Matter 24, 424209 (2012).   %
     %                                                                      %
     %%%%%%%%%%%%%%%%%%%%%%%%%%%%%%%%%%%%%%%%%%%%%%%%%%%%%%%%%%%%%%%%%%%%%%%%

     Adding external electric field

     Computed dipole along edir(3) :
        Dipole                0.0009 Ry au,          0.0024 Debye
        Dipole field          0.0000 Ry au,

        Potential amp.       -0.0002 Ry
        Total length         45.0891 bohr

[...]

     Starting wfcs are  120 randomized atomic wfcs

     Self-consistent Calculation

     iteration #  1     ecut=    55.12 Ry     beta= 0.10
     Davidson diagonalization with overlap
     ethr =  1.00E-02,  avg # of iterations =  6.3

[...]

     total energy              =   -2490.88427540 Ry
     estimated scf accuracy    <      43.42603579 Ry

     total magnetization       =    31.60 Bohr mag/cell
     absolute magnetization    =    32.68 Bohr mag/cell

[...]

     iteration # 21     ecut=    55.12 Ry     beta= 0.10
     Davidson diagonalization with overlap
     c_bands:  5 eigenvalues not converged
     c_bands:  1 eigenvalues not converged
     ethr =  5.05E-04,  avg # of iterations =  2.1

[...]

     iteration # 33     ecut=    55.12 Ry     beta= 0.10
     Davidson diagonalization with overlap
     c_bands:  2 eigenvalues not converged
     ethr =  3.99E-07,  avg # of iterations =  6.6

[...]

     total energy              =   -2513.62039128 Ry
     estimated scf accuracy    <       0.00001184 Ry

[...]

     iteration # 79     ecut=    55.12 Ry     beta= 0.10
     Davidson diagonalization with overlap
     ethr =  6.04E-09,  avg # of iterations =  5.8

[...]

     Adding external electric field

     Computed dipole along edir(3) :
        Dipole                0.0907 Ry au,          0.2305 Debye
        Dipole field          0.0002 Ry au,

        Potential amp.       -0.0219 Ry
        Total length         45.0891 bohr

     Magnetic moment per site:
     atom:    1    charge:   15.7066    magn:    0.5932    constr:    0.0000
     atom:    2    charge:   15.7073    magn:    0.5945    constr:    0.0000
     atom:    3    charge:    8.8705    magn:   -0.1201    constr:    0.0000
     atom:    4    charge:    8.8705    magn:   -0.1201    constr:    0.0000
     atom:    5    charge:   15.7722    magn:    0.6678    constr:    0.0000
     atom:    6    charge:   15.7724    magn:    0.6674    constr:    0.0000
     atom:    7    charge:    8.9522    magn:   -0.0452    constr:    0.0000
     atom:    8    charge:    8.9522    magn:   -0.0452    constr:    0.0000
     atom:    9    charge:   15.7823    magn:    0.0109    constr:    0.0000
     atom:   10    charge:   15.7831    magn:    0.0113    constr:    0.0000
     atom:   11    charge:    8.8658    magn:   -0.0359    constr:    0.0000
     atom:   12    charge:    8.8658    magn:   -0.0359    constr:    0.0000

     End of self-consistent calculation

     Number of k-points >= 100: set verbosity='high' to print the bands.

     the Fermi energy is     1.4703 ev

!    total energy              =   -2513.51650860 Ry
     estimated scf accuracy    <       0.00000727 Ry
     smearing contrib. (-TS)   =      -0.04660908 Ry
     internal energy E=F+TS    =   -2513.46989952 Ry

     The total energy is F=E-TS. E is the sum of the following terms:
     one-electron contribution =  -17219.09324764 Ry
     hartree contribution      =    8605.27212148 Ry
     xc contribution           =    -447.89163431 Ry
     ewald contribution        =    6548.24283890 Ry
     electric field correction =       0.00002205 Ry

     total magnetization       =     1.32 Bohr mag/cell
     absolute magnetization    =     3.83 Bohr mag/cell

     convergence has been achieved in  79 iterations

     Forces acting on atoms (cartesian axes, Ry/au):

     atom    1 type  1   force =     0.00006509    0.00005727    0.04586231
     atom    2 type  1   force =     0.00006624    0.00004058    0.04595596
     atom    3 type  2   force =     0.00184920    0.00131179   -0.01406089
     atom    4 type  2   force =     0.00185486    0.00131561   -0.01407777
     atom    5 type  1   force =    -0.00012426   -0.00010390   -0.00144380
     atom    6 type  1   force =    -0.00011157   -0.00006168   -0.00143776
     atom    7 type  2   force =    -0.00108478   -0.00077338   -0.02726961
     atom    8 type  2   force =    -0.00110050   -0.00077881   -0.02727465
     atom    9 type  1   force =    -0.00043207   -0.00031515   -0.00245465
     atom   10 type  1   force =    -0.00045256   -0.00031481   -0.00243710
     atom   11 type  2   force =    -0.00025472   -0.00018783   -0.00067717
     atom   12 type  2   force =    -0.00027493   -0.00018969   -0.00068488

     Total force =     0.078298     Total SCF correction =     0.010373
     SCF correction compared to forces is large: reduce conv_thr to get better values

     Writing output data file ./Co2Hf2/Co2Hf2_beef.save/

     General routines

     Parallel routines

   This run was terminated on:  23:31:31  27Jun2022

   JOB DONE.