     Program PWSCF v.6.6 starts on 27Jun2022 at 23:31:39

     R & G space division:  proc/nbgrp/npool/nimage =      37
     Fft bands division:     nmany     =       1
     Reading input from Co2Hg2.in
Warning: card &CELL ignored
Warning: card / ignored

     Current dimensions of program PWSCF are:
     Max number of different atomic species (ntypx) = 10
     Max number of k-points (npk) =  40000
     Max angular momentum in pseudopotentials (lmaxx) =  3
     Presently stress not available with electric field and gates

     Message from routine cell_base_init:
     DEPRECATED: use true lattice parameter, not A to a.u. conversion factor
     file Co.pbe-spn-rrkjus_psl.0.3.1.UPF: wavefunction(s)  3P renormalized
     file Hg.pbe-n-rrkjus_psl.1.0.0.UPF: wavefunction(s)  6S renormalized

     IMPORTANT: XC functional enforced from input :
     Exchange-correlation= BEEF-VDW
                           (   1   4  43  14   2   0   0)
     Any further DFT definition will be discarded
     Please, verify this is what you really want

     Subspace diagonalization in iterative solution of the eigenvalue problem:
     a serial algorithm will be used

     bravais-lattice index     =            0
     lattice parameter (alat)  =       1.8897  a.u.
     unit-cell volume          =    4777.7859 (a.u.)^3
     number of atoms/cell      =           12
     number of atomic types    =            2
     number of electrons       =       174.00
     number of Kohn-Sham states=          104
     kinetic-energy cutoff     =      55.1240  Ry
     charge density cutoff     =     551.2396  Ry
     convergence threshold     =      1.0E-05
     mixing beta               =       0.1000
     number of iterations used =           10  plain     mixing
     Exchange-correlation= BEEF-VDW
                           (   1   4  43  14   2   0   0)

     celldm(1)=   1.889726  celldm(2)=   0.000000  celldm(3)=   0.000000
     celldm(4)=   0.000000  celldm(5)=   0.000000  celldm(6)=   0.000000

     crystal axes: (cart. coord. in units of alat)
               a(1) = (   5.528091   0.000000   0.000000 )
               a(2) = (   1.797687   5.227630   0.000000 )
               a(3) = (   0.000000   0.000000  24.499101 )

     reciprocal axes: (cart. coord. in units 2 pi/alat)
               b(1) = (  0.180894 -0.062206  0.000000 )
               b(2) = (  0.000000  0.191291  0.000000 )
               b(3) = (  0.000000  0.000000  0.040818 )

     PseudoPot. # 1 for Co read from file:
     ../pseudo/Co.pbe-spn-rrkjus_psl.0.3.1.UPF
     MD5 check sum: 99b21b1f85602741a4c0ed67614a7280
     Pseudo is Ultrasoft + core correction, Zval = 17.0
     Generated using "atomic" code by A. Dal Corso v.6.2.2
     Using radial grid of 1193 points,  6 beta functions with:
                l(1) =   0
                l(2) =   0
                l(3) =   1
                l(4) =   1
                l(5) =   2
                l(6) =   2
     Q(r) pseudized with 0 coefficients

     PseudoPot. # 2 for Hg read from file:
     ../pseudo/Hg.pbe-n-rrkjus_psl.1.0.0.UPF
     MD5 check sum: 7519ac2e5b9cac440d3cfd4127d6ea3c
     Pseudo is Ultrasoft + core correction, Zval = 12.0
     Generated using "atomic" code by A. Dal Corso v.6.3
     Using radial grid of 1279 points,  6 beta functions with:
                l(1) =   0
                l(2) =   0
                l(3) =   1
                l(4) =   1
                l(5) =   2
                l(6) =   2
     Q(r) pseudized with 0 coefficients

     atomic species   valence    mass     pseudopotential
        Co            17.00    58.93319     Co( 1.00)
        Hg            12.00   200.59200     Hg( 1.00)

     Starting magnetic structure
     atomic species   magnetization
        Co           1.000
        Hg           0.000

     No symmetry found

   Cartesian axes

     site n.     atom                  positions (alat units)
         1           Co  tau(   1) = (   0.0000000   0.0000000  10.0000000  )
         2           Co  tau(   2) = (   3.6628893   2.6138149  10.0000000  )
         3           Hg  tau(   3) = (   2.7640457   0.0000000  10.0000000  )
         4           Hg  tau(   4) = (   0.8988437   2.6138149  10.0000000  )
         5           Co  tau(   5) = (   5.5280913   3.9448114  12.2495504  )
         6           Co  tau(   6) = (   1.8652020   1.3309965  12.2495504  )
         7           Hg  tau(   7) = (   2.7640457   3.9448114  12.2495504  )
         8           Hg  tau(   8) = (   4.6292476   1.3309965  12.2495504  )
         9           Co  tau(   9) = (   3.7383510   2.6676635  14.3672117  )
        10           Co  tau(  10) = (   0.0755963   0.0539461  14.3670444  )
        11           Hg  tau(  11) = (   0.9718192   2.6660115  14.7931625  )
        12           Hg  tau(  12) = (   2.8371398   0.0520371  14.7931626  )

     number of k points=    74  Fermi-Dirac smearing, width (Ry)=  0.0100
                       cart. coord. in units 2pi/alat
        k(    1) = (   0.0000000   0.0000000   0.0000000), wk =   0.0069444
        k(    2) = (   0.0000000   0.0159409   0.0000000), wk =   0.0138889
        k(    3) = (   0.0000000   0.0318819   0.0000000), wk =   0.0138889
        k(    4) = (   0.0000000   0.0478228   0.0000000), wk =   0.0138889
        k(    5) = (   0.0000000   0.0637638   0.0000000), wk =   0.0138889
        k(    6) = (   0.0000000   0.0797047   0.0000000), wk =   0.0138889
        k(    7) = (   0.0000000  -0.0956456   0.0000000), wk =   0.0069444
        k(    8) = (   0.0150745  -0.0051839   0.0000000), wk =   0.0138889
        k(    9) = (   0.0150745   0.0107571   0.0000000), wk =   0.0138889
        k(   10) = (   0.0150745   0.0266980   0.0000000), wk =   0.0138889
        k(   11) = (   0.0150745   0.0426390   0.0000000), wk =   0.0138889
        k(   12) = (   0.0150745   0.0585799   0.0000000), wk =   0.0138889
        k(   13) = (   0.0150745   0.0745208   0.0000000), wk =   0.0138889
        k(   14) = (   0.0150745  -0.1008295   0.0000000), wk =   0.0138889
        k(   15) = (   0.0150745  -0.0848886   0.0000000), wk =   0.0138889
        k(   16) = (   0.0150745  -0.0689476   0.0000000), wk =   0.0138889
        k(   17) = (   0.0150745  -0.0530067   0.0000000), wk =   0.0138889
        k(   18) = (   0.0150745  -0.0370657   0.0000000), wk =   0.0138889
        k(   19) = (   0.0150745  -0.0211248   0.0000000), wk =   0.0138889
        k(   20) = (   0.0301490  -0.0103677   0.0000000), wk =   0.0138889
        k(   21) = (   0.0301490   0.0055732   0.0000000), wk =   0.0138889
        k(   22) = (   0.0301490   0.0215142   0.0000000), wk =   0.0138889
        k(   23) = (   0.0301490   0.0374551   0.0000000), wk =   0.0138889
        k(   24) = (   0.0301490   0.0533960   0.0000000), wk =   0.0138889
        k(   25) = (   0.0301490   0.0693370   0.0000000), wk =   0.0138889
        k(   26) = (   0.0301490  -0.1060133   0.0000000), wk =   0.0138889
        k(   27) = (   0.0301490  -0.0900724   0.0000000), wk =   0.0138889
        k(   28) = (   0.0301490  -0.0741315   0.0000000), wk =   0.0138889
        k(   29) = (   0.0301490  -0.0581905   0.0000000), wk =   0.0138889
        k(   30) = (   0.0301490  -0.0422496   0.0000000), wk =   0.0138889
        k(   31) = (   0.0301490  -0.0263086   0.0000000), wk =   0.0138889
        k(   32) = (   0.0452236  -0.0155516   0.0000000), wk =   0.0138889
        k(   33) = (   0.0452236   0.0003894   0.0000000), wk =   0.0138889
        k(   34) = (   0.0452236   0.0163303   0.0000000), wk =   0.0138889
        k(   35) = (   0.0452236   0.0322713   0.0000000), wk =   0.0138889
        k(   36) = (   0.0452236   0.0482122   0.0000000), wk =   0.0138889
        k(   37) = (   0.0452236   0.0641531   0.0000000), wk =   0.0138889
        k(   38) = (   0.0452236  -0.1111972   0.0000000), wk =   0.0138889
        k(   39) = (   0.0452236  -0.0952563   0.0000000), wk =   0.0138889
        k(   40) = (   0.0452236  -0.0793153   0.0000000), wk =   0.0138889
        k(   41) = (   0.0452236  -0.0633744   0.0000000), wk =   0.0138889
        k(   42) = (   0.0452236  -0.0474334   0.0000000), wk =   0.0138889
        k(   43) = (   0.0452236  -0.0314925   0.0000000), wk =   0.0138889
        k(   44) = (   0.0602981  -0.0207354   0.0000000), wk =   0.0138889
        k(   45) = (   0.0602981  -0.0047945   0.0000000), wk =   0.0138889
        k(   46) = (   0.0602981   0.0111465   0.0000000), wk =   0.0138889
        k(   47) = (   0.0602981   0.0270874   0.0000000), wk =   0.0138889
        k(   48) = (   0.0602981   0.0430283   0.0000000), wk =   0.0138889
        k(   49) = (   0.0602981   0.0589693   0.0000000), wk =   0.0138889
        k(   50) = (   0.0602981  -0.1163811   0.0000000), wk =   0.0138889
        k(   51) = (   0.0602981  -0.1004401   0.0000000), wk =   0.0138889
        k(   52) = (   0.0602981  -0.0844992   0.0000000), wk =   0.0138889
        k(   53) = (   0.0602981  -0.0685582   0.0000000), wk =   0.0138889
        k(   54) = (   0.0602981  -0.0526173   0.0000000), wk =   0.0138889
        k(   55) = (   0.0602981  -0.0366764   0.0000000), wk =   0.0138889
        k(   56) = (   0.0753726  -0.0259193   0.0000000), wk =   0.0138889
        k(   57) = (   0.0753726  -0.0099783   0.0000000), wk =   0.0138889
        k(   58) = (   0.0753726   0.0059626   0.0000000), wk =   0.0138889
        k(   59) = (   0.0753726   0.0219035   0.0000000), wk =   0.0138889
        k(   60) = (   0.0753726   0.0378445   0.0000000), wk =   0.0138889
        k(   61) = (   0.0753726   0.0537854   0.0000000), wk =   0.0138889
        k(   62) = (   0.0753726  -0.1215649   0.0000000), wk =   0.0138889
        k(   63) = (   0.0753726  -0.1056240   0.0000000), wk =   0.0138889
        k(   64) = (   0.0753726  -0.0896830   0.0000000), wk =   0.0138889
        k(   65) = (   0.0753726  -0.0737421   0.0000000), wk =   0.0138889
        k(   66) = (   0.0753726  -0.0578012   0.0000000), wk =   0.0138889
        k(   67) = (   0.0753726  -0.0418602   0.0000000), wk =   0.0138889
        k(   68) = (  -0.0904471   0.0311031   0.0000000), wk =   0.0069444
        k(   69) = (  -0.0904471   0.0470441   0.0000000), wk =   0.0138889
        k(   70) = (  -0.0904471   0.0629850   0.0000000), wk =   0.0138889
        k(   71) = (  -0.0904471   0.0789259   0.0000000), wk =   0.0138889
        k(   72) = (  -0.0904471   0.0948669   0.0000000), wk =   0.0138889
        k(   73) = (  -0.0904471   0.1108078   0.0000000), wk =   0.0138889
        k(   74) = (  -0.0904471  -0.0645425   0.0000000), wk =   0.0069444

     Check: negative core charge=   -0.000005
     Generating pointlists ...
     new r_m :   1.0964 (alat units)  2.0718 (a.u.) for type    1
     new r_m :   1.0964 (alat units)  2.0718 (a.u.) for type    2

     Initial potential from superposition of free atoms

     starting charge  173.99780, renormalised to  174.00000

     %%%%%%%%%%%%%%%%%%%%%%%%%%%%%%%%%%%%%%%%%%%%%%%%%%%%%%%%%%%%%%%%%%%%%%%%
     %                                                                      %
     % You are using vdW-DF, which was implemented by the Thonhauser group. %
     % Please cite the following two papers that made this development      %
     % possible and the two reviews that describe the various versions:     %
     %                                                                      %
     %   T. Thonhauser et al., PRL 115, 136402 (2015).                      %
     %   T. Thonhauser et al., PRB 76, 125112 (2007).                       %
     %   K. Berland et al., Rep. Prog. Phys. 78, 066501 (2015).             %
     %   D.C. Langreth et al., J. Phys.: Condens. Matter 21, 084203 (2009). %
     %                                                                      %
     %                                                                      %
     % If you are calculating the stress with vdW-DF, please also cite:     %
     %                                                                      %
     %   R. Sabatini et al., J. Phys.: Condens. Matter 24, 424209 (2012).   %
     %                                                                      %
     %%%%%%%%%%%%%%%%%%%%%%%%%%%%%%%%%%%%%%%%%%%%%%%%%%%%%%%%%%%%%%%%%%%%%%%%

     Adding external electric field

     Computed dipole along edir(3) :
        Dipole               -0.0001 Ry au,         -0.0003 Debye
        Dipole field         -0.0000 Ry au,

        Potential amp.        0.0000 Ry
        Total length         45.1392 bohr

[...]

     Starting wfcs are  114 randomized atomic wfcs

     Self-consistent Calculation

     iteration #  1     ecut=    55.12 Ry     beta= 0.10
     Davidson diagonalization with overlap
     c_bands:  1 eigenvalues not converged
     c_bands:  2 eigenvalues not converged
     c_bands:  5 eigenvalues not converged
     ethr =  1.00E-02,  avg # of iterations =  9.6

[...]

     total energy              =   -2339.76799872 Ry
     estimated scf accuracy    <      39.31901080 Ry

     total magnetization       =    32.45 Bohr mag/cell
     absolute magnetization    =    34.14 Bohr mag/cell

     iteration #  2     ecut=    55.12 Ry     beta= 0.10
     Davidson diagonalization with overlap
     ethr =  1.00E-02,  avg # of iterations =  1.6

[...]

     iteration # 70     ecut=    55.12 Ry     beta= 0.10
     Davidson diagonalization with overlap
     c_bands:  1 eigenvalues not converged
     ethr =  6.20E-08,  avg # of iterations =  4.0

[...]

     total energy              =   -2363.03121927 Ry
     estimated scf accuracy    <       0.00001644 Ry

[...]

     iteration # 77     ecut=    55.12 Ry     beta= 0.10
     Davidson diagonalization with overlap
     ethr =  9.45E-09,  avg # of iterations =  1.5

[...]

     Adding external electric field

     Computed dipole along edir(3) :
        Dipole               -0.0134 Ry au,         -0.0340 Debye
        Dipole field         -0.0000 Ry au,

        Potential amp.        0.0032 Ry
        Total length         45.1392 bohr

     Magnetic moment per site:
     atom:    1    charge:   15.6928    magn:    1.7967    constr:    0.0000
     atom:    2    charge:   15.6943    magn:    1.7978    constr:    0.0000
     atom:    3    charge:    9.6191    magn:   -0.0169    constr:    0.0000
     atom:    4    charge:    9.6191    magn:   -0.0169    constr:    0.0000
     atom:    5    charge:   15.7406    magn:    1.7276    constr:    0.0000
     atom:    6    charge:   15.7392    magn:    1.7275    constr:    0.0000
     atom:    7    charge:    9.6448    magn:   -0.0186    constr:    0.0000
     atom:    8    charge:    9.6448    magn:   -0.0186    constr:    0.0000
     atom:    9    charge:   15.7090    magn:    1.7778    constr:    0.0000
     atom:   10    charge:   15.7081    magn:    1.7810    constr:    0.0000
     atom:   11    charge:    9.5979    magn:   -0.0146    constr:    0.0000
     atom:   12    charge:    9.5979    magn:   -0.0146    constr:    0.0000

     End of self-consistent calculation

     Number of k-points >= 100: set verbosity='high' to print the bands.

     the Fermi energy is     0.7719 ev

!    total energy              =   -2362.36115865 Ry
     estimated scf accuracy    <       0.00000945 Ry
     smearing contrib. (-TS)   =      -0.08923175 Ry
     internal energy E=F+TS    =   -2362.27192690 Ry

     The total energy is F=E-TS. E is the sum of the following terms:
     one-electron contribution =  -16391.33732813 Ry
     hartree contribution      =    8239.44302437 Ry
     xc contribution           =    -392.23246518 Ry
     ewald contribution        =    6181.85484158 Ry
     electric field correction =       0.00000047 Ry

     total magnetization       =     9.89 Bohr mag/cell
     absolute magnetization    =    11.81 Bohr mag/cell

     convergence has been achieved in  77 iterations

     Forces acting on atoms (cartesian axes, Ry/au):

     atom    1 type  1   force =    -0.00091069   -0.00063975    0.01686663
     atom    2 type  1   force =    -0.00111563   -0.00080642    0.01719977
     atom    3 type  2   force =     0.00058348    0.00087825   -0.03259782
     atom    4 type  2   force =     0.00100382    0.00025698   -0.03259652
     atom    5 type  1   force =    -0.00034257   -0.00024116    0.01824060
     atom    6 type  1   force =     0.00017602    0.00013409    0.01816558
     atom    7 type  2   force =    -0.00073416   -0.00125512   -0.00678590
     atom    8 type  2   force =    -0.00142465   -0.00028888   -0.00681112
     atom    9 type  1   force =     0.00142254    0.00100751    0.00229256
     atom   10 type  1   force =     0.00169808    0.00121023    0.00291933
     atom   11 type  2   force =    -0.00002347   -0.00033505    0.00156419
     atom   12 type  2   force =    -0.00033277    0.00007934    0.00154270

     Total force =     0.059132     Total SCF correction =     0.007397
     SCF correction compared to forces is large: reduce conv_thr to get better values

     Writing output data file ./Co2Hg2/Co2Hg2_beef.save/

     General routines

     Parallel routines

   This run was terminated on:   9:49:18  28Jun2022

   JOB DONE.