     Program PWSCF v.6.6 starts on 28Jun2022 at 14:58:47

     R & G space division:  proc/nbgrp/npool/nimage =      37
     Fft bands division:     nmany     =       1
     Reading input from Co2La2.in
Warning: card &CELL ignored
Warning: card / ignored

     Current dimensions of program PWSCF are:
     Max number of different atomic species (ntypx) = 10
     Max number of k-points (npk) =  40000
     Max angular momentum in pseudopotentials (lmaxx) =  3
     Presently stress not available with electric field and gates

     Message from routine cell_base_init:
     DEPRECATED: use true lattice parameter, not A to a.u. conversion factor
     file Co.pbe-spn-rrkjus_psl.0.3.1.UPF: wavefunction(s)  3P renormalized
     file La.pbe-spfn-rrkjus_psl.1.0.0.UPF: wavefunction(s)  4F renormalized

     IMPORTANT: XC functional enforced from input :
     Exchange-correlation= BEEF-VDW
                           (   1   4  43  14   2   0   0)
     Any further DFT definition will be discarded
     Please, verify this is what you really want

     Subspace diagonalization in iterative solution of the eigenvalue problem:
     a serial algorithm will be used

     bravais-lattice index     =            0
     lattice parameter (alat)  =       1.8897  a.u.
     unit-cell volume          =    6031.6557 (a.u.)^3
     number of atoms/cell      =           12
     number of atomic types    =            2
     number of electrons       =       168.00
     number of Kohn-Sham states=          101
     kinetic-energy cutoff     =      55.1240  Ry
     charge density cutoff     =     551.2396  Ry
     convergence threshold     =      1.0E-05
     mixing beta               =       0.1000
     number of iterations used =           10  plain     mixing
     Exchange-correlation= BEEF-VDW
                           (   1   4  43  14   2   0   0)

     celldm(1)=   1.889726  celldm(2)=   0.000000  celldm(3)=   0.000000
     celldm(4)=   0.000000  celldm(5)=   0.000000  celldm(6)=   0.000000

     crystal axes: (cart. coord. in units of alat)
               a(1) = (   6.155772   0.000000   0.000000 )
               a(2) = (   2.058661   5.801331   0.000000 )
               a(3) = (   0.000000   0.000000  25.028214 )

     reciprocal axes: (cart. coord. in units 2 pi/alat)
               b(1) = (  0.162449 -0.057647  0.000000 )
               b(2) = (  0.000000  0.172374  0.000000 )
               b(3) = (  0.000000  0.000000  0.039955 )

     PseudoPot. # 1 for Co read from file:
     ../pseudo/Co.pbe-spn-rrkjus_psl.0.3.1.UPF
     MD5 check sum: 99b21b1f85602741a4c0ed67614a7280
     Pseudo is Ultrasoft + core correction, Zval = 17.0
     Generated using "atomic" code by A. Dal Corso v.6.2.2
     Using radial grid of 1193 points,  6 beta functions with:
                l(1) =   0
                l(2) =   0
                l(3) =   1
                l(4) =   1
                l(5) =   2
                l(6) =   2
     Q(r) pseudized with 0 coefficients

     PseudoPot. # 2 for La read from file:
     ../pseudo/La.pbe-spfn-rrkjus_psl.1.0.0.UPF
     MD5 check sum: e3bc141c2ecb461b8d0a035ce9ac970e
     Pseudo is Ultrasoft + core correction, Zval = 11.0
     Generated using "atomic" code by A. Dal Corso v.6.2.2
     Using radial grid of 1253 points,  8 beta functions with:
                l(1) =   0
                l(2) =   0
                l(3) =   1
                l(4) =   1
                l(5) =   2
                l(6) =   2
                l(7) =   3
                l(8) =   3
     Q(r) pseudized with 0 coefficients

     atomic species   valence    mass     pseudopotential
        Co            17.00    58.93319     Co( 1.00)
        La            11.00   138.90547     La( 1.00)

     Starting magnetic structure
     atomic species   magnetization
        Co           1.000
        La           0.000

     No symmetry found

   Cartesian axes

     site n.     atom                  positions (alat units)
         1           Co  tau(   1) = (   0.0000000   0.0000000  10.0000000  )
         2           Co  tau(   2) = (   4.1072165   2.9006656  10.0000000  )
         3           La  tau(   3) = (   3.0778860   0.0000000  10.0000000  )
         4           La  tau(   4) = (   1.0293305   2.9006656  10.0000000  )
         5           Co  tau(   5) = (   6.1557720   4.3474300  12.5141070  )
         6           Co  tau(   6) = (   2.0485555   1.4467644  12.5141070  )
         7           La  tau(   7) = (   3.0778860   4.3474300  12.5141070  )
         8           La  tau(   8) = (   5.1264415   1.4467644  12.5141070  )
         9           Co  tau(   9) = (   4.0942688   2.8915498  14.6870397  )
        10           Co  tau(  10) = (   8.2016334   5.7922805  14.6870075  )
        11           La  tau(  11) = (   7.1805472   2.8974502  15.0624719  )
        12           La  tau(  12) = (   5.1319857   5.7981147  15.0625265  )

     number of k points=    74  Fermi-Dirac smearing, width (Ry)=  0.0100
                       cart. coord. in units 2pi/alat
        k(    1) = (   0.0000000   0.0000000   0.0000000), wk =   0.0069444
        k(    2) = (   0.0000000   0.0143645   0.0000000), wk =   0.0138889
        k(    3) = (   0.0000000   0.0287290   0.0000000), wk =   0.0138889
        k(    4) = (   0.0000000   0.0430936   0.0000000), wk =   0.0138889
        k(    5) = (   0.0000000   0.0574581   0.0000000), wk =   0.0138889
        k(    6) = (   0.0000000   0.0718226   0.0000000), wk =   0.0138889
        k(    7) = (   0.0000000  -0.0861871   0.0000000), wk =   0.0069444
        k(    8) = (   0.0135374  -0.0048039   0.0000000), wk =   0.0138889
        k(    9) = (   0.0135374   0.0095606   0.0000000), wk =   0.0138889
        k(   10) = (   0.0135374   0.0239251   0.0000000), wk =   0.0138889
        k(   11) = (   0.0135374   0.0382897   0.0000000), wk =   0.0138889
        k(   12) = (   0.0135374   0.0526542   0.0000000), wk =   0.0138889
        k(   13) = (   0.0135374   0.0670187   0.0000000), wk =   0.0138889
        k(   14) = (   0.0135374  -0.0909910   0.0000000), wk =   0.0138889
        k(   15) = (   0.0135374  -0.0766265   0.0000000), wk =   0.0138889
        k(   16) = (   0.0135374  -0.0622620   0.0000000), wk =   0.0138889
        k(   17) = (   0.0135374  -0.0478975   0.0000000), wk =   0.0138889
        k(   18) = (   0.0135374  -0.0335329   0.0000000), wk =   0.0138889
        k(   19) = (   0.0135374  -0.0191684   0.0000000), wk =   0.0138889
        k(   20) = (   0.0270749  -0.0096078   0.0000000), wk =   0.0138889
        k(   21) = (   0.0270749   0.0047567   0.0000000), wk =   0.0138889
        k(   22) = (   0.0270749   0.0191213   0.0000000), wk =   0.0138889
        k(   23) = (   0.0270749   0.0334858   0.0000000), wk =   0.0138889
        k(   24) = (   0.0270749   0.0478503   0.0000000), wk =   0.0138889
        k(   25) = (   0.0270749   0.0622148   0.0000000), wk =   0.0138889
        k(   26) = (   0.0270749  -0.0957949   0.0000000), wk =   0.0138889
        k(   27) = (   0.0270749  -0.0814304   0.0000000), wk =   0.0138889
        k(   28) = (   0.0270749  -0.0670659   0.0000000), wk =   0.0138889
        k(   29) = (   0.0270749  -0.0527013   0.0000000), wk =   0.0138889
        k(   30) = (   0.0270749  -0.0383368   0.0000000), wk =   0.0138889
        k(   31) = (   0.0270749  -0.0239723   0.0000000), wk =   0.0138889
        k(   32) = (   0.0406123  -0.0144117   0.0000000), wk =   0.0138889
        k(   33) = (   0.0406123  -0.0000472   0.0000000), wk =   0.0138889
        k(   34) = (   0.0406123   0.0143174   0.0000000), wk =   0.0138889
        k(   35) = (   0.0406123   0.0286819   0.0000000), wk =   0.0138889
        k(   36) = (   0.0406123   0.0430464   0.0000000), wk =   0.0138889
        k(   37) = (   0.0406123   0.0574109   0.0000000), wk =   0.0138889
        k(   38) = (   0.0406123  -0.1005988   0.0000000), wk =   0.0138889
        k(   39) = (   0.0406123  -0.0862343   0.0000000), wk =   0.0138889
        k(   40) = (   0.0406123  -0.0718698   0.0000000), wk =   0.0138889
        k(   41) = (   0.0406123  -0.0575052   0.0000000), wk =   0.0138889
        k(   42) = (   0.0406123  -0.0431407   0.0000000), wk =   0.0138889
        k(   43) = (   0.0406123  -0.0287762   0.0000000), wk =   0.0138889
        k(   44) = (   0.0541497  -0.0192156   0.0000000), wk =   0.0138889
        k(   45) = (   0.0541497  -0.0048511   0.0000000), wk =   0.0138889
        k(   46) = (   0.0541497   0.0095135   0.0000000), wk =   0.0138889
        k(   47) = (   0.0541497   0.0238780   0.0000000), wk =   0.0138889
        k(   48) = (   0.0541497   0.0382425   0.0000000), wk =   0.0138889
        k(   49) = (   0.0541497   0.0526070   0.0000000), wk =   0.0138889
        k(   50) = (   0.0541497  -0.1054027   0.0000000), wk =   0.0138889
        k(   51) = (   0.0541497  -0.0910382   0.0000000), wk =   0.0138889
        k(   52) = (   0.0541497  -0.0766737   0.0000000), wk =   0.0138889
        k(   53) = (   0.0541497  -0.0623091   0.0000000), wk =   0.0138889
        k(   54) = (   0.0541497  -0.0479446   0.0000000), wk =   0.0138889
        k(   55) = (   0.0541497  -0.0335801   0.0000000), wk =   0.0138889
        k(   56) = (   0.0676872  -0.0240195   0.0000000), wk =   0.0138889
        k(   57) = (   0.0676872  -0.0096550   0.0000000), wk =   0.0138889
        k(   58) = (   0.0676872   0.0047096   0.0000000), wk =   0.0138889
        k(   59) = (   0.0676872   0.0190741   0.0000000), wk =   0.0138889
        k(   60) = (   0.0676872   0.0334386   0.0000000), wk =   0.0138889
        k(   61) = (   0.0676872   0.0478031   0.0000000), wk =   0.0138889
        k(   62) = (   0.0676872  -0.1102066   0.0000000), wk =   0.0138889
        k(   63) = (   0.0676872  -0.0958421   0.0000000), wk =   0.0138889
        k(   64) = (   0.0676872  -0.0814775   0.0000000), wk =   0.0138889
        k(   65) = (   0.0676872  -0.0671130   0.0000000), wk =   0.0138889
        k(   66) = (   0.0676872  -0.0527485   0.0000000), wk =   0.0138889
        k(   67) = (   0.0676872  -0.0383840   0.0000000), wk =   0.0138889
        k(   68) = (  -0.0812246   0.0288234   0.0000000), wk =   0.0069444
        k(   69) = (  -0.0812246   0.0431879   0.0000000), wk =   0.0138889
        k(   70) = (  -0.0812246   0.0575524   0.0000000), wk =   0.0138889
        k(   71) = (  -0.0812246   0.0719169   0.0000000), wk =   0.0138889
        k(   72) = (  -0.0812246   0.0862814   0.0000000), wk =   0.0138889
        k(   73) = (  -0.0812246   0.1006460   0.0000000), wk =   0.0138889
        k(   74) = (  -0.0812246  -0.0573638   0.0000000), wk =   0.0069444

     Check: negative core charge=   -0.000006
     Generating pointlists ...
     new r_m :   1.1575 (alat units)  2.1874 (a.u.) for type    1
     new r_m :   1.1575 (alat units)  2.1874 (a.u.) for type    2

     Initial potential from superposition of free atoms

     starting charge  167.81956, renormalised to  168.00000

     %%%%%%%%%%%%%%%%%%%%%%%%%%%%%%%%%%%%%%%%%%%%%%%%%%%%%%%%%%%%%%%%%%%%%%%%
     %                                                                      %
     % You are using vdW-DF, which was implemented by the Thonhauser group. %
     % Please cite the following two papers that made this development      %
     % possible and the two reviews that describe the various versions:     %
     %                                                                      %
     %   T. Thonhauser et al., PRL 115, 136402 (2015).                      %
     %   T. Thonhauser et al., PRB 76, 125112 (2007).                       %
     %   K. Berland et al., Rep. Prog. Phys. 78, 066501 (2015).             %
     %   D.C. Langreth et al., J. Phys.: Condens. Matter 21, 084203 (2009). %
     %                                                                      %
     %                                                                      %
     % If you are calculating the stress with vdW-DF, please also cite:     %
     %                                                                      %
     %   R. Sabatini et al., J. Phys.: Condens. Matter 24, 424209 (2012).   %
     %                                                                      %
     %%%%%%%%%%%%%%%%%%%%%%%%%%%%%%%%%%%%%%%%%%%%%%%%%%%%%%%%%%%%%%%%%%%%%%%%

     Adding external electric field

     Computed dipole along edir(3) :
        Dipole                0.0255 Ry au,          0.0649 Debye
        Dipole field          0.0001 Ry au,

        Potential amp.       -0.0049 Ry
        Total length         46.1141 bohr

[...]

     Starting wfcs are  180 randomized atomic wfcs

     Self-consistent Calculation

     iteration #  1     ecut=    55.12 Ry     beta= 0.10
     Davidson diagonalization with overlap
     ethr =  1.00E-02,  avg # of iterations =  2.5

[...]

     total energy              =   -2495.14086559 Ry
     estimated scf accuracy    <      67.53629009 Ry

     total magnetization       =    31.79 Bohr mag/cell
     absolute magnetization    =    33.95 Bohr mag/cell

[...]

     iteration # 36     ecut=    55.12 Ry     beta= 0.10
     Davidson diagonalization with overlap
     c_bands:  1 eigenvalues not converged
     ethr =  3.02E-04,  avg # of iterations =  5.3

[...]

     iteration # 40     ecut=    55.12 Ry     beta= 0.10
     Davidson diagonalization with overlap
     ethr =  2.08E-04,  avg # of iterations =  1.2

[...]

     total energy              =   -2521.30689038 Ry
     estimated scf accuracy    <       0.00001008 Ry

[...]

     iteration # 64     ecut=    55.12 Ry     beta= 0.10
     Davidson diagonalization with overlap
     c_bands:  1 eigenvalues not converged
     ethr =  6.00E-09,  avg # of iterations =  3.8

[...]

     Adding external electric field

     Computed dipole along edir(3) :
        Dipole                0.1355 Ry au,          0.3445 Debye
        Dipole field          0.0003 Ry au,

        Potential amp.       -0.0260 Ry
        Total length         46.1141 bohr

     Magnetic moment per site:
     atom:    1    charge:   16.0435    magn:    1.3853    constr:    0.0000
     atom:    2    charge:   16.0422    magn:    1.3773    constr:    0.0000
     atom:    3    charge:    7.6391    magn:   -0.2036    constr:    0.0000
     atom:    4    charge:    7.6391    magn:   -0.2036    constr:    0.0000
     atom:    5    charge:   16.1075    magn:    1.1942    constr:    0.0000
     atom:    6    charge:   16.1074    magn:    1.2003    constr:    0.0000
     atom:    7    charge:    7.7085    magn:   -0.1712    constr:    0.0000
     atom:    8    charge:    7.7084    magn:   -0.1712    constr:    0.0000
     atom:    9    charge:   16.1388    magn:    1.0569    constr:    0.0000
     atom:   10    charge:   16.1384    magn:    1.0408    constr:    0.0000
     atom:   11    charge:    7.6295    magn:   -0.1775    constr:    0.0000
     atom:   12    charge:    7.6296    magn:   -0.1775    constr:    0.0000

     End of self-consistent calculation

     Number of k-points >= 100: set verbosity='high' to print the bands.

     the Fermi energy is     1.7956 ev

!    total energy              =   -2521.13090170 Ry
     estimated scf accuracy    <       0.00000903 Ry
     smearing contrib. (-TS)   =      -0.07672861 Ry
     internal energy E=F+TS    =   -2521.05417308 Ry

     The total energy is F=E-TS. E is the sum of the following terms:
     one-electron contribution =  -12704.55330959 Ry
     hartree contribution      =    6367.06343319 Ry
     xc contribution           =    -640.49827126 Ry
     ewald contribution        =    4456.93393632 Ry
     electric field correction =       0.00003827 Ry

     total magnetization       =     3.69 Bohr mag/cell
     absolute magnetization    =    10.94 Bohr mag/cell

     convergence has been achieved in  64 iterations

     Forces acting on atoms (cartesian axes, Ry/au):

     atom    1 type  1   force =     0.00008366    0.00002301    0.02104295
     atom    2 type  1   force =    -0.00000241    0.00002628    0.02086231
     atom    3 type  2   force =    -0.00042209   -0.00027657   -0.01387218
     atom    4 type  2   force =    -0.00039469   -0.00030427   -0.01386528
     atom    5 type  1   force =     0.00002643    0.00003319    0.00557588
     atom    6 type  1   force =     0.00016547    0.00010511    0.00562537
     atom    7 type  2   force =     0.00021957    0.00028549   -0.01313345
     atom    8 type  2   force =     0.00032399    0.00009589   -0.01312858
     atom    9 type  1   force =     0.00008215    0.00008452   -0.00141226
     atom   10 type  1   force =     0.00012770    0.00007349   -0.00170864
     atom   11 type  2   force =    -0.00008284   -0.00007788    0.00201973
     atom   12 type  2   force =    -0.00012693   -0.00006826    0.00199414

     Total force =     0.041038     Total SCF correction =     0.005531
     SCF correction compared to forces is large: reduce conv_thr to get better values

     Writing output data file ./Co2La2/Co2La2_beef.save/

     General routines

     Parallel routines

   This run was terminated on:   7: 9:23  29Jun2022

   JOB DONE.