     Program PWSCF v.6.6 starts on 27Jun2022 at  2:12:48

     R & G space division:  proc/nbgrp/npool/nimage =      37
     Fft bands division:     nmany     =       1
     Reading input from Co2Mn2.in
Warning: card &CELL ignored
Warning: card / ignored

     Current dimensions of program PWSCF are:
     Max number of different atomic species (ntypx) = 10
     Max number of k-points (npk) =  40000
     Max angular momentum in pseudopotentials (lmaxx) =  3
     Presently stress not available with electric field and gates

     Message from routine cell_base_init:
     DEPRECATED: use true lattice parameter, not A to a.u. conversion factor
     file Co.pbe-spn-rrkjus_psl.0.3.1.UPF: wavefunction(s)  3P renormalized
     file Mn.pbe-spn-rrkjus_psl.0.3.1.UPF: wavefunction(s)  3D renormalized

     IMPORTANT: XC functional enforced from input :
     Exchange-correlation= BEEF-VDW
                           (   1   4  43  14   2   0   0)
     Any further DFT definition will be discarded
     Please, verify this is what you really want

     Subspace diagonalization in iterative solution of the eigenvalue problem:
     a serial algorithm will be used

     bravais-lattice index     =            0
     lattice parameter (alat)  =       1.8897  a.u.
     unit-cell volume          =    3705.7619 (a.u.)^3
     number of atoms/cell      =           12
     number of atomic types    =            2
     number of electrons       =       192.00
     number of Kohn-Sham states=          115
     kinetic-energy cutoff     =      55.1240  Ry
     charge density cutoff     =     551.2396  Ry
     convergence threshold     =      1.0E-05
     mixing beta               =       0.1000
     number of iterations used =           10  plain     mixing
     Exchange-correlation= BEEF-VDW
                           (   1   4  43  14   2   0   0)

     celldm(1)=   1.889726  celldm(2)=   0.000000  celldm(3)=   0.000000
     celldm(4)=   0.000000  celldm(5)=   0.000000  celldm(6)=   0.000000

     crystal axes: (cart. coord. in units of alat)
               a(1) = (   4.933829   0.000000   0.000000 )
               a(2) = (   1.708444   4.628595   0.000000 )
               a(3) = (   0.000000   0.000000  24.046270 )

     reciprocal axes: (cart. coord. in units 2 pi/alat)
               b(1) = (  0.202682 -0.074811  0.000000 )
               b(2) = (  0.000000  0.216048  0.000000 )
               b(3) = (  0.000000  0.000000  0.041586 )

     PseudoPot. # 1 for Co read from file:
     ../pseudo/Co.pbe-spn-rrkjus_psl.0.3.1.UPF
     MD5 check sum: 99b21b1f85602741a4c0ed67614a7280
     Pseudo is Ultrasoft + core correction, Zval = 17.0
     Generated using "atomic" code by A. Dal Corso v.6.2.2
     Using radial grid of 1193 points,  6 beta functions with:
                l(1) =   0
                l(2) =   0
                l(3) =   1
                l(4) =   1
                l(5) =   2
                l(6) =   2
     Q(r) pseudized with 0 coefficients

     PseudoPot. # 2 for Mn read from file:
     ../pseudo/Mn.pbe-spn-rrkjus_psl.0.3.1.UPF
     MD5 check sum: e1cac159bdd2ba70c18e85765a5d4279
     Pseudo is Ultrasoft + core correction, Zval = 15.0
     Generated using "atomic" code by A. Dal Corso v.6.2.2
     Using radial grid of 1187 points,  6 beta functions with:
                l(1) =   0
                l(2) =   0
                l(3) =   1
                l(4) =   1
                l(5) =   2
                l(6) =   2
     Q(r) pseudized with 0 coefficients

     atomic species   valence    mass     pseudopotential
        Co            17.00    58.93319     Co( 1.00)
        Mn            15.00    54.93804     Mn( 1.00)

     Starting magnetic structure
     atomic species   magnetization
        Co           1.000
        Mn           0.667

     No symmetry found

   Cartesian axes

     site n.     atom                  positions (alat units)
         1           Co  tau(   1) = (   0.0000000   0.0000000   9.9999997  )
         2           Co  tau(   2) = (   3.3211365   2.3142975   9.9999997  )
         3           Mn  tau(   3) = (   2.4669145   0.0000000   9.9999997  )
         4           Mn  tau(   4) = (   0.8542220   2.3142975   9.9999997  )
         5           Co  tau(   5) = (   4.9338286   3.4380843  12.0231350  )
         6           Co  tau(   6) = (   1.6126921   1.1237868  12.0231350  )
         7           Mn  tau(   7) = (   2.4669141   3.4380843  12.0231350  )
         8           Mn  tau(   8) = (   4.0796066   1.1237868  12.0231350  )
         9           Co  tau(   9) = (   3.2404402   2.2580036  13.9588501  )
        10           Co  tau(  10) = (   6.5615289   4.5723895  13.9588140  )
        11           Mn  tau(  11) = (   5.7115583   2.2609978  14.1259957  )
        12           Mn  tau(  12) = (   4.0988248   4.5752578  14.1259981  )

     number of k points=    74  Fermi-Dirac smearing, width (Ry)=  0.0100
                       cart. coord. in units 2pi/alat
        k(    1) = (   0.0000000   0.0000000   0.0000000), wk =   0.0069444
        k(    2) = (   0.0000000   0.0180040   0.0000000), wk =   0.0138889
        k(    3) = (   0.0000000   0.0360080   0.0000000), wk =   0.0138889
        k(    4) = (   0.0000000   0.0540121   0.0000000), wk =   0.0138889
        k(    5) = (   0.0000000   0.0720161   0.0000000), wk =   0.0138889
        k(    6) = (   0.0000000   0.0900201   0.0000000), wk =   0.0138889
        k(    7) = (   0.0000000  -0.1080241   0.0000000), wk =   0.0069444
        k(    8) = (   0.0168902  -0.0062343   0.0000000), wk =   0.0138889
        k(    9) = (   0.0168902   0.0117697   0.0000000), wk =   0.0138889
        k(   10) = (   0.0168902   0.0297738   0.0000000), wk =   0.0138889
        k(   11) = (   0.0168902   0.0477778   0.0000000), wk =   0.0138889
        k(   12) = (   0.0168902   0.0657818   0.0000000), wk =   0.0138889
        k(   13) = (   0.0168902   0.0837858   0.0000000), wk =   0.0138889
        k(   14) = (   0.0168902  -0.1142584   0.0000000), wk =   0.0138889
        k(   15) = (   0.0168902  -0.0962544   0.0000000), wk =   0.0138889
        k(   16) = (   0.0168902  -0.0782504   0.0000000), wk =   0.0138889
        k(   17) = (   0.0168902  -0.0602463   0.0000000), wk =   0.0138889
        k(   18) = (   0.0168902  -0.0422423   0.0000000), wk =   0.0138889
        k(   19) = (   0.0168902  -0.0242383   0.0000000), wk =   0.0138889
        k(   20) = (   0.0337804  -0.0124686   0.0000000), wk =   0.0138889
        k(   21) = (   0.0337804   0.0055355   0.0000000), wk =   0.0138889
        k(   22) = (   0.0337804   0.0235395   0.0000000), wk =   0.0138889
        k(   23) = (   0.0337804   0.0415435   0.0000000), wk =   0.0138889
        k(   24) = (   0.0337804   0.0595475   0.0000000), wk =   0.0138889
        k(   25) = (   0.0337804   0.0775516   0.0000000), wk =   0.0138889
        k(   26) = (   0.0337804  -0.1204927   0.0000000), wk =   0.0138889
        k(   27) = (   0.0337804  -0.1024887   0.0000000), wk =   0.0138889
        k(   28) = (   0.0337804  -0.0844847   0.0000000), wk =   0.0138889
        k(   29) = (   0.0337804  -0.0664806   0.0000000), wk =   0.0138889
        k(   30) = (   0.0337804  -0.0484766   0.0000000), wk =   0.0138889
        k(   31) = (   0.0337804  -0.0304726   0.0000000), wk =   0.0138889
        k(   32) = (   0.0506706  -0.0187028   0.0000000), wk =   0.0138889
        k(   33) = (   0.0506706  -0.0006988   0.0000000), wk =   0.0138889
        k(   34) = (   0.0506706   0.0173052   0.0000000), wk =   0.0138889
        k(   35) = (   0.0506706   0.0353092   0.0000000), wk =   0.0138889
        k(   36) = (   0.0506706   0.0533133   0.0000000), wk =   0.0138889
        k(   37) = (   0.0506706   0.0713173   0.0000000), wk =   0.0138889
        k(   38) = (   0.0506706  -0.1267270   0.0000000), wk =   0.0138889
        k(   39) = (   0.0506706  -0.1087230   0.0000000), wk =   0.0138889
        k(   40) = (   0.0506706  -0.0907189   0.0000000), wk =   0.0138889
        k(   41) = (   0.0506706  -0.0727149   0.0000000), wk =   0.0138889
        k(   42) = (   0.0506706  -0.0547109   0.0000000), wk =   0.0138889
        k(   43) = (   0.0506706  -0.0367069   0.0000000), wk =   0.0138889
        k(   44) = (   0.0675608  -0.0249371   0.0000000), wk =   0.0138889
        k(   45) = (   0.0675608  -0.0069331   0.0000000), wk =   0.0138889
        k(   46) = (   0.0675608   0.0110709   0.0000000), wk =   0.0138889
        k(   47) = (   0.0675608   0.0290750   0.0000000), wk =   0.0138889
        k(   48) = (   0.0675608   0.0470790   0.0000000), wk =   0.0138889
        k(   49) = (   0.0675608   0.0650830   0.0000000), wk =   0.0138889
        k(   50) = (   0.0675608  -0.1329613   0.0000000), wk =   0.0138889
        k(   51) = (   0.0675608  -0.1149572   0.0000000), wk =   0.0138889
        k(   52) = (   0.0675608  -0.0969532   0.0000000), wk =   0.0138889
        k(   53) = (   0.0675608  -0.0789492   0.0000000), wk =   0.0138889
        k(   54) = (   0.0675608  -0.0609452   0.0000000), wk =   0.0138889
        k(   55) = (   0.0675608  -0.0429411   0.0000000), wk =   0.0138889
        k(   56) = (   0.0844510  -0.0311714   0.0000000), wk =   0.0138889
        k(   57) = (   0.0844510  -0.0131674   0.0000000), wk =   0.0138889
        k(   58) = (   0.0844510   0.0048367   0.0000000), wk =   0.0138889
        k(   59) = (   0.0844510   0.0228407   0.0000000), wk =   0.0138889
        k(   60) = (   0.0844510   0.0408447   0.0000000), wk =   0.0138889
        k(   61) = (   0.0844510   0.0588487   0.0000000), wk =   0.0138889
        k(   62) = (   0.0844510  -0.1391955   0.0000000), wk =   0.0138889
        k(   63) = (   0.0844510  -0.1211915   0.0000000), wk =   0.0138889
        k(   64) = (   0.0844510  -0.1031875   0.0000000), wk =   0.0138889
        k(   65) = (   0.0844510  -0.0851835   0.0000000), wk =   0.0138889
        k(   66) = (   0.0844510  -0.0671794   0.0000000), wk =   0.0138889
        k(   67) = (   0.0844510  -0.0491754   0.0000000), wk =   0.0138889
        k(   68) = (  -0.1013412   0.0374057   0.0000000), wk =   0.0069444
        k(   69) = (  -0.1013412   0.0554097   0.0000000), wk =   0.0138889
        k(   70) = (  -0.1013412   0.0734137   0.0000000), wk =   0.0138889
        k(   71) = (  -0.1013412   0.0914177   0.0000000), wk =   0.0138889
        k(   72) = (  -0.1013412   0.1094218   0.0000000), wk =   0.0138889
        k(   73) = (  -0.1013412   0.1274258   0.0000000), wk =   0.0138889
        k(   74) = (  -0.1013412  -0.0706185   0.0000000), wk =   0.0069444

     Check: negative core charge=   -0.000010
     Generating pointlists ...
     new r_m :   0.9881 (alat units)  1.8672 (a.u.) for type    1
     new r_m :   0.9881 (alat units)  1.8672 (a.u.) for type    2

     Initial potential from superposition of free atoms

     starting charge  191.99530, renormalised to  192.00000

     %%%%%%%%%%%%%%%%%%%%%%%%%%%%%%%%%%%%%%%%%%%%%%%%%%%%%%%%%%%%%%%%%%%%%%%%
     %                                                                      %
     % You are using vdW-DF, which was implemented by the Thonhauser group. %
     % Please cite the following two papers that made this development      %
     % possible and the two reviews that describe the various versions:     %
     %                                                                      %
     %   T. Thonhauser et al., PRL 115, 136402 (2015).                      %
     %   T. Thonhauser et al., PRB 76, 125112 (2007).                       %
     %   K. Berland et al., Rep. Prog. Phys. 78, 066501 (2015).             %
     %   D.C. Langreth et al., J. Phys.: Condens. Matter 21, 084203 (2009). %
     %                                                                      %
     %                                                                      %
     % If you are calculating the stress with vdW-DF, please also cite:     %
     %                                                                      %
     %   R. Sabatini et al., J. Phys.: Condens. Matter 24, 424209 (2012).   %
     %                                                                      %
     %%%%%%%%%%%%%%%%%%%%%%%%%%%%%%%%%%%%%%%%%%%%%%%%%%%%%%%%%%%%%%%%%%%%%%%%

     Adding external electric field

     Computed dipole along edir(3) :
        Dipole                0.0001 Ry au,          0.0002 Debye
        Dipole field          0.0000 Ry au,

        Potential amp.       -0.0000 Ry
        Total length         44.3048 bohr

[...]

     Starting wfcs are  120 randomized atomic wfcs

     Self-consistent Calculation

     iteration #  1     ecut=    55.12 Ry     beta= 0.10
     Davidson diagonalization with overlap
     c_bands:  1 eigenvalues not converged
     ethr =  1.00E-02,  avg # of iterations =  6.1

[...]

     total energy              =   -3016.44373971 Ry
     estimated scf accuracy    <      62.25178567 Ry

     total magnetization       =    38.00 Bohr mag/cell
     absolute magnetization    =    43.80 Bohr mag/cell

     iteration #  2     ecut=    55.12 Ry     beta= 0.10
     Davidson diagonalization with overlap
     ethr =  1.00E-02,  avg # of iterations =  1.9

[...]

     iteration # 37     ecut=    55.12 Ry     beta= 0.10
     Davidson diagonalization with overlap
     c_bands:  1 eigenvalues not converged
     ethr =  1.48E-06,  avg # of iterations =  3.8

[...]

     total energy              =   -3044.83475686 Ry
     estimated scf accuracy    <       0.00001310 Ry

[...]

     iteration # 50     ecut=    55.12 Ry     beta= 0.10
     Davidson diagonalization with overlap
     ethr =  6.83E-09,  avg # of iterations =  4.3

[...]

     Adding external electric field

     Computed dipole along edir(3) :
        Dipole                0.0108 Ry au,          0.0274 Debye
        Dipole field          0.0000 Ry au,

        Potential amp.       -0.0032 Ry
        Total length         44.3048 bohr

     Magnetic moment per site:
     atom:    1    charge:   15.3918    magn:    1.5939    constr:    0.0000
     atom:    2    charge:   15.3919    magn:    1.5943    constr:    0.0000
     atom:    3    charge:   13.0803    magn:    3.2511    constr:    0.0000
     atom:    4    charge:   13.0803    magn:    3.2510    constr:    0.0000
     atom:    5    charge:   15.4295    magn:    1.6348    constr:    0.0000
     atom:    6    charge:   15.4296    magn:    1.6347    constr:    0.0000
     atom:    7    charge:   13.1401    magn:    2.6427    constr:    0.0000
     atom:    8    charge:   13.1404    magn:    2.6427    constr:    0.0000
     atom:    9    charge:   15.4204    magn:    1.4296    constr:    0.0000
     atom:   10    charge:   15.4202    magn:    1.4304    constr:    0.0000
     atom:   11    charge:   13.0600    magn:    3.3049    constr:    0.0000
     atom:   12    charge:   13.0600    magn:    3.3049    constr:    0.0000

     End of self-consistent calculation

     Number of k-points >= 100: set verbosity='high' to print the bands.

     the Fermi energy is     0.9827 ev

!    total energy              =   -3044.53315704 Ry
     estimated scf accuracy    <       0.00000747 Ry
     smearing contrib. (-TS)   =      -0.07282712 Ry
     internal energy E=F+TS    =   -3044.46032992 Ry

     The total energy is F=E-TS. E is the sum of the following terms:
     one-electron contribution =  -26182.37084953 Ry
     hartree contribution      =   13092.81243645 Ry
     xc contribution           =    -365.59862770 Ry
     ewald contribution        =   10410.69671046 Ry
     electric field correction =       0.00000040 Ry

     total magnetization       =    28.64 Bohr mag/cell
     absolute magnetization    =    29.72 Bohr mag/cell

     convergence has been achieved in  50 iterations

     Forces acting on atoms (cartesian axes, Ry/au):

     atom    1 type  1   force =    -0.00133731   -0.00095792    0.00084977
     atom    2 type  1   force =    -0.00135082   -0.00091241    0.00088257
     atom    3 type  2   force =    -0.00273545   -0.00191940   -0.00961273
     atom    4 type  2   force =    -0.00270495   -0.00186732   -0.00961384
     atom    5 type  1   force =     0.00017289    0.00013840    0.00669800
     atom    6 type  1   force =     0.00018340    0.00011237    0.00668962
     atom    7 type  2   force =     0.00187687    0.00129587   -0.00696938
     atom    8 type  2   force =     0.00183016    0.00128797   -0.00696622
     atom    9 type  1   force =     0.00151832    0.00109868    0.00991085
     atom   10 type  1   force =     0.00154896    0.00103574    0.00995553
     atom   11 type  2   force =     0.00050908    0.00037397   -0.00090430
     atom   12 type  2   force =     0.00048886    0.00031405   -0.00091988

     Total force =     0.024848     Total SCF correction =     0.004043
     SCF correction compared to forces is large: reduce conv_thr to get better values

     Writing output data file ./Co2Mn2/Co2Mn2_beef.save/

     General routines

     Parallel routines

   This run was terminated on:   7:14:58  27Jun2022

   JOB DONE.