     Program PWSCF v.6.6 starts on 29Jun2022 at  7:11: 8

     R & G space division:  proc/nbgrp/npool/nimage =      37
     Fft bands division:     nmany     =       1
     Reading input from Co2Ni2.in
Warning: card &CELL ignored
Warning: card / ignored

     Current dimensions of program PWSCF are:
     Max number of different atomic species (ntypx) = 10
     Max number of k-points (npk) =  40000
     Max angular momentum in pseudopotentials (lmaxx) =  3
     Presently stress not available with electric field and gates

     Message from routine cell_base_init:
     DEPRECATED: use true lattice parameter, not A to a.u. conversion factor
     file Co.pbe-spn-rrkjus_psl.0.3.1.UPF: wavefunction(s)  3P renormalized
     file Ni.pbe-n-rrkjus_psl.1.0.0.UPF: wavefunction(s)  3D renormalized

     IMPORTANT: XC functional enforced from input :
     Exchange-correlation= BEEF-VDW
                           (   1   4  43  14   2   0   0)
     Any further DFT definition will be discarded
     Please, verify this is what you really want

     Subspace diagonalization in iterative solution of the eigenvalue problem:
     a serial algorithm will be used

     bravais-lattice index     =            0
     lattice parameter (alat)  =       1.8897  a.u.
     unit-cell volume          =    3525.6431 (a.u.)^3
     number of atoms/cell      =           12
     number of atomic types    =            2
     number of electrons       =       162.00
     number of Kohn-Sham states=           97
     kinetic-energy cutoff     =      55.1240  Ry
     charge density cutoff     =     551.2396  Ry
     convergence threshold     =      1.0E-05
     mixing beta               =       0.1000
     number of iterations used =           10  plain     mixing
     Exchange-correlation= BEEF-VDW
                           (   1   4  43  14   2   0   0)

     celldm(1)=   1.889726  celldm(2)=   0.000000  celldm(3)=   0.000000
     celldm(4)=   0.000000  celldm(5)=   0.000000  celldm(6)=   0.000000

     crystal axes: (cart. coord. in units of alat)
               a(1) = (   4.948100   0.000000   0.000000 )
               a(2) = (  -2.474050   4.383891   0.000000 )
               a(3) = (   0.000000   0.000000  24.084832 )

     reciprocal axes: (cart. coord. in units 2 pi/alat)
               b(1) = (  0.202098  0.114054 -0.000000 )
               b(2) = (  0.000000  0.228108  0.000000 )
               b(3) = (  0.000000 -0.000000  0.041520 )

     PseudoPot. # 1 for Co read from file:
     ../pseudo/Co.pbe-spn-rrkjus_psl.0.3.1.UPF
     MD5 check sum: 99b21b1f85602741a4c0ed67614a7280
     Pseudo is Ultrasoft + core correction, Zval = 17.0
     Generated using "atomic" code by A. Dal Corso v.6.2.2
     Using radial grid of 1193 points,  6 beta functions with:
                l(1) =   0
                l(2) =   0
                l(3) =   1
                l(4) =   1
                l(5) =   2
                l(6) =   2
     Q(r) pseudized with 0 coefficients

     PseudoPot. # 2 for Ni read from file:
     ../pseudo/Ni.pbe-n-rrkjus_psl.1.0.0.UPF
     MD5 check sum: 9f76af1bddcd5839b31985483df98d0a
     Pseudo is Ultrasoft + core correction, Zval = 10.0
     Generated using "atomic" code by A. Dal Corso v.6.5
     Using radial grid of 1195 points,  6 beta functions with:
                l(1) =   0
                l(2) =   0
                l(3) =   1
                l(4) =   1
                l(5) =   2
                l(6) =   2
     Q(r) pseudized with 0 coefficients

     atomic species   valence    mass     pseudopotential
        Co            17.00    58.93319     Co( 1.00)
        Ni            10.00    58.69340     Ni( 1.00)

     Starting magnetic structure
     atomic species   magnetization
        Co           1.000
        Ni           0.500

     No symmetry found

   Cartesian axes

     site n.     atom                  positions (alat units)
         1           Co  tau(   1) = (   0.0000000   0.0000000  10.0000000  )
         2           Co  tau(   2) = (   2.4740500   0.0000000  10.0000000  )
         3           Ni  tau(   3) = (   1.2370250   2.1919453  10.0000000  )
         4           Ni  tau(   4) = (  -1.2370250   2.1919453  10.0000000  )
         5           Co  tau(   5) = (   2.4740500   1.3962309  12.0424159  )
         6           Co  tau(   6) = (  -0.0000000   1.3962309  12.0424159  )
         7           Ni  tau(   7) = (  -1.2370250   3.5881762  12.0424159  )
         8           Ni  tau(   8) = (   1.2370250   3.5881762  12.0424159  )
         9           Co  tau(   9) = (   0.0000007   2.8068774  14.0451847  )
        10           Co  tau(  10) = (   2.4740503   2.8067364  14.0447613  )
        11           Ni  tau(  11) = (   3.7109223   0.6295614  14.0543129  )
        12           Ni  tau(  12) = (   1.2371697   0.6295473  14.0543358  )

     number of k points=    74  Fermi-Dirac smearing, width (Ry)=  0.0100
                       cart. coord. in units 2pi/alat
        k(    1) = (   0.0000000   0.0000000   0.0000000), wk =   0.0069444
        k(    2) = (   0.0000000   0.0190090   0.0000000), wk =   0.0138889
        k(    3) = (   0.0000000   0.0380180   0.0000000), wk =   0.0138889
        k(    4) = (   0.0000000   0.0570270   0.0000000), wk =   0.0138889
        k(    5) = (   0.0000000   0.0760360   0.0000000), wk =   0.0138889
        k(    6) = (   0.0000000   0.0950449   0.0000000), wk =   0.0138889
        k(    7) = (   0.0000000  -0.1140539   0.0000000), wk =   0.0069444
        k(    8) = (   0.0168415   0.0095045   0.0000000), wk =   0.0138889
        k(    9) = (   0.0168415   0.0285135   0.0000000), wk =   0.0138889
        k(   10) = (   0.0168415   0.0475225   0.0000000), wk =   0.0138889
        k(   11) = (   0.0168415   0.0665315   0.0000000), wk =   0.0138889
        k(   12) = (   0.0168415   0.0855404   0.0000000), wk =   0.0138889
        k(   13) = (   0.0168415   0.1045494   0.0000000), wk =   0.0138889
        k(   14) = (   0.0168415  -0.1045494   0.0000000), wk =   0.0138889
        k(   15) = (   0.0168415  -0.0855404   0.0000000), wk =   0.0138889
        k(   16) = (   0.0168415  -0.0665315   0.0000000), wk =   0.0138889
        k(   17) = (   0.0168415  -0.0475225   0.0000000), wk =   0.0138889
        k(   18) = (   0.0168415  -0.0285135   0.0000000), wk =   0.0138889
        k(   19) = (   0.0168415  -0.0095045   0.0000000), wk =   0.0138889
        k(   20) = (   0.0336830   0.0190090   0.0000000), wk =   0.0138889
        k(   21) = (   0.0336830   0.0380180   0.0000000), wk =   0.0138889
        k(   22) = (   0.0336830   0.0570270   0.0000000), wk =   0.0138889
        k(   23) = (   0.0336830   0.0760360   0.0000000), wk =   0.0138889
        k(   24) = (   0.0336830   0.0950449   0.0000000), wk =   0.0138889
        k(   25) = (   0.0336830   0.1140539   0.0000000), wk =   0.0138889
        k(   26) = (   0.0336830  -0.0950449   0.0000000), wk =   0.0138889
        k(   27) = (   0.0336830  -0.0760360   0.0000000), wk =   0.0138889
        k(   28) = (   0.0336830  -0.0570270   0.0000000), wk =   0.0138889
        k(   29) = (   0.0336830  -0.0380180   0.0000000), wk =   0.0138889
        k(   30) = (   0.0336830  -0.0190090   0.0000000), wk =   0.0138889
        k(   31) = (   0.0336830  -0.0000000   0.0000000), wk =   0.0138889
        k(   32) = (   0.0505244   0.0285135   0.0000000), wk =   0.0138889
        k(   33) = (   0.0505244   0.0475225   0.0000000), wk =   0.0138889
        k(   34) = (   0.0505244   0.0665315   0.0000000), wk =   0.0138889
        k(   35) = (   0.0505244   0.0855404   0.0000000), wk =   0.0138889
        k(   36) = (   0.0505244   0.1045494   0.0000000), wk =   0.0138889
        k(   37) = (   0.0505244   0.1235584   0.0000000), wk =   0.0138889
        k(   38) = (   0.0505244  -0.0855404   0.0000000), wk =   0.0138889
        k(   39) = (   0.0505244  -0.0665315   0.0000000), wk =   0.0138889
        k(   40) = (   0.0505244  -0.0475225   0.0000000), wk =   0.0138889
        k(   41) = (   0.0505244  -0.0285135   0.0000000), wk =   0.0138889
        k(   42) = (   0.0505244  -0.0095045   0.0000000), wk =   0.0138889
        k(   43) = (   0.0505244   0.0095045   0.0000000), wk =   0.0138889
        k(   44) = (   0.0673659   0.0380180   0.0000000), wk =   0.0138889
        k(   45) = (   0.0673659   0.0570270   0.0000000), wk =   0.0138889
        k(   46) = (   0.0673659   0.0760360   0.0000000), wk =   0.0138889
        k(   47) = (   0.0673659   0.0950449   0.0000000), wk =   0.0138889
        k(   48) = (   0.0673659   0.1140539   0.0000000), wk =   0.0138889
        k(   49) = (   0.0673659   0.1330629   0.0000000), wk =   0.0138889
        k(   50) = (   0.0673659  -0.0760360   0.0000000), wk =   0.0138889
        k(   51) = (   0.0673659  -0.0570270   0.0000000), wk =   0.0138889
        k(   52) = (   0.0673659  -0.0380180   0.0000000), wk =   0.0138889
        k(   53) = (   0.0673659  -0.0190090   0.0000000), wk =   0.0138889
        k(   54) = (   0.0673659   0.0000000   0.0000000), wk =   0.0138889
        k(   55) = (   0.0673659   0.0190090   0.0000000), wk =   0.0138889
        k(   56) = (   0.0842074   0.0475225   0.0000000), wk =   0.0138889
        k(   57) = (   0.0842074   0.0665315   0.0000000), wk =   0.0138889
        k(   58) = (   0.0842074   0.0855404   0.0000000), wk =   0.0138889
        k(   59) = (   0.0842074   0.1045494   0.0000000), wk =   0.0138889
        k(   60) = (   0.0842074   0.1235584   0.0000000), wk =   0.0138889
        k(   61) = (   0.0842074   0.1425674   0.0000000), wk =   0.0138889
        k(   62) = (   0.0842074  -0.0665315   0.0000000), wk =   0.0138889
        k(   63) = (   0.0842074  -0.0475225   0.0000000), wk =   0.0138889
        k(   64) = (   0.0842074  -0.0285135   0.0000000), wk =   0.0138889
        k(   65) = (   0.0842074  -0.0095045   0.0000000), wk =   0.0138889
        k(   66) = (   0.0842074   0.0095045   0.0000000), wk =   0.0138889
        k(   67) = (   0.0842074   0.0285135   0.0000000), wk =   0.0138889
        k(   68) = (  -0.1010489  -0.0570270   0.0000000), wk =   0.0069444
        k(   69) = (  -0.1010489  -0.0380180   0.0000000), wk =   0.0138889
        k(   70) = (  -0.1010489  -0.0190090   0.0000000), wk =   0.0138889
        k(   71) = (  -0.1010489   0.0000000   0.0000000), wk =   0.0138889
        k(   72) = (  -0.1010489   0.0190090   0.0000000), wk =   0.0138889
        k(   73) = (  -0.1010489   0.0380180   0.0000000), wk =   0.0138889
        k(   74) = (  -0.1010489  -0.1710809   0.0000000), wk =   0.0069444

     Check: negative core charge=   -0.000006
     Generating pointlists ...
     new r_m :   1.0103 (alat units)  1.9092 (a.u.) for type    1
     new r_m :   1.0171 (alat units)  1.9220 (a.u.) for type    2

     Initial potential from superposition of free atoms

     starting charge  161.99681, renormalised to  162.00000

     %%%%%%%%%%%%%%%%%%%%%%%%%%%%%%%%%%%%%%%%%%%%%%%%%%%%%%%%%%%%%%%%%%%%%%%%
     %                                                                      %
     % You are using vdW-DF, which was implemented by the Thonhauser group. %
     % Please cite the following two papers that made this development      %
     % possible and the two reviews that describe the various versions:     %
     %                                                                      %
     %   T. Thonhauser et al., PRL 115, 136402 (2015).                      %
     %   T. Thonhauser et al., PRB 76, 125112 (2007).                       %
     %   K. Berland et al., Rep. Prog. Phys. 78, 066501 (2015).             %
     %   D.C. Langreth et al., J. Phys.: Condens. Matter 21, 084203 (2009). %
     %                                                                      %
     %                                                                      %
     % If you are calculating the stress with vdW-DF, please also cite:     %
     %                                                                      %
     %   R. Sabatini et al., J. Phys.: Condens. Matter 24, 424209 (2012).   %
     %                                                                      %
     %%%%%%%%%%%%%%%%%%%%%%%%%%%%%%%%%%%%%%%%%%%%%%%%%%%%%%%%%%%%%%%%%%%%%%%%

     Adding external electric field

     Computed dipole along edir(3) :
        Dipole                0.0000 Ry au,          0.0000 Debye
        Dipole field          0.0000 Ry au,

        Potential amp.       -0.0000 Ry
        Total length         44.3759 bohr

[...]

     Starting wfcs are  114 randomized atomic wfcs

     Self-consistent Calculation

     iteration #  1     ecut=    55.12 Ry     beta= 0.10
     Davidson diagonalization with overlap
     c_bands:  1 eigenvalues not converged
     c_bands:  2 eigenvalues not converged
     ethr =  1.00E-02,  avg # of iterations =  6.7

[...]

     total energy              =   -2343.01757117 Ry
     estimated scf accuracy    <      56.29795424 Ry

     total magnetization       =    32.00 Bohr mag/cell
     absolute magnetization    =    32.69 Bohr mag/cell

     iteration #  2     ecut=    55.12 Ry     beta= 0.10
     Davidson diagonalization with overlap
     ethr =  1.00E-02,  avg # of iterations =  1.5

[...]

     iteration # 44     ecut=    55.12 Ry     beta= 0.10
     Davidson diagonalization with overlap
     c_bands:  1 eigenvalues not converged
     ethr =  2.77E-08,  avg # of iterations =  7.6

[...]

     total energy              =   -2367.35401627 Ry
     estimated scf accuracy    <       0.00001726 Ry

[...]

     iteration # 47     ecut=    55.12 Ry     beta= 0.10
     Davidson diagonalization with overlap
     ethr =  1.07E-08,  avg # of iterations =  3.1

[...]

     Adding external electric field

     Computed dipole along edir(3) :
        Dipole                0.0022 Ry au,          0.0056 Debye
        Dipole field          0.0000 Ry au,

        Potential amp.       -0.0007 Ry
        Total length         44.3759 bohr

     Magnetic moment per site:
     atom:    1    charge:   15.4205    magn:    1.9503    constr:    0.0000
     atom:    2    charge:   15.4198    magn:    1.9506    constr:    0.0000
     atom:    3    charge:    8.6229    magn:    0.7029    constr:    0.0000
     atom:    4    charge:    8.6239    magn:    0.7022    constr:    0.0000
     atom:    5    charge:   15.4916    magn:    1.9389    constr:    0.0000
     atom:    6    charge:   15.4911    magn:    1.9395    constr:    0.0000
     atom:    7    charge:    8.6990    magn:    0.7372    constr:    0.0000
     atom:    8    charge:    8.6990    magn:    0.7372    constr:    0.0000
     atom:    9    charge:   15.4310    magn:    1.9444    constr:    0.0000
     atom:   10    charge:   15.4309    magn:    1.9445    constr:    0.0000
     atom:   11    charge:    8.6318    magn:    0.7048    constr:    0.0000
     atom:   12    charge:    8.6317    magn:    0.7049    constr:    0.0000

     End of self-consistent calculation

     Number of k-points >= 100: set verbosity='high' to print the bands.

     the Fermi energy is     0.1938 ev

!    total energy              =   -2367.07001801 Ry
     estimated scf accuracy    <       0.00000872 Ry
     smearing contrib. (-TS)   =      -0.06975717 Ry
     internal energy E=F+TS    =   -2367.00026084 Ry

     The total energy is F=E-TS. E is the sum of the following terms:
     one-electron contribution =  -19599.52424246 Ry
     hartree contribution      =    9860.23786144 Ry
     xc contribution           =    -449.68453993 Ry
     ewald contribution        =    7821.97066010 Ry
     electric field correction =       0.00000002 Ry

     total magnetization       =    15.03 Bohr mag/cell
     absolute magnetization    =    17.35 Bohr mag/cell

     convergence has been achieved in  47 iterations

     Forces acting on atoms (cartesian axes, Ry/au):

     atom    1 type  1   force =    -0.00003244    0.00325677    0.00627820
     atom    2 type  1   force =     0.00001263    0.00323025    0.00616312
     atom    3 type  2   force =    -0.00009464   -0.00541895    0.00355760
     atom    4 type  2   force =     0.00010081   -0.00544263    0.00355201
     atom    5 type  1   force =    -0.00008196    0.00055383   -0.00649214
     atom    6 type  1   force =     0.00008425    0.00056434   -0.00635701
     atom    7 type  2   force =     0.00006785    0.00142386   -0.00556392
     atom    8 type  2   force =    -0.00006853    0.00128560   -0.00568322
     atom    9 type  1   force =     0.00003141   -0.00122263    0.00068098
     atom   10 type  1   force =    -0.00002050   -0.00108203    0.00092564
     atom   11 type  2   force =     0.00019368    0.00141759    0.00147044
     atom   12 type  2   force =    -0.00019256    0.00143399    0.00146828

     Total force =     0.018583     Total SCF correction =     0.003041
     SCF correction compared to forces is large: reduce conv_thr to get better values

     Writing output data file ./Co2Ni2/Co2Ni2_beef.save/

     General routines

     Parallel routines

   This run was terminated on:  11:18:24  29Jun2022

   JOB DONE.