     Program PWSCF v.6.6 starts on 29Jun2022 at 14:35:56

     R & G space division:  proc/nbgrp/npool/nimage =      37
     Fft bands division:     nmany     =       1
     Reading input from Co2Os2.in
Warning: card &CELL ignored
Warning: card / ignored

     Current dimensions of program PWSCF are:
     Max number of different atomic species (ntypx) = 10
     Max number of k-points (npk) =  40000
     Max angular momentum in pseudopotentials (lmaxx) =  3
     Presently stress not available with electric field and gates

     Message from routine cell_base_init:
     DEPRECATED: use true lattice parameter, not A to a.u. conversion factor
     file Co.pbe-spn-rrkjus_psl.0.3.1.UPF: wavefunction(s)  3P renormalized

     IMPORTANT: XC functional enforced from input :
     Exchange-correlation= BEEF-VDW
                           (   1   4  43  14   2   0   0)
     Any further DFT definition will be discarded
     Please, verify this is what you really want

     Subspace diagonalization in iterative solution of the eigenvalue problem:
     a serial algorithm will be used

     bravais-lattice index     =            0
     lattice parameter (alat)  =       1.8897  a.u.
     unit-cell volume          =    3859.3810 (a.u.)^3
     number of atoms/cell      =           12
     number of atomic types    =            2
     number of electrons       =       198.00
     number of Kohn-Sham states=          119
     kinetic-energy cutoff     =      55.1240  Ry
     charge density cutoff     =     551.2396  Ry
     convergence threshold     =      1.0E-05
     mixing beta               =       0.1000
     number of iterations used =           10  plain     mixing
     Exchange-correlation= BEEF-VDW
                           (   1   4  43  14   2   0   0)

     celldm(1)=   1.889726  celldm(2)=   0.000000  celldm(3)=   0.000000
     celldm(4)=   0.000000  celldm(5)=   0.000000  celldm(6)=   0.000000

     crystal axes: (cart. coord. in units of alat)
               a(1) = (   5.207476   0.000000   0.000000 )
               a(2) = (   2.573792   4.526964   0.000000 )
               a(3) = (   0.000000   0.000000  24.259778 )

     reciprocal axes: (cart. coord. in units 2 pi/alat)
               b(1) = (  0.192032 -0.109179  0.000000 )
               b(2) = (  0.000000  0.220899  0.000000 )
               b(3) = (  0.000000  0.000000  0.041220 )

     PseudoPot. # 1 for Co read from file:
     ../pseudo/Co.pbe-spn-rrkjus_psl.0.3.1.UPF
     MD5 check sum: 99b21b1f85602741a4c0ed67614a7280
     Pseudo is Ultrasoft + core correction, Zval = 17.0
     Generated using "atomic" code by A. Dal Corso v.6.2.2
     Using radial grid of 1193 points,  6 beta functions with:
                l(1) =   0
                l(2) =   0
                l(3) =   1
                l(4) =   1
                l(5) =   2
                l(6) =   2
     Q(r) pseudized with 0 coefficients

     PseudoPot. # 2 for Os read from file:
     ../pseudo/Os.pbe-spn-rrkjus_psl.1.0.0.UPF
     MD5 check sum: 3e7416ed594f6513d36e5cb31ba709d9
     Pseudo is Ultrasoft + core correction, Zval = 16.0
     Generated using "atomic" code by A. Dal Corso v.6.2.2
     Using radial grid of 1275 points,  6 beta functions with:
                l(1) =   0
                l(2) =   0
                l(3) =   1
                l(4) =   1
                l(5) =   2
                l(6) =   2
     Q(r) pseudized with 0 coefficients

     atomic species   valence    mass     pseudopotential
        Co            17.00    58.93319     Co( 1.00)
        Os            16.00   190.23000     Os( 1.00)

     Starting magnetic structure
     atomic species   magnetization
        Co           1.000
        Os           0.000

     No symmetry found

   Cartesian axes

     site n.     atom                  positions (alat units)
         1           Co  tau(   1) = (   0.0000000   0.0000000  10.0000000  )
         2           Co  tau(   2) = (   3.8906343   2.2634818  10.0000000  )
         3           Os  tau(   3) = (   2.6037381   0.0000000  10.0000000  )
         4           Os  tau(   4) = (   1.2868962   2.2634818  10.0000000  )
         5           Co  tau(   5) = (   5.2074762   3.0295902  12.1298892  )
         6           Co  tau(   6) = (   1.3168418   0.7661084  12.1298892  )
         7           Os  tau(   7) = (   2.6037381   3.0295902  12.1298892  )
         8           Os  tau(   8) = (   3.9205799   0.7661084  12.1298892  )
         9           Co  tau(   9) = (   2.6278645   1.5288317  14.1745111  )
        10           Co  tau(  10) = (   6.5186327   3.7923911  14.1745529  )
        11           Os  tau(  11) = (   5.2208954   1.5226270  14.2057576  )
        12           Os  tau(  12) = (   3.9040753   3.7860717  14.2057575  )

     number of k points=    74  Fermi-Dirac smearing, width (Ry)=  0.0100
                       cart. coord. in units 2pi/alat
        k(    1) = (   0.0000000   0.0000000   0.0000000), wk =   0.0069444
        k(    2) = (   0.0000000   0.0184082   0.0000000), wk =   0.0138889
        k(    3) = (   0.0000000   0.0368164   0.0000000), wk =   0.0138889
        k(    4) = (   0.0000000   0.0552246   0.0000000), wk =   0.0138889
        k(    5) = (   0.0000000   0.0736329   0.0000000), wk =   0.0138889
        k(    6) = (   0.0000000   0.0920411   0.0000000), wk =   0.0138889
        k(    7) = (   0.0000000  -0.1104493   0.0000000), wk =   0.0069444
        k(    8) = (   0.0160026  -0.0090983   0.0000000), wk =   0.0138889
        k(    9) = (   0.0160026   0.0093100   0.0000000), wk =   0.0138889
        k(   10) = (   0.0160026   0.0277182   0.0000000), wk =   0.0138889
        k(   11) = (   0.0160026   0.0461264   0.0000000), wk =   0.0138889
        k(   12) = (   0.0160026   0.0645346   0.0000000), wk =   0.0138889
        k(   13) = (   0.0160026   0.0829428   0.0000000), wk =   0.0138889
        k(   14) = (   0.0160026  -0.1195475   0.0000000), wk =   0.0138889
        k(   15) = (   0.0160026  -0.1011393   0.0000000), wk =   0.0138889
        k(   16) = (   0.0160026  -0.0827311   0.0000000), wk =   0.0138889
        k(   17) = (   0.0160026  -0.0643229   0.0000000), wk =   0.0138889
        k(   18) = (   0.0160026  -0.0459147   0.0000000), wk =   0.0138889
        k(   19) = (   0.0160026  -0.0275065   0.0000000), wk =   0.0138889
        k(   20) = (   0.0320053  -0.0181965   0.0000000), wk =   0.0138889
        k(   21) = (   0.0320053   0.0002117   0.0000000), wk =   0.0138889
        k(   22) = (   0.0320053   0.0186199   0.0000000), wk =   0.0138889
        k(   23) = (   0.0320053   0.0370281   0.0000000), wk =   0.0138889
        k(   24) = (   0.0320053   0.0554364   0.0000000), wk =   0.0138889
        k(   25) = (   0.0320053   0.0738446   0.0000000), wk =   0.0138889
        k(   26) = (   0.0320053  -0.1286458   0.0000000), wk =   0.0138889
        k(   27) = (   0.0320053  -0.1102376   0.0000000), wk =   0.0138889
        k(   28) = (   0.0320053  -0.0918294   0.0000000), wk =   0.0138889
        k(   29) = (   0.0320053  -0.0734212   0.0000000), wk =   0.0138889
        k(   30) = (   0.0320053  -0.0550129   0.0000000), wk =   0.0138889
        k(   31) = (   0.0320053  -0.0366047   0.0000000), wk =   0.0138889
        k(   32) = (   0.0480079  -0.0272948   0.0000000), wk =   0.0138889
        k(   33) = (   0.0480079  -0.0088865   0.0000000), wk =   0.0138889
        k(   34) = (   0.0480079   0.0095217   0.0000000), wk =   0.0138889
        k(   35) = (   0.0480079   0.0279299   0.0000000), wk =   0.0138889
        k(   36) = (   0.0480079   0.0463381   0.0000000), wk =   0.0138889
        k(   37) = (   0.0480079   0.0647463   0.0000000), wk =   0.0138889
        k(   38) = (   0.0480079  -0.1377440   0.0000000), wk =   0.0138889
        k(   39) = (   0.0480079  -0.1193358   0.0000000), wk =   0.0138889
        k(   40) = (   0.0480079  -0.1009276   0.0000000), wk =   0.0138889
        k(   41) = (   0.0480079  -0.0825194   0.0000000), wk =   0.0138889
        k(   42) = (   0.0480079  -0.0641112   0.0000000), wk =   0.0138889
        k(   43) = (   0.0480079  -0.0457030   0.0000000), wk =   0.0138889
        k(   44) = (   0.0640105  -0.0363930   0.0000000), wk =   0.0138889
        k(   45) = (   0.0640105  -0.0179848   0.0000000), wk =   0.0138889
        k(   46) = (   0.0640105   0.0004234   0.0000000), wk =   0.0138889
        k(   47) = (   0.0640105   0.0188316   0.0000000), wk =   0.0138889
        k(   48) = (   0.0640105   0.0372399   0.0000000), wk =   0.0138889
        k(   49) = (   0.0640105   0.0556481   0.0000000), wk =   0.0138889
        k(   50) = (   0.0640105  -0.1468423   0.0000000), wk =   0.0138889
        k(   51) = (   0.0640105  -0.1284341   0.0000000), wk =   0.0138889
        k(   52) = (   0.0640105  -0.1100259   0.0000000), wk =   0.0138889
        k(   53) = (   0.0640105  -0.0916177   0.0000000), wk =   0.0138889
        k(   54) = (   0.0640105  -0.0732094   0.0000000), wk =   0.0138889
        k(   55) = (   0.0640105  -0.0548012   0.0000000), wk =   0.0138889
        k(   56) = (   0.0800132  -0.0454913   0.0000000), wk =   0.0138889
        k(   57) = (   0.0800132  -0.0270830   0.0000000), wk =   0.0138889
        k(   58) = (   0.0800132  -0.0086748   0.0000000), wk =   0.0138889
        k(   59) = (   0.0800132   0.0097334   0.0000000), wk =   0.0138889
        k(   60) = (   0.0800132   0.0281416   0.0000000), wk =   0.0138889
        k(   61) = (   0.0800132   0.0465498   0.0000000), wk =   0.0138889
        k(   62) = (   0.0800132  -0.1559406   0.0000000), wk =   0.0138889
        k(   63) = (   0.0800132  -0.1375323   0.0000000), wk =   0.0138889
        k(   64) = (   0.0800132  -0.1191241   0.0000000), wk =   0.0138889
        k(   65) = (   0.0800132  -0.1007159   0.0000000), wk =   0.0138889
        k(   66) = (   0.0800132  -0.0823077   0.0000000), wk =   0.0138889
        k(   67) = (   0.0800132  -0.0638995   0.0000000), wk =   0.0138889
        k(   68) = (  -0.0960158   0.0545895   0.0000000), wk =   0.0069444
        k(   69) = (  -0.0960158   0.0729977   0.0000000), wk =   0.0138889
        k(   70) = (  -0.0960158   0.0914059   0.0000000), wk =   0.0138889
        k(   71) = (  -0.0960158   0.1098142   0.0000000), wk =   0.0138889
        k(   72) = (  -0.0960158   0.1282224   0.0000000), wk =   0.0138889
        k(   73) = (  -0.0960158   0.1466306   0.0000000), wk =   0.0138889
        k(   74) = (  -0.0960158  -0.0558598   0.0000000), wk =   0.0069444

     Check: negative core charge=   -0.000006
     Generating pointlists ...
     new r_m :   1.0463 (alat units)  1.9771 (a.u.) for type    1
     new r_m :   1.0463 (alat units)  1.9771 (a.u.) for type    2

     Initial potential from superposition of free atoms

     starting charge  197.99683, renormalised to  198.00000

     %%%%%%%%%%%%%%%%%%%%%%%%%%%%%%%%%%%%%%%%%%%%%%%%%%%%%%%%%%%%%%%%%%%%%%%%
     %                                                                      %
     % You are using vdW-DF, which was implemented by the Thonhauser group. %
     % Please cite the following two papers that made this development      %
     % possible and the two reviews that describe the various versions:     %
     %                                                                      %
     %   T. Thonhauser et al., PRL 115, 136402 (2015).                      %
     %   T. Thonhauser et al., PRB 76, 125112 (2007).                       %
     %   K. Berland et al., Rep. Prog. Phys. 78, 066501 (2015).             %
     %   D.C. Langreth et al., J. Phys.: Condens. Matter 21, 084203 (2009). %
     %                                                                      %
     %                                                                      %
     % If you are calculating the stress with vdW-DF, please also cite:     %
     %                                                                      %
     %   R. Sabatini et al., J. Phys.: Condens. Matter 24, 424209 (2012).   %
     %                                                                      %
     %%%%%%%%%%%%%%%%%%%%%%%%%%%%%%%%%%%%%%%%%%%%%%%%%%%%%%%%%%%%%%%%%%%%%%%%

     Adding external electric field

     Computed dipole along edir(3) :
        Dipole               -0.0000 Ry au,         -0.0000 Debye
        Dipole field         -0.0000 Ry au,

        Potential amp.        0.0000 Ry
        Total length         44.6982 bohr

[...]

     Starting wfcs are  120 randomized atomic wfcs

     Self-consistent Calculation

     iteration #  1     ecut=    55.12 Ry     beta= 0.10
     Davidson diagonalization with overlap
     c_bands:  1 eigenvalues not converged
     ethr =  1.00E-02,  avg # of iterations =  9.2

[...]

     total energy              =   -2937.95098629 Ry
     estimated scf accuracy    <      48.28258855 Ry

     total magnetization       =    32.20 Bohr mag/cell
     absolute magnetization    =    32.56 Bohr mag/cell

     iteration #  2     ecut=    55.12 Ry     beta= 0.10
     Davidson diagonalization with overlap
     ethr =  1.00E-02,  avg # of iterations =  1.4

[...]

     iteration # 33     ecut=    55.12 Ry     beta= 0.10
     Davidson diagonalization with overlap
     c_bands:  1 eigenvalues not converged
     ethr =  1.52E-06,  avg # of iterations =  4.9

[...]

     total energy              =   -2959.78567236 Ry
     estimated scf accuracy    <       0.00001049 Ry

[...]

     iteration # 53     ecut=    55.12 Ry     beta= 0.10
     Davidson diagonalization with overlap
     ethr =  5.30E-09,  avg # of iterations =  4.4

[...]

     Adding external electric field

     Computed dipole along edir(3) :
        Dipole                0.0075 Ry au,          0.0190 Debye
        Dipole field          0.0000 Ry au,

        Potential amp.       -0.0022 Ry
        Total length         44.6982 bohr

     Magnetic moment per site:
     atom:    1    charge:   15.6732    magn:    1.4024    constr:    0.0000
     atom:    2    charge:   15.6734    magn:    1.4019    constr:    0.0000
     atom:    3    charge:   13.0121    magn:    0.0772    constr:    0.0000
     atom:    4    charge:   13.0121    magn:    0.0772    constr:    0.0000
     atom:    5    charge:   15.8144    magn:    1.0470    constr:    0.0000
     atom:    6    charge:   15.8138    magn:    1.0464    constr:    0.0000
     atom:    7    charge:   13.0569    magn:   -0.0185    constr:    0.0000
     atom:    8    charge:   13.0569    magn:   -0.0185    constr:    0.0000
     atom:    9    charge:   15.7153    magn:    1.2112    constr:    0.0000
     atom:   10    charge:   15.7153    magn:    1.2104    constr:    0.0000
     atom:   11    charge:   13.0271    magn:    0.0419    constr:    0.0000
     atom:   12    charge:   13.0271    magn:    0.0420    constr:    0.0000

     End of self-consistent calculation

     Number of k-points >= 100: set verbosity='high' to print the bands.

     the Fermi energy is     1.9478 ev

!    total energy              =   -2959.61726275 Ry
     estimated scf accuracy    <       0.00000634 Ry
     smearing contrib. (-TS)   =      -0.07441618 Ry
     internal energy E=F+TS    =   -2959.54284658 Ry

     The total energy is F=E-TS. E is the sum of the following terms:
     one-electron contribution =  -26235.97372018 Ry
     hartree contribution      =   13110.01504824 Ry
     xc contribution           =    -427.03443500 Ry
     ewald contribution        =   10593.45026018 Ry
     electric field correction =       0.00000018 Ry

     total magnetization       =     7.11 Bohr mag/cell
     absolute magnetization    =     8.43 Bohr mag/cell

     convergence has been achieved in  53 iterations

     Forces acting on atoms (cartesian axes, Ry/au):

     atom    1 type  1   force =     0.00174331    0.00100520    0.00849437
     atom    2 type  1   force =     0.00167826    0.00098849    0.00846062
     atom    3 type  2   force =     0.00365238    0.00208756    0.01519860
     atom    4 type  2   force =     0.00360895    0.00213655    0.01519665
     atom    5 type  1   force =     0.00130382    0.00077022   -0.01058188
     atom    6 type  1   force =     0.00135057    0.00077598   -0.01058927
     atom    7 type  2   force =    -0.00274065   -0.00165116   -0.01698003
     atom    8 type  2   force =    -0.00278722   -0.00156788   -0.01698175
     atom    9 type  1   force =    -0.00384138   -0.00223596    0.00412615
     atom   10 type  1   force =    -0.00373796   -0.00217610    0.00423383
     atom   11 type  2   force =    -0.00013248   -0.00003824   -0.00028774
     atom   12 type  2   force =    -0.00009760   -0.00009466   -0.00028955

     Total force =     0.039350     Total SCF correction =     0.007040
     SCF correction compared to forces is large: reduce conv_thr to get better values

     Writing output data file ./Co2Os2/Co2Os2_beef.save/

     General routines

     Parallel routines

   This run was terminated on:   0:47:48  30Jun2022

   JOB DONE.