     Program PWSCF v.6.6 starts on 30Jun2022 at  0:47:53

     R & G space division:  proc/nbgrp/npool/nimage =      37
     Fft bands division:     nmany     =       1
     Reading input from Co2Pd2.in
Warning: card &CELL ignored
Warning: card / ignored

     Current dimensions of program PWSCF are:
     Max number of different atomic species (ntypx) = 10
     Max number of k-points (npk) =  40000
     Max angular momentum in pseudopotentials (lmaxx) =  3
     Presently stress not available with electric field and gates

     Message from routine cell_base_init:
     DEPRECATED: use true lattice parameter, not A to a.u. conversion factor
     file Co.pbe-spn-rrkjus_psl.0.3.1.UPF: wavefunction(s)  3P renormalized
     file Pd.pbe-n-rrkjus_psl.1.0.0.UPF: wavefunction(s)  4D renormalized

     IMPORTANT: XC functional enforced from input :
     Exchange-correlation= BEEF-VDW
                           (   1   4  43  14   2   0   0)
     Any further DFT definition will be discarded
     Please, verify this is what you really want

     Subspace diagonalization in iterative solution of the eigenvalue problem:
     a serial algorithm will be used

     bravais-lattice index     =            0
     lattice parameter (alat)  =       1.8897  a.u.
     unit-cell volume          =    4100.9195 (a.u.)^3
     number of atoms/cell      =           12
     number of atomic types    =            2
     number of electrons       =       162.00
     number of Kohn-Sham states=           97
     kinetic-energy cutoff     =      55.1240  Ry
     charge density cutoff     =     551.2396  Ry
     convergence threshold     =      1.0E-05
     mixing beta               =       0.1000
     number of iterations used =           10  plain     mixing
     Exchange-correlation= BEEF-VDW
                           (   1   4  43  14   2   0   0)

     celldm(1)=   1.889726  celldm(2)=   0.000000  celldm(3)=   0.000000
     celldm(4)=   0.000000  celldm(5)=   0.000000  celldm(6)=   0.000000

     crystal axes: (cart. coord. in units of alat)
               a(1) = (   5.355476   0.000000   0.000000 )
               a(2) = (   2.649370   4.654242   0.000000 )
               a(3) = (   0.000000   0.000000  24.380224 )

     reciprocal axes: (cart. coord. in units 2 pi/alat)
               b(1) = (  0.186725 -0.106291  0.000000 )
               b(2) = (  0.000000  0.214858  0.000000 )
               b(3) = (  0.000000  0.000000  0.041017 )

     PseudoPot. # 1 for Co read from file:
     ../pseudo/Co.pbe-spn-rrkjus_psl.0.3.1.UPF
     MD5 check sum: 99b21b1f85602741a4c0ed67614a7280
     Pseudo is Ultrasoft + core correction, Zval = 17.0
     Generated using "atomic" code by A. Dal Corso v.6.2.2
     Using radial grid of 1193 points,  6 beta functions with:
                l(1) =   0
                l(2) =   0
                l(3) =   1
                l(4) =   1
                l(5) =   2
                l(6) =   2
     Q(r) pseudized with 0 coefficients

     PseudoPot. # 2 for Pd read from file:
     ../pseudo/Pd.pbe-n-rrkjus_psl.1.0.0.UPF
     MD5 check sum: d9f693bf1c5b493397a6bd6f2231cfc3
     Pseudo is Ultrasoft + core correction, Zval = 10.0
     Generated using "atomic" code by A. Dal Corso v.6.3
     Using radial grid of 1235 points,  6 beta functions with:
                l(1) =   0
                l(2) =   0
                l(3) =   1
                l(4) =   1
                l(5) =   2
                l(6) =   2
     Q(r) pseudized with 0 coefficients

     atomic species   valence    mass     pseudopotential
        Co            17.00    58.93319     Co( 1.00)
        Pd            10.00   106.42000     Pd( 1.00)

     Starting magnetic structure
     atomic species   magnetization
        Co           1.000
        Pd           0.000

     No symmetry found

   Cartesian axes

     site n.     atom                  positions (alat units)
         1           Co  tau(   1) = (   0.0000000   0.0000000  10.0000000  )
         2           Co  tau(   2) = (   4.0024230   2.3271210  10.0000000  )
         3           Pd  tau(   3) = (   2.6777382   0.0000000  10.0000000  )
         4           Pd  tau(   4) = (   1.3246848   2.3271210  10.0000000  )
         5           Co  tau(   5) = (   5.3554764   3.1138242  12.1901119  )
         6           Co  tau(   6) = (   1.3530534   0.7867032  12.1901119  )
         7           Pd  tau(   7) = (   2.6777382   3.1138242  12.1901119  )
         8           Pd  tau(   8) = (   4.0307916   0.7867032  12.1901119  )
         9           Co  tau(   9) = (   2.6801532   1.5583152  14.2669052  )
        10           Co  tau(  10) = (   6.6826875   3.8855032  14.2670280  )
        11           Pd  tau(  11) = (   5.4241199   1.5967828  14.4089633  )
        12           Pd  tau(  12) = (   4.0710305   3.9239640  14.4089636  )

     number of k points=    74  Fermi-Dirac smearing, width (Ry)=  0.0100
                       cart. coord. in units 2pi/alat
        k(    1) = (   0.0000000   0.0000000   0.0000000), wk =   0.0069444
        k(    2) = (   0.0000000   0.0179048   0.0000000), wk =   0.0138889
        k(    3) = (   0.0000000   0.0358096   0.0000000), wk =   0.0138889
        k(    4) = (   0.0000000   0.0537144   0.0000000), wk =   0.0138889
        k(    5) = (   0.0000000   0.0716193   0.0000000), wk =   0.0138889
        k(    6) = (   0.0000000   0.0895241   0.0000000), wk =   0.0138889
        k(    7) = (   0.0000000  -0.1074289   0.0000000), wk =   0.0069444
        k(    8) = (   0.0155604  -0.0088576   0.0000000), wk =   0.0138889
        k(    9) = (   0.0155604   0.0090472   0.0000000), wk =   0.0138889
        k(   10) = (   0.0155604   0.0269521   0.0000000), wk =   0.0138889
        k(   11) = (   0.0155604   0.0448569   0.0000000), wk =   0.0138889
        k(   12) = (   0.0155604   0.0627617   0.0000000), wk =   0.0138889
        k(   13) = (   0.0155604   0.0806665   0.0000000), wk =   0.0138889
        k(   14) = (   0.0155604  -0.1162864   0.0000000), wk =   0.0138889
        k(   15) = (   0.0155604  -0.0983816   0.0000000), wk =   0.0138889
        k(   16) = (   0.0155604  -0.0804768   0.0000000), wk =   0.0138889
        k(   17) = (   0.0155604  -0.0625720   0.0000000), wk =   0.0138889
        k(   18) = (   0.0155604  -0.0446672   0.0000000), wk =   0.0138889
        k(   19) = (   0.0155604  -0.0267624   0.0000000), wk =   0.0138889
        k(   20) = (   0.0311208  -0.0177151   0.0000000), wk =   0.0138889
        k(   21) = (   0.0311208   0.0001897   0.0000000), wk =   0.0138889
        k(   22) = (   0.0311208   0.0180945   0.0000000), wk =   0.0138889
        k(   23) = (   0.0311208   0.0359993   0.0000000), wk =   0.0138889
        k(   24) = (   0.0311208   0.0539041   0.0000000), wk =   0.0138889
        k(   25) = (   0.0311208   0.0718089   0.0000000), wk =   0.0138889
        k(   26) = (   0.0311208  -0.1251440   0.0000000), wk =   0.0138889
        k(   27) = (   0.0311208  -0.1072392   0.0000000), wk =   0.0138889
        k(   28) = (   0.0311208  -0.0893344   0.0000000), wk =   0.0138889
        k(   29) = (   0.0311208  -0.0714296   0.0000000), wk =   0.0138889
        k(   30) = (   0.0311208  -0.0535248   0.0000000), wk =   0.0138889
        k(   31) = (   0.0311208  -0.0356199   0.0000000), wk =   0.0138889
        k(   32) = (   0.0466812  -0.0265727   0.0000000), wk =   0.0138889
        k(   33) = (   0.0466812  -0.0086679   0.0000000), wk =   0.0138889
        k(   34) = (   0.0466812   0.0092369   0.0000000), wk =   0.0138889
        k(   35) = (   0.0466812   0.0271417   0.0000000), wk =   0.0138889
        k(   36) = (   0.0466812   0.0450466   0.0000000), wk =   0.0138889
        k(   37) = (   0.0466812   0.0629514   0.0000000), wk =   0.0138889
        k(   38) = (   0.0466812  -0.1340016   0.0000000), wk =   0.0138889
        k(   39) = (   0.0466812  -0.1160968   0.0000000), wk =   0.0138889
        k(   40) = (   0.0466812  -0.0981919   0.0000000), wk =   0.0138889
        k(   41) = (   0.0466812  -0.0802871   0.0000000), wk =   0.0138889
        k(   42) = (   0.0466812  -0.0623823   0.0000000), wk =   0.0138889
        k(   43) = (   0.0466812  -0.0444775   0.0000000), wk =   0.0138889
        k(   44) = (   0.0622416  -0.0354303   0.0000000), wk =   0.0138889
        k(   45) = (   0.0622416  -0.0175254   0.0000000), wk =   0.0138889
        k(   46) = (   0.0622416   0.0003794   0.0000000), wk =   0.0138889
        k(   47) = (   0.0622416   0.0182842   0.0000000), wk =   0.0138889
        k(   48) = (   0.0622416   0.0361890   0.0000000), wk =   0.0138889
        k(   49) = (   0.0622416   0.0540938   0.0000000), wk =   0.0138889
        k(   50) = (   0.0622416  -0.1428591   0.0000000), wk =   0.0138889
        k(   51) = (   0.0622416  -0.1249543   0.0000000), wk =   0.0138889
        k(   52) = (   0.0622416  -0.1070495   0.0000000), wk =   0.0138889
        k(   53) = (   0.0622416  -0.0891447   0.0000000), wk =   0.0138889
        k(   54) = (   0.0622416  -0.0712399   0.0000000), wk =   0.0138889
        k(   55) = (   0.0622416  -0.0533351   0.0000000), wk =   0.0138889
        k(   56) = (   0.0778020  -0.0442878   0.0000000), wk =   0.0138889
        k(   57) = (   0.0778020  -0.0263830   0.0000000), wk =   0.0138889
        k(   58) = (   0.0778020  -0.0084782   0.0000000), wk =   0.0138889
        k(   59) = (   0.0778020   0.0094266   0.0000000), wk =   0.0138889
        k(   60) = (   0.0778020   0.0273314   0.0000000), wk =   0.0138889
        k(   61) = (   0.0778020   0.0452362   0.0000000), wk =   0.0138889
        k(   62) = (   0.0778020  -0.1517167   0.0000000), wk =   0.0138889
        k(   63) = (   0.0778020  -0.1338119   0.0000000), wk =   0.0138889
        k(   64) = (   0.0778020  -0.1159071   0.0000000), wk =   0.0138889
        k(   65) = (   0.0778020  -0.0980023   0.0000000), wk =   0.0138889
        k(   66) = (   0.0778020  -0.0800974   0.0000000), wk =   0.0138889
        k(   67) = (   0.0778020  -0.0621926   0.0000000), wk =   0.0138889
        k(   68) = (  -0.0933624   0.0531454   0.0000000), wk =   0.0069444
        k(   69) = (  -0.0933624   0.0710502   0.0000000), wk =   0.0138889
        k(   70) = (  -0.0933624   0.0889550   0.0000000), wk =   0.0138889
        k(   71) = (  -0.0933624   0.1068598   0.0000000), wk =   0.0138889
        k(   72) = (  -0.0933624   0.1247646   0.0000000), wk =   0.0138889
        k(   73) = (  -0.0933624   0.1426695   0.0000000), wk =   0.0138889
        k(   74) = (  -0.0933624  -0.0542835   0.0000000), wk =   0.0069444

     Check: negative core charge=   -0.000005
     Generating pointlists ...
     new r_m :   1.0653 (alat units)  2.0131 (a.u.) for type    1
     new r_m :   1.0703 (alat units)  2.0226 (a.u.) for type    2

     Initial potential from superposition of free atoms

     starting charge  161.99486, renormalised to  162.00000

     %%%%%%%%%%%%%%%%%%%%%%%%%%%%%%%%%%%%%%%%%%%%%%%%%%%%%%%%%%%%%%%%%%%%%%%%
     %                                                                      %
     % You are using vdW-DF, which was implemented by the Thonhauser group. %
     % Please cite the following two papers that made this development      %
     % possible and the two reviews that describe the various versions:     %
     %                                                                      %
     %   T. Thonhauser et al., PRL 115, 136402 (2015).                      %
     %   T. Thonhauser et al., PRB 76, 125112 (2007).                       %
     %   K. Berland et al., Rep. Prog. Phys. 78, 066501 (2015).             %
     %   D.C. Langreth et al., J. Phys.: Condens. Matter 21, 084203 (2009). %
     %                                                                      %
     %                                                                      %
     % If you are calculating the stress with vdW-DF, please also cite:     %
     %                                                                      %
     %   R. Sabatini et al., J. Phys.: Condens. Matter 24, 424209 (2012).   %
     %                                                                      %
     %%%%%%%%%%%%%%%%%%%%%%%%%%%%%%%%%%%%%%%%%%%%%%%%%%%%%%%%%%%%%%%%%%%%%%%%

     Adding external electric field

     Computed dipole along edir(3) :
        Dipole                0.0001 Ry au,          0.0003 Debye
        Dipole field          0.0000 Ry au,

        Potential amp.       -0.0000 Ry
        Total length         44.9201 bohr

[...]

     Starting wfcs are  114 randomized atomic wfcs

     Self-consistent Calculation

     iteration #  1     ecut=    55.12 Ry     beta= 0.10
     Davidson diagonalization with overlap
     c_bands:  1 eigenvalues not converged
     ethr =  1.00E-02,  avg # of iterations =  9.9

[...]

     total energy              =   -2145.09530865 Ry
     estimated scf accuracy    <      40.69126246 Ry

     total magnetization       =    31.81 Bohr mag/cell
     absolute magnetization    =    33.19 Bohr mag/cell

     iteration #  2     ecut=    55.12 Ry     beta= 0.10
     Davidson diagonalization with overlap
     ethr =  1.00E-02,  avg # of iterations =  1.0

[...]

     iteration # 36     ecut=    55.12 Ry     beta= 0.10
     Davidson diagonalization with overlap
     c_bands:  1 eigenvalues not converged
     ethr =  3.59E-08,  avg # of iterations =  1.9

[...]

     total energy              =   -2168.23904732 Ry
     estimated scf accuracy    <       0.00001513 Ry

[...]

     iteration # 41     ecut=    55.12 Ry     beta= 0.10
     Davidson diagonalization with overlap
     ethr =  6.89E-09,  avg # of iterations =  2.0

[...]

     Adding external electric field

     Computed dipole along edir(3) :
        Dipole               -0.0099 Ry au,         -0.0252 Debye
        Dipole field         -0.0000 Ry au,

        Potential amp.        0.0027 Ry
        Total length         44.9201 bohr

     Magnetic moment per site:
     atom:    1    charge:   15.5663    magn:    2.1190    constr:    0.0000
     atom:    2    charge:   15.5655    magn:    2.1197    constr:    0.0000
     atom:    3    charge:    8.1385    magn:    0.3298    constr:    0.0000
     atom:    4    charge:    8.1385    magn:    0.3298    constr:    0.0000
     atom:    5    charge:   15.6208    magn:    2.1361    constr:    0.0000
     atom:    6    charge:   15.6205    magn:    2.1362    constr:    0.0000
     atom:    7    charge:    8.1717    magn:    0.4053    constr:    0.0000
     atom:    8    charge:    8.1717    magn:    0.4053    constr:    0.0000
     atom:    9    charge:   15.5972    magn:    2.1139    constr:    0.0000
     atom:   10    charge:   15.5957    magn:    2.1153    constr:    0.0000
     atom:   11    charge:    8.1373    magn:    0.3262    constr:    0.0000
     atom:   12    charge:    8.1373    magn:    0.3262    constr:    0.0000

     End of self-consistent calculation

     Number of k-points >= 100: set verbosity='high' to print the bands.

     the Fermi energy is     0.4139 ev

!    total energy              =   -2167.15507777 Ry
     estimated scf accuracy    <       0.00000698 Ry
     smearing contrib. (-TS)   =      -0.07343665 Ry
     internal energy E=F+TS    =   -2167.08164112 Ry

     The total energy is F=E-TS. E is the sum of the following terms:
     one-electron contribution =  -16820.16781644 Ry
     hartree contribution      =    8449.89495323 Ry
     xc contribution           =    -325.95847514 Ry
     ewald contribution        =    6529.14969694 Ry
     electric field correction =       0.00000030 Ry

     total magnetization       =    14.18 Bohr mag/cell
     absolute magnetization    =    15.88 Bohr mag/cell

     convergence has been achieved in  41 iterations

     Forces acting on atoms (cartesian axes, Ry/au):

     atom    1 type  1   force =     0.01062349    0.00617534    0.01601071
     atom    2 type  1   force =     0.01059533    0.00616522    0.01574591
     atom    3 type  2   force =    -0.01493904   -0.00866387   -0.00914453
     atom    4 type  2   force =    -0.01491910   -0.00869749   -0.00914439
     atom    5 type  1   force =    -0.00159720   -0.00093185   -0.00121869
     atom    6 type  1   force =    -0.00136645   -0.00078744   -0.00117764
     atom    7 type  2   force =     0.00737480    0.00429967   -0.00591324
     atom    8 type  2   force =     0.00738548    0.00428153   -0.00591432
     atom    9 type  1   force =    -0.00082297   -0.00047589    0.00019819
     atom   10 type  1   force =    -0.00069060   -0.00040819    0.00010135
     atom   11 type  2   force =    -0.00083012   -0.00046174    0.00022861
     atom   12 type  2   force =    -0.00081362   -0.00049528    0.00022804

     Total force =     0.042394     Total SCF correction =     0.009318
     SCF correction compared to forces is large: reduce conv_thr to get better values

     Writing output data file ./Co2Pd2/Co2Pd2_beef.save/

     General routines

     Parallel routines

   This run was terminated on:   5:30:46  30Jun2022

   JOB DONE.