     Program PWSCF v.6.6 starts on 30Jun2022 at  5:30:54

     R & G space division:  proc/nbgrp/npool/nimage =      37
     Fft bands division:     nmany     =       1
     Reading input from Co2Pt2.in
Warning: card &CELL ignored
Warning: card / ignored

     Current dimensions of program PWSCF are:
     Max number of different atomic species (ntypx) = 10
     Max number of k-points (npk) =  40000
     Max angular momentum in pseudopotentials (lmaxx) =  3
     Presently stress not available with electric field and gates

     Message from routine cell_base_init:
     DEPRECATED: use true lattice parameter, not A to a.u. conversion factor
     file Co.pbe-spn-rrkjus_psl.0.3.1.UPF: wavefunction(s)  3P renormalized
     file Pt.pbe-n-rrkjus_psl.1.0.0.UPF: wavefunction(s)  6S renormalized

     IMPORTANT: XC functional enforced from input :
     Exchange-correlation= BEEF-VDW
                           (   1   4  43  14   2   0   0)
     Any further DFT definition will be discarded
     Please, verify this is what you really want

     Subspace diagonalization in iterative solution of the eigenvalue problem:
     a serial algorithm will be used

     Found symmetry operation: I + (  0.5000 -0.5000  0.0000)
     This is a supercell, fractional translations are disabled

     bravais-lattice index     =            0
     lattice parameter (alat)  =       1.8897  a.u.
     unit-cell volume          =    4114.9371 (a.u.)^3
     number of atoms/cell      =           12
     number of atomic types    =            2
     number of electrons       =       162.00
     number of Kohn-Sham states=           97
     kinetic-energy cutoff     =      55.1240  Ry
     charge density cutoff     =     551.2396  Ry
     convergence threshold     =      1.0E-05
     mixing beta               =       0.1000
     number of iterations used =           10  plain     mixing
     Exchange-correlation= BEEF-VDW
                           (   1   4  43  14   2   0   0)

     celldm(1)=   1.889726  celldm(2)=   0.000000  celldm(3)=   0.000000
     celldm(4)=   0.000000  celldm(5)=   0.000000  celldm(6)=   0.000000

     crystal axes: (cart. coord. in units of alat)
               a(1) = (   5.351780   0.000000   0.000000 )
               a(2) = (   2.610018   4.672189   0.000000 )
               a(3) = (   0.000000   0.000000  24.386419 )

     reciprocal axes: (cart. coord. in units 2 pi/alat)
               b(1) = (  0.186854 -0.104382  0.000000 )
               b(2) = (  0.000000  0.214032  0.000000 )
               b(3) = (  0.000000  0.000000  0.041006 )

     PseudoPot. # 1 for Co read from file:
     ../pseudo/Co.pbe-spn-rrkjus_psl.0.3.1.UPF
     MD5 check sum: 99b21b1f85602741a4c0ed67614a7280
     Pseudo is Ultrasoft + core correction, Zval = 17.0
     Generated using "atomic" code by A. Dal Corso v.6.2.2
     Using radial grid of 1193 points,  6 beta functions with:
                l(1) =   0
                l(2) =   0
                l(3) =   1
                l(4) =   1
                l(5) =   2
                l(6) =   2
     Q(r) pseudized with 0 coefficients

     PseudoPot. # 2 for Pt read from file:
     ../pseudo/Pt.pbe-n-rrkjus_psl.1.0.0.UPF
     MD5 check sum: 6bc887cfe28d63a5fc1f72d35a7d3ef7
     Pseudo is Ultrasoft + core correction, Zval = 10.0
     Generated using "atomic" code by A. Dal Corso v.6.3
     Using radial grid of 1277 points,  6 beta functions with:
                l(1) =   0
                l(2) =   0
                l(3) =   1
                l(4) =   1
                l(5) =   2
                l(6) =   2
     Q(r) pseudized with 0 coefficients

     atomic species   valence    mass     pseudopotential
        Co            17.00    58.93319     Co( 1.00)
        Pt            10.00   195.08400     Pt( 1.00)

     Starting magnetic structure
     atomic species   magnetization
        Co           1.000
        Pt           0.000

     No symmetry found

   Cartesian axes

     site n.     atom                  positions (alat units)
         1           Co  tau(   1) = (   0.0000000   0.0000000  10.0000000  )
         2           Co  tau(   2) = (   3.9808989   2.3360946  10.0000000  )
         3           Pt  tau(   3) = (   2.6758899   0.0000000  10.0000000  )
         4           Pt  tau(   4) = (   1.3050090   2.3360946  10.0000000  )
         5           Co  tau(   5) = (   5.3517797   3.1405631  12.1932097  )
         6           Co  tau(   6) = (   1.3708809   0.8044684  12.1932097  )
         7           Pt  tau(   7) = (   2.6758899   3.1405631  12.1932097  )
         8           Pt  tau(   8) = (   4.0467708   0.8044684  12.1932097  )
         9           Co  tau(   9) = (   2.7186105   1.5953516  14.3079556  )
        10           Co  tau(  10) = (   6.6995647   3.9314779  14.3081604  )
        11           Pt  tau(  11) = (   5.4583787   1.6328395  14.3727479  )
        12           Pt  tau(  12) = (   4.0875005   3.9689299  14.3727478  )

     number of k points=    74  Fermi-Dirac smearing, width (Ry)=  0.0100
                       cart. coord. in units 2pi/alat
        k(    1) = (   0.0000000   0.0000000   0.0000000), wk =   0.0069444
        k(    2) = (   0.0000000   0.0178360   0.0000000), wk =   0.0138889
        k(    3) = (   0.0000000   0.0356721   0.0000000), wk =   0.0138889
        k(    4) = (   0.0000000   0.0535081   0.0000000), wk =   0.0138889
        k(    5) = (   0.0000000   0.0713441   0.0000000), wk =   0.0138889
        k(    6) = (   0.0000000   0.0891802   0.0000000), wk =   0.0138889
        k(    7) = (   0.0000000  -0.1070162   0.0000000), wk =   0.0069444
        k(    8) = (   0.0155711  -0.0086985   0.0000000), wk =   0.0138889
        k(    9) = (   0.0155711   0.0091376   0.0000000), wk =   0.0138889
        k(   10) = (   0.0155711   0.0269736   0.0000000), wk =   0.0138889
        k(   11) = (   0.0155711   0.0448096   0.0000000), wk =   0.0138889
        k(   12) = (   0.0155711   0.0626457   0.0000000), wk =   0.0138889
        k(   13) = (   0.0155711   0.0804817   0.0000000), wk =   0.0138889
        k(   14) = (   0.0155711  -0.1157147   0.0000000), wk =   0.0138889
        k(   15) = (   0.0155711  -0.0978787   0.0000000), wk =   0.0138889
        k(   16) = (   0.0155711  -0.0800426   0.0000000), wk =   0.0138889
        k(   17) = (   0.0155711  -0.0622066   0.0000000), wk =   0.0138889
        k(   18) = (   0.0155711  -0.0443706   0.0000000), wk =   0.0138889
        k(   19) = (   0.0155711  -0.0265345   0.0000000), wk =   0.0138889
        k(   20) = (   0.0311423  -0.0173970   0.0000000), wk =   0.0138889
        k(   21) = (   0.0311423   0.0004391   0.0000000), wk =   0.0138889
        k(   22) = (   0.0311423   0.0182751   0.0000000), wk =   0.0138889
        k(   23) = (   0.0311423   0.0361111   0.0000000), wk =   0.0138889
        k(   24) = (   0.0311423   0.0539472   0.0000000), wk =   0.0138889
        k(   25) = (   0.0311423   0.0717832   0.0000000), wk =   0.0138889
        k(   26) = (   0.0311423  -0.1244132   0.0000000), wk =   0.0138889
        k(   27) = (   0.0311423  -0.1065772   0.0000000), wk =   0.0138889
        k(   28) = (   0.0311423  -0.0887411   0.0000000), wk =   0.0138889
        k(   29) = (   0.0311423  -0.0709051   0.0000000), wk =   0.0138889
        k(   30) = (   0.0311423  -0.0530690   0.0000000), wk =   0.0138889
        k(   31) = (   0.0311423  -0.0352330   0.0000000), wk =   0.0138889
        k(   32) = (   0.0467134  -0.0260955   0.0000000), wk =   0.0138889
        k(   33) = (   0.0467134  -0.0082594   0.0000000), wk =   0.0138889
        k(   34) = (   0.0467134   0.0095766   0.0000000), wk =   0.0138889
        k(   35) = (   0.0467134   0.0274127   0.0000000), wk =   0.0138889
        k(   36) = (   0.0467134   0.0452487   0.0000000), wk =   0.0138889
        k(   37) = (   0.0467134   0.0630847   0.0000000), wk =   0.0138889
        k(   38) = (   0.0467134  -0.1331117   0.0000000), wk =   0.0138889
        k(   39) = (   0.0467134  -0.1152756   0.0000000), wk =   0.0138889
        k(   40) = (   0.0467134  -0.0974396   0.0000000), wk =   0.0138889
        k(   41) = (   0.0467134  -0.0796036   0.0000000), wk =   0.0138889
        k(   42) = (   0.0467134  -0.0617675   0.0000000), wk =   0.0138889
        k(   43) = (   0.0467134  -0.0439315   0.0000000), wk =   0.0138889
        k(   44) = (   0.0622846  -0.0347939   0.0000000), wk =   0.0138889
        k(   45) = (   0.0622846  -0.0169579   0.0000000), wk =   0.0138889
        k(   46) = (   0.0622846   0.0008781   0.0000000), wk =   0.0138889
        k(   47) = (   0.0622846   0.0187142   0.0000000), wk =   0.0138889
        k(   48) = (   0.0622846   0.0365502   0.0000000), wk =   0.0138889
        k(   49) = (   0.0622846   0.0543862   0.0000000), wk =   0.0138889
        k(   50) = (   0.0622846  -0.1418102   0.0000000), wk =   0.0138889
        k(   51) = (   0.0622846  -0.1239741   0.0000000), wk =   0.0138889
        k(   52) = (   0.0622846  -0.1061381   0.0000000), wk =   0.0138889
        k(   53) = (   0.0622846  -0.0883020   0.0000000), wk =   0.0138889
        k(   54) = (   0.0622846  -0.0704660   0.0000000), wk =   0.0138889
        k(   55) = (   0.0622846  -0.0526300   0.0000000), wk =   0.0138889
        k(   56) = (   0.0778557  -0.0434924   0.0000000), wk =   0.0138889
        k(   57) = (   0.0778557  -0.0256564   0.0000000), wk =   0.0138889
        k(   58) = (   0.0778557  -0.0078204   0.0000000), wk =   0.0138889
        k(   59) = (   0.0778557   0.0100157   0.0000000), wk =   0.0138889
        k(   60) = (   0.0778557   0.0278517   0.0000000), wk =   0.0138889
        k(   61) = (   0.0778557   0.0456878   0.0000000), wk =   0.0138889
        k(   62) = (   0.0778557  -0.1505086   0.0000000), wk =   0.0138889
        k(   63) = (   0.0778557  -0.1326726   0.0000000), wk =   0.0138889
        k(   64) = (   0.0778557  -0.1148366   0.0000000), wk =   0.0138889
        k(   65) = (   0.0778557  -0.0970005   0.0000000), wk =   0.0138889
        k(   66) = (   0.0778557  -0.0791645   0.0000000), wk =   0.0138889
        k(   67) = (   0.0778557  -0.0613285   0.0000000), wk =   0.0138889
        k(   68) = (  -0.0934269   0.0521909   0.0000000), wk =   0.0069444
        k(   69) = (  -0.0934269   0.0700269   0.0000000), wk =   0.0138889
        k(   70) = (  -0.0934269   0.0878630   0.0000000), wk =   0.0138889
        k(   71) = (  -0.0934269   0.1056990   0.0000000), wk =   0.0138889
        k(   72) = (  -0.0934269   0.1235351   0.0000000), wk =   0.0138889
        k(   73) = (  -0.0934269   0.1413711   0.0000000), wk =   0.0138889
        k(   74) = (  -0.0934269  -0.0548253   0.0000000), wk =   0.0069444

     Check: negative core charge=   -0.000005
     Generating pointlists ...
     new r_m :   1.0779 (alat units)  2.0369 (a.u.) for type    1
     new r_m :   1.0779 (alat units)  2.0369 (a.u.) for type    2

     Initial potential from superposition of free atoms

     starting charge  161.99728, renormalised to  162.00000

     %%%%%%%%%%%%%%%%%%%%%%%%%%%%%%%%%%%%%%%%%%%%%%%%%%%%%%%%%%%%%%%%%%%%%%%%
     %                                                                      %
     % You are using vdW-DF, which was implemented by the Thonhauser group. %
     % Please cite the following two papers that made this development      %
     % possible and the two reviews that describe the various versions:     %
     %                                                                      %
     %   T. Thonhauser et al., PRL 115, 136402 (2015).                      %
     %   T. Thonhauser et al., PRB 76, 125112 (2007).                       %
     %   K. Berland et al., Rep. Prog. Phys. 78, 066501 (2015).             %
     %   D.C. Langreth et al., J. Phys.: Condens. Matter 21, 084203 (2009). %
     %                                                                      %
     %                                                                      %
     % If you are calculating the stress with vdW-DF, please also cite:     %
     %                                                                      %
     %   R. Sabatini et al., J. Phys.: Condens. Matter 24, 424209 (2012).   %
     %                                                                      %
     %%%%%%%%%%%%%%%%%%%%%%%%%%%%%%%%%%%%%%%%%%%%%%%%%%%%%%%%%%%%%%%%%%%%%%%%

     Adding external electric field

     Computed dipole along edir(3) :
        Dipole                0.0000 Ry au,          0.0000 Debye
        Dipole field          0.0000 Ry au,

        Potential amp.       -0.0000 Ry
        Total length         44.9316 bohr

[...]

     Starting wfcs are  114 randomized atomic wfcs

     Self-consistent Calculation

     iteration #  1     ecut=    55.12 Ry     beta= 0.10
     Davidson diagonalization with overlap
     c_bands:  1 eigenvalues not converged
     c_bands:  2 eigenvalues not converged
     ethr =  1.00E-02,  avg # of iterations =  9.7

[...]

     total energy              =   -2130.68493929 Ry
     estimated scf accuracy    <      40.60905009 Ry

     total magnetization       =    31.38 Bohr mag/cell
     absolute magnetization    =    32.76 Bohr mag/cell

     iteration #  2     ecut=    55.12 Ry     beta= 0.10
     Davidson diagonalization with overlap
     ethr =  1.00E-02,  avg # of iterations =  1.0

[...]

     iteration # 32     ecut=    55.12 Ry     beta= 0.10
     Davidson diagonalization with overlap
     c_bands:  1 eigenvalues not converged
     ethr =  1.17E-07,  avg # of iterations =  1.9

[...]

     total energy              =   -2154.21732404 Ry
     estimated scf accuracy    <       0.00001278 Ry

[...]

     iteration # 38     ecut=    55.12 Ry     beta= 0.10
     Davidson diagonalization with overlap
     ethr =  7.52E-09,  avg # of iterations =  1.0

[...]

     Adding external electric field

     Computed dipole along edir(3) :
        Dipole               -0.0083 Ry au,         -0.0211 Debye
        Dipole field         -0.0000 Ry au,

        Potential amp.        0.0023 Ry
        Total length         44.9316 bohr

     Magnetic moment per site:
     atom:    1    charge:   15.6438    magn:    2.1088    constr:    0.0000
     atom:    2    charge:   15.6442    magn:    2.1082    constr:    0.0000
     atom:    3    charge:    7.6216    magn:    0.3904    constr:    0.0000
     atom:    4    charge:    7.6216    magn:    0.3904    constr:    0.0000
     atom:    5    charge:   15.7268    magn:    2.1323    constr:    0.0000
     atom:    6    charge:   15.7284    magn:    2.1310    constr:    0.0000
     atom:    7    charge:    7.6588    magn:    0.4868    constr:    0.0000
     atom:    8    charge:    7.6588    magn:    0.4868    constr:    0.0000
     atom:    9    charge:   15.6719    magn:    2.1030    constr:    0.0000
     atom:   10    charge:   15.6716    magn:    2.1032    constr:    0.0000
     atom:   11    charge:    7.6256    magn:    0.3980    constr:    0.0000
     atom:   12    charge:    7.6256    magn:    0.3980    constr:    0.0000

     End of self-consistent calculation

     Number of k-points >= 100: set verbosity='high' to print the bands.

     the Fermi energy is     0.7065 ev

!    total energy              =   -2153.13048034 Ry
     estimated scf accuracy    <       0.00000879 Ry
     smearing contrib. (-TS)   =      -0.06851458 Ry
     internal energy E=F+TS    =   -2153.06196576 Ry

     The total energy is F=E-TS. E is the sum of the following terms:
     one-electron contribution =  -16690.53626876 Ry
     hartree contribution      =    8381.90521721 Ry
     xc contribution           =    -339.72421962 Ry
     ewald contribution        =    6495.29330520 Ry
     electric field correction =       0.00000021 Ry

     total magnetization       =    14.64 Bohr mag/cell
     absolute magnetization    =    16.19 Bohr mag/cell

     convergence has been achieved in  38 iterations

     Forces acting on atoms (cartesian axes, Ry/au):

     atom    1 type  1   force =     0.01164115    0.00682517    0.01030012
     atom    2 type  1   force =     0.01165823    0.00684676    0.01025493
     atom    3 type  2   force =    -0.01610749   -0.00953115   -0.00316872
     atom    4 type  2   force =    -0.01617507   -0.00941615   -0.00316973
     atom    5 type  1   force =     0.00014557    0.00009804   -0.00521620
     atom    6 type  1   force =     0.00018320    0.00009409   -0.00531071
     atom    7 type  2   force =     0.00413040    0.00255325   -0.00679792
     atom    8 type  2   force =     0.00423185    0.00235797   -0.00678891
     atom    9 type  1   force =    -0.00049978   -0.00030285    0.00191897
     atom   10 type  1   force =    -0.00074091   -0.00042714    0.00158811
     atom   11 type  2   force =     0.00073250    0.00049952    0.00319802
     atom   12 type  2   force =     0.00080035    0.00040250    0.00319204

     Total force =     0.038999     Total SCF correction =     0.011132
     SCF correction compared to forces is large: reduce conv_thr to get better values

     Writing output data file ./Co2Pt2/Co2Pt2_beef.save/

     General routines

     Parallel routines

   This run was terminated on:  10:23: 5  30Jun2022

   JOB DONE.