     Program PWSCF v.6.6 starts on 30Jun2022 at 16:58:14

     R & G space division:  proc/nbgrp/npool/nimage =      37
     Fft bands division:     nmany     =       1
     Reading input from Co2Rh2.in
Warning: card &CELL ignored
Warning: card / ignored

     Current dimensions of program PWSCF are:
     Max number of different atomic species (ntypx) = 10
     Max number of k-points (npk) =  40000
     Max angular momentum in pseudopotentials (lmaxx) =  3
     Presently stress not available with electric field and gates

     Message from routine cell_base_init:
     DEPRECATED: use true lattice parameter, not A to a.u. conversion factor
     file Co.pbe-spn-rrkjus_psl.0.3.1.UPF: wavefunction(s)  3P renormalized
     file Rh.pbe-spn-rrkjus_psl.1.0.0.UPF: wavefunction(s)  4S 5S renormalized

     IMPORTANT: XC functional enforced from input :
     Exchange-correlation= BEEF-VDW
                           (   1   4  43  14   2   0   0)
     Any further DFT definition will be discarded
     Please, verify this is what you really want

     Subspace diagonalization in iterative solution of the eigenvalue problem:
     a serial algorithm will be used

     bravais-lattice index     =            0
     lattice parameter (alat)  =       1.8897  a.u.
     unit-cell volume          =    3975.9182 (a.u.)^3
     number of atoms/cell      =           12
     number of atomic types    =            2
     number of electrons       =       204.00
     number of Kohn-Sham states=          122
     kinetic-energy cutoff     =      55.1240  Ry
     charge density cutoff     =     551.2396  Ry
     convergence threshold     =      1.0E-05
     mixing beta               =       0.1000
     number of iterations used =           10  plain     mixing
     Exchange-correlation= BEEF-VDW
                           (   1   4  43  14   2   0   0)

     celldm(1)=   1.889726  celldm(2)=   0.000000  celldm(3)=   0.000000
     celldm(4)=   0.000000  celldm(5)=   0.000000  celldm(6)=   0.000000

     crystal axes: (cart. coord. in units of alat)
               a(1) = (   5.260740   0.000000   0.000000 )
               a(2) = (   2.542478   4.605561   0.000000 )
               a(3) = (   0.000000   0.000000  24.317087 )

     reciprocal axes: (cart. coord. in units 2 pi/alat)
               b(1) = (  0.190087 -0.104937  0.000000 )
               b(2) = (  0.000000  0.217129  0.000000 )
               b(3) = (  0.000000  0.000000  0.041123 )

     PseudoPot. # 1 for Co read from file:
     ../pseudo/Co.pbe-spn-rrkjus_psl.0.3.1.UPF
     MD5 check sum: 99b21b1f85602741a4c0ed67614a7280
     Pseudo is Ultrasoft + core correction, Zval = 17.0
     Generated using "atomic" code by A. Dal Corso v.6.2.2
     Using radial grid of 1193 points,  6 beta functions with:
                l(1) =   0
                l(2) =   0
                l(3) =   1
                l(4) =   1
                l(5) =   2
                l(6) =   2
     Q(r) pseudized with 0 coefficients

     PseudoPot. # 2 for Rh read from file:
     ../pseudo/Rh.pbe-spn-rrkjus_psl.1.0.0.UPF
     MD5 check sum: 912a852783f0c9b7bd5e9eb06cc0cc10
     Pseudo is Ultrasoft + core correction, Zval = 17.0
     Generated using "atomic" code by A. Dal Corso v.6.3
     Using radial grid of 1233 points,  6 beta functions with:
                l(1) =   0
                l(2) =   0
                l(3) =   1
                l(4) =   1
                l(5) =   2
                l(6) =   2
     Q(r) pseudized with 0 coefficients

     atomic species   valence    mass     pseudopotential
        Co            17.00    58.93319     Co( 1.00)
        Rh            17.00   102.90550     Rh( 1.00)

     Starting magnetic structure
     atomic species   magnetization
        Co           1.000
        Rh           0.000

     No symmetry found

   Cartesian axes

     site n.     atom                  positions (alat units)
         1           Co  tau(   1) = (   0.0000000   0.0000000  10.0000000  )
         2           Co  tau(   2) = (   3.9016091   2.3027807  10.0000000  )
         3           Rh  tau(   3) = (   2.6303702   0.0000000  10.0000000  )
         4           Rh  tau(   4) = (   1.2712390   2.3027807  10.0000000  )
         5           Co  tau(   5) = (   5.2607403   3.1049577  12.1585437  )
         6           Co  tau(   6) = (   1.3591312   0.8021770  12.1585437  )
         7           Rh  tau(   7) = (   2.6303702   3.1049577  12.1585437  )
         8           Rh  tau(   8) = (   3.9895014   0.8021770  12.1585437  )
         9           Co  tau(   9) = (   2.6669947   1.5740965  14.2293890  )
        10           Co  tau(  10) = (   6.5683911   3.8767488  14.2292748  )
        11           Rh  tau(  11) = (   5.3282859   1.5923295  14.3024952  )
        12           Rh  tau(  12) = (   3.9691424   3.8951337  14.3024939  )

     number of k points=    74  Fermi-Dirac smearing, width (Ry)=  0.0100
                       cart. coord. in units 2pi/alat
        k(    1) = (   0.0000000   0.0000000   0.0000000), wk =   0.0069444
        k(    2) = (   0.0000000   0.0180941   0.0000000), wk =   0.0138889
        k(    3) = (   0.0000000   0.0361881   0.0000000), wk =   0.0138889
        k(    4) = (   0.0000000   0.0542822   0.0000000), wk =   0.0138889
        k(    5) = (   0.0000000   0.0723763   0.0000000), wk =   0.0138889
        k(    6) = (   0.0000000   0.0904703   0.0000000), wk =   0.0138889
        k(    7) = (   0.0000000  -0.1085644   0.0000000), wk =   0.0069444
        k(    8) = (   0.0158406  -0.0087447   0.0000000), wk =   0.0138889
        k(    9) = (   0.0158406   0.0093493   0.0000000), wk =   0.0138889
        k(   10) = (   0.0158406   0.0274434   0.0000000), wk =   0.0138889
        k(   11) = (   0.0158406   0.0455375   0.0000000), wk =   0.0138889
        k(   12) = (   0.0158406   0.0636315   0.0000000), wk =   0.0138889
        k(   13) = (   0.0158406   0.0817256   0.0000000), wk =   0.0138889
        k(   14) = (   0.0158406  -0.1173091   0.0000000), wk =   0.0138889
        k(   15) = (   0.0158406  -0.0992151   0.0000000), wk =   0.0138889
        k(   16) = (   0.0158406  -0.0811210   0.0000000), wk =   0.0138889
        k(   17) = (   0.0158406  -0.0630269   0.0000000), wk =   0.0138889
        k(   18) = (   0.0158406  -0.0449329   0.0000000), wk =   0.0138889
        k(   19) = (   0.0158406  -0.0268388   0.0000000), wk =   0.0138889
        k(   20) = (   0.0316812  -0.0174895   0.0000000), wk =   0.0138889
        k(   21) = (   0.0316812   0.0006046   0.0000000), wk =   0.0138889
        k(   22) = (   0.0316812   0.0186987   0.0000000), wk =   0.0138889
        k(   23) = (   0.0316812   0.0367927   0.0000000), wk =   0.0138889
        k(   24) = (   0.0316812   0.0548868   0.0000000), wk =   0.0138889
        k(   25) = (   0.0316812   0.0729809   0.0000000), wk =   0.0138889
        k(   26) = (   0.0316812  -0.1260539   0.0000000), wk =   0.0138889
        k(   27) = (   0.0316812  -0.1079598   0.0000000), wk =   0.0138889
        k(   28) = (   0.0316812  -0.0898657   0.0000000), wk =   0.0138889
        k(   29) = (   0.0316812  -0.0717717   0.0000000), wk =   0.0138889
        k(   30) = (   0.0316812  -0.0536776   0.0000000), wk =   0.0138889
        k(   31) = (   0.0316812  -0.0355835   0.0000000), wk =   0.0138889
        k(   32) = (   0.0475218  -0.0262342   0.0000000), wk =   0.0138889
        k(   33) = (   0.0475218  -0.0081401   0.0000000), wk =   0.0138889
        k(   34) = (   0.0475218   0.0099539   0.0000000), wk =   0.0138889
        k(   35) = (   0.0475218   0.0280480   0.0000000), wk =   0.0138889
        k(   36) = (   0.0475218   0.0461421   0.0000000), wk =   0.0138889
        k(   37) = (   0.0475218   0.0642361   0.0000000), wk =   0.0138889
        k(   38) = (   0.0475218  -0.1347986   0.0000000), wk =   0.0138889
        k(   39) = (   0.0475218  -0.1167045   0.0000000), wk =   0.0138889
        k(   40) = (   0.0475218  -0.0986105   0.0000000), wk =   0.0138889
        k(   41) = (   0.0475218  -0.0805164   0.0000000), wk =   0.0138889
        k(   42) = (   0.0475218  -0.0624223   0.0000000), wk =   0.0138889
        k(   43) = (   0.0475218  -0.0443283   0.0000000), wk =   0.0138889
        k(   44) = (   0.0633624  -0.0349789   0.0000000), wk =   0.0138889
        k(   45) = (   0.0633624  -0.0168849   0.0000000), wk =   0.0138889
        k(   46) = (   0.0633624   0.0012092   0.0000000), wk =   0.0138889
        k(   47) = (   0.0633624   0.0193033   0.0000000), wk =   0.0138889
        k(   48) = (   0.0633624   0.0373973   0.0000000), wk =   0.0138889
        k(   49) = (   0.0633624   0.0554914   0.0000000), wk =   0.0138889
        k(   50) = (   0.0633624  -0.1435433   0.0000000), wk =   0.0138889
        k(   51) = (   0.0633624  -0.1254493   0.0000000), wk =   0.0138889
        k(   52) = (   0.0633624  -0.1073552   0.0000000), wk =   0.0138889
        k(   53) = (   0.0633624  -0.0892611   0.0000000), wk =   0.0138889
        k(   54) = (   0.0633624  -0.0711671   0.0000000), wk =   0.0138889
        k(   55) = (   0.0633624  -0.0530730   0.0000000), wk =   0.0138889
        k(   56) = (   0.0792031  -0.0437237   0.0000000), wk =   0.0138889
        k(   57) = (   0.0792031  -0.0256296   0.0000000), wk =   0.0138889
        k(   58) = (   0.0792031  -0.0075355   0.0000000), wk =   0.0138889
        k(   59) = (   0.0792031   0.0105585   0.0000000), wk =   0.0138889
        k(   60) = (   0.0792031   0.0286526   0.0000000), wk =   0.0138889
        k(   61) = (   0.0792031   0.0467467   0.0000000), wk =   0.0138889
        k(   62) = (   0.0792031  -0.1522881   0.0000000), wk =   0.0138889
        k(   63) = (   0.0792031  -0.1341940   0.0000000), wk =   0.0138889
        k(   64) = (   0.0792031  -0.1160999   0.0000000), wk =   0.0138889
        k(   65) = (   0.0792031  -0.0980059   0.0000000), wk =   0.0138889
        k(   66) = (   0.0792031  -0.0799118   0.0000000), wk =   0.0138889
        k(   67) = (   0.0792031  -0.0618177   0.0000000), wk =   0.0138889
        k(   68) = (  -0.0950437   0.0524684   0.0000000), wk =   0.0069444
        k(   69) = (  -0.0950437   0.0705625   0.0000000), wk =   0.0138889
        k(   70) = (  -0.0950437   0.0886565   0.0000000), wk =   0.0138889
        k(   71) = (  -0.0950437   0.1067506   0.0000000), wk =   0.0138889
        k(   72) = (  -0.0950437   0.1248447   0.0000000), wk =   0.0138889
        k(   73) = (  -0.0950437   0.1429387   0.0000000), wk =   0.0138889
        k(   74) = (  -0.0950437  -0.0560960   0.0000000), wk =   0.0069444

     Check: negative core charge=   -0.000008
     Generating pointlists ...
     new r_m :   1.0592 (alat units)  2.0016 (a.u.) for type    1
     new r_m :   1.0624 (alat units)  2.0076 (a.u.) for type    2

     Initial potential from superposition of free atoms

     starting charge  203.99535, renormalised to  204.00000

     %%%%%%%%%%%%%%%%%%%%%%%%%%%%%%%%%%%%%%%%%%%%%%%%%%%%%%%%%%%%%%%%%%%%%%%%
     %                                                                      %
     % You are using vdW-DF, which was implemented by the Thonhauser group. %
     % Please cite the following two papers that made this development      %
     % possible and the two reviews that describe the various versions:     %
     %                                                                      %
     %   T. Thonhauser et al., PRL 115, 136402 (2015).                      %
     %   T. Thonhauser et al., PRB 76, 125112 (2007).                       %
     %   K. Berland et al., Rep. Prog. Phys. 78, 066501 (2015).             %
     %   D.C. Langreth et al., J. Phys.: Condens. Matter 21, 084203 (2009). %
     %                                                                      %
     %                                                                      %
     % If you are calculating the stress with vdW-DF, please also cite:     %
     %                                                                      %
     %   R. Sabatini et al., J. Phys.: Condens. Matter 24, 424209 (2012).   %
     %                                                                      %
     %%%%%%%%%%%%%%%%%%%%%%%%%%%%%%%%%%%%%%%%%%%%%%%%%%%%%%%%%%%%%%%%%%%%%%%%

     Adding external electric field

     Computed dipole along edir(3) :
        Dipole                0.0000 Ry au,          0.0001 Debye
        Dipole field          0.0000 Ry au,

        Potential amp.       -0.0000 Ry
        Total length         44.8038 bohr

[...]

     Starting wfcs are  120 randomized atomic wfcs +    2 random wfcs

     Self-consistent Calculation

     iteration #  1     ecut=    55.12 Ry     beta= 0.10
     Davidson diagonalization with overlap
     ethr =  1.00E-02,  avg # of iterations =  7.1

[...]

     total energy              =   -3100.04513474 Ry
     estimated scf accuracy    <      50.78518713 Ry

     total magnetization       =    33.37 Bohr mag/cell
     absolute magnetization    =    33.52 Bohr mag/cell

[...]

     iteration # 32     ecut=    55.12 Ry     beta= 0.10
     Davidson diagonalization with overlap
     c_bands:  1 eigenvalues not converged
     c_bands:  1 eigenvalues not converged
     ethr =  6.36E-05,  avg # of iterations =  4.5

[...]

     iteration # 45     ecut=    55.12 Ry     beta= 0.10
     Davidson diagonalization with overlap
     c_bands:  1 eigenvalues not converged
     ethr =  8.01E-08,  avg # of iterations =  4.7

[...]

     total energy              =   -3121.36372195 Ry
     estimated scf accuracy    <       0.00001080 Ry

[...]

     iteration # 52     ecut=    55.12 Ry     beta= 0.10
     Davidson diagonalization with overlap
     ethr =  5.30E-09,  avg # of iterations =  2.3

[...]

     Adding external electric field

     Computed dipole along edir(3) :
        Dipole                0.0045 Ry au,          0.0113 Debye
        Dipole field          0.0000 Ry au,

        Potential amp.       -0.0013 Ry
        Total length         44.8038 bohr

     Magnetic moment per site:
     atom:    1    charge:   15.5898    magn:    2.0959    constr:    0.0000
     atom:    2    charge:   15.5898    magn:    2.0952    constr:    0.0000
     atom:    3    charge:   14.8709    magn:    0.7989    constr:    0.0000
     atom:    4    charge:   14.8709    magn:    0.7989    constr:    0.0000
     atom:    5    charge:   15.6659    magn:    2.1301    constr:    0.0000
     atom:    6    charge:   15.6669    magn:    2.1299    constr:    0.0000
     atom:    7    charge:   14.9096    magn:    0.9131    constr:    0.0000
     atom:    8    charge:   14.9096    magn:    0.9132    constr:    0.0000
     atom:    9    charge:   15.6168    magn:    2.0815    constr:    0.0000
     atom:   10    charge:   15.6185    magn:    2.0803    constr:    0.0000
     atom:   11    charge:   14.8760    magn:    0.8022    constr:    0.0000
     atom:   12    charge:   14.8760    magn:    0.8022    constr:    0.0000

     End of self-consistent calculation

     Number of k-points >= 100: set verbosity='high' to print the bands.

     the Fermi energy is     1.3939 ev

!    total energy              =   -3120.91950272 Ry
     estimated scf accuracy    <       0.00000592 Ry
     smearing contrib. (-TS)   =      -0.07748656 Ry
     internal energy E=F+TS    =   -3120.84201616 Ry

     The total energy is F=E-TS. E is the sum of the following terms:
     one-electron contribution =  -27115.33468261 Ry
     hartree contribution      =   13559.51613859 Ry
     xc contribution           =    -375.80258507 Ry
     ewald contribution        =   10810.77911288 Ry
     electric field correction =       0.00000006 Ry

     total magnetization       =    17.14 Bohr mag/cell
     absolute magnetization    =    18.79 Bohr mag/cell

     convergence has been achieved in  52 iterations

     Forces acting on atoms (cartesian axes, Ry/au):

     atom    1 type  1   force =     0.00659426    0.00388508    0.01201818
     atom    2 type  1   force =     0.00644570    0.00380803    0.01214031
     atom    3 type  2   force =    -0.00590776   -0.00344880    0.00112732
     atom    4 type  2   force =    -0.00587304   -0.00350657    0.00112881
     atom    5 type  1   force =    -0.00085849   -0.00050097   -0.00331472
     atom    6 type  1   force =    -0.00083798   -0.00050012   -0.00325485
     atom    7 type  2   force =     0.00012150    0.00015840   -0.01047951
     atom    8 type  2   force =     0.00019568    0.00003122   -0.01048129
     atom    9 type  1   force =    -0.00097305   -0.00057991   -0.00044749
     atom   10 type  1   force =    -0.00108224   -0.00063085   -0.00039137
     atom   11 type  2   force =     0.00111391    0.00060052    0.00097763
     atom   12 type  2   force =     0.00106151    0.00068396    0.00097697

     Total force =     0.027462     Total SCF correction =     0.005139
     SCF correction compared to forces is large: reduce conv_thr to get better values

     Writing output data file ./Co2Rh2/Co2Rh2_beef.save/

     General routines

     Parallel routines

   This run was terminated on:   0: 3:14   1Jul2022

   JOB DONE.