     Program PWSCF v.6.6 starts on 30Jun2022 at 10:23:10

     R & G space division:  proc/nbgrp/npool/nimage =      37
     Fft bands division:     nmany     =       1
     Reading input from Co2Re2.in
Warning: card &CELL ignored
Warning: card / ignored

     Current dimensions of program PWSCF are:
     Max number of different atomic species (ntypx) = 10
     Max number of k-points (npk) =  40000
     Max angular momentum in pseudopotentials (lmaxx) =  3
     Presently stress not available with electric field and gates

     Message from routine cell_base_init:
     DEPRECATED: use true lattice parameter, not A to a.u. conversion factor
     file Co.pbe-spn-rrkjus_psl.0.3.1.UPF: wavefunction(s)  3P renormalized

     IMPORTANT: XC functional enforced from input :
     Exchange-correlation= BEEF-VDW
                           (   1   4  43  14   2   0   0)
     Any further DFT definition will be discarded
     Please, verify this is what you really want

     Subspace diagonalization in iterative solution of the eigenvalue problem:
     a serial algorithm will be used

     Found symmetry operation: I + ( -0.5000  0.0000  0.0000)
     This is a supercell, fractional translations are disabled

     bravais-lattice index     =            0
     lattice parameter (alat)  =       1.8897  a.u.
     unit-cell volume          =    3894.1419 (a.u.)^3
     number of atoms/cell      =           12
     number of atomic types    =            2
     number of electrons       =       192.00
     number of Kohn-Sham states=          115
     kinetic-energy cutoff     =      55.1240  Ry
     charge density cutoff     =     551.2396  Ry
     convergence threshold     =      1.0E-05
     mixing beta               =       0.1000
     number of iterations used =           10  plain     mixing
     Exchange-correlation= BEEF-VDW
                           (   1   4  43  14   2   0   0)

     celldm(1)=   1.889726  celldm(2)=   0.000000  celldm(3)=   0.000000
     celldm(4)=   0.000000  celldm(5)=   0.000000  celldm(6)=   0.000000

     crystal axes: (cart. coord. in units of alat)
               a(1) = (   5.236372   0.000000   0.000000 )
               a(2) = (  -2.618186   4.539208   0.000000 )
               a(3) = (   0.000000   0.000000  24.277540 )

     reciprocal axes: (cart. coord. in units 2 pi/alat)
               b(1) = (  0.190972  0.110151 -0.000000 )
               b(2) = (  0.000000  0.220303  0.000000 )
               b(3) = (  0.000000 -0.000000  0.041190 )

     PseudoPot. # 1 for Co read from file:
     ../pseudo/Co.pbe-spn-rrkjus_psl.0.3.1.UPF
     MD5 check sum: 99b21b1f85602741a4c0ed67614a7280
     Pseudo is Ultrasoft + core correction, Zval = 17.0
     Generated using "atomic" code by A. Dal Corso v.6.2.2
     Using radial grid of 1193 points,  6 beta functions with:
                l(1) =   0
                l(2) =   0
                l(3) =   1
                l(4) =   1
                l(5) =   2
                l(6) =   2
     Q(r) pseudized with 0 coefficients

     PseudoPot. # 2 for Re read from file:
     ../pseudo/Re.pbe-spn-rrkjus_psl.1.0.0.UPF
     MD5 check sum: 1282f1ec51ad523723a04c61ae80a9e6
     Pseudo is Ultrasoft + core correction, Zval = 15.0
     Generated using "atomic" code by A. Dal Corso v.6.2.2
     Using radial grid of 1275 points,  6 beta functions with:
                l(1) =   0
                l(2) =   0
                l(3) =   1
                l(4) =   1
                l(5) =   2
                l(6) =   2
     Q(r) pseudized with 0 coefficients

     atomic species   valence    mass     pseudopotential
        Co            17.00    58.93319     Co( 1.00)
        Re            15.00   186.20700     Re( 1.00)

     Starting magnetic structure
     atomic species   magnetization
        Co           1.000
        Re           0.000

     No symmetry found

   Cartesian axes

     site n.     atom                  positions (alat units)
         1           Co  tau(   1) = (   0.0000000   0.0000000  10.0000000  )
         2           Co  tau(   2) = (   2.6181861   0.0000000  10.0000000  )
         3           Re  tau(   3) = (   1.3090930   2.2696038  10.0000000  )
         4           Re  tau(   4) = (  -1.3090930   2.2696038  10.0000000  )
         5           Co  tau(   5) = (   2.6181861   1.5101530  12.1387698  )
         6           Co  tau(   6) = (   0.0000000   1.5101530  12.1387698  )
         7           Re  tau(   7) = (  -1.3090930   3.7797569  12.1387698  )
         8           Re  tau(   8) = (   1.3090930   3.7797569  12.1387698  )
         9           Co  tau(   9) = (  -0.0000020   3.0502408  14.1869540  )
        10           Co  tau(  10) = (   2.6181875   3.0502363  14.1869834  )
        11           Re  tau(  11) = (   3.9272821   0.7737371  14.2161394  )
        12           Re  tau(  12) = (   1.3090900   0.7737382  14.2161404  )

     number of k points=    74  Fermi-Dirac smearing, width (Ry)=  0.0100
                       cart. coord. in units 2pi/alat
        k(    1) = (   0.0000000   0.0000000   0.0000000), wk =   0.0069444
        k(    2) = (   0.0000000   0.0183586   0.0000000), wk =   0.0138889
        k(    3) = (   0.0000000   0.0367171   0.0000000), wk =   0.0138889
        k(    4) = (   0.0000000   0.0550757   0.0000000), wk =   0.0138889
        k(    5) = (   0.0000000   0.0734342   0.0000000), wk =   0.0138889
        k(    6) = (   0.0000000   0.0917928   0.0000000), wk =   0.0138889
        k(    7) = (   0.0000000  -0.1101514   0.0000000), wk =   0.0069444
        k(    8) = (   0.0159143   0.0091793   0.0000000), wk =   0.0138889
        k(    9) = (   0.0159143   0.0275378   0.0000000), wk =   0.0138889
        k(   10) = (   0.0159143   0.0458964   0.0000000), wk =   0.0138889
        k(   11) = (   0.0159143   0.0642550   0.0000000), wk =   0.0138889
        k(   12) = (   0.0159143   0.0826135   0.0000000), wk =   0.0138889
        k(   13) = (   0.0159143   0.1009721   0.0000000), wk =   0.0138889
        k(   14) = (   0.0159143  -0.1009721   0.0000000), wk =   0.0138889
        k(   15) = (   0.0159143  -0.0826135   0.0000000), wk =   0.0138889
        k(   16) = (   0.0159143  -0.0642550   0.0000000), wk =   0.0138889
        k(   17) = (   0.0159143  -0.0458964   0.0000000), wk =   0.0138889
        k(   18) = (   0.0159143  -0.0275378   0.0000000), wk =   0.0138889
        k(   19) = (   0.0159143  -0.0091793   0.0000000), wk =   0.0138889
        k(   20) = (   0.0318287   0.0183586   0.0000000), wk =   0.0138889
        k(   21) = (   0.0318287   0.0367171   0.0000000), wk =   0.0138889
        k(   22) = (   0.0318287   0.0550757   0.0000000), wk =   0.0138889
        k(   23) = (   0.0318287   0.0734342   0.0000000), wk =   0.0138889
        k(   24) = (   0.0318287   0.0917928   0.0000000), wk =   0.0138889
        k(   25) = (   0.0318287   0.1101514   0.0000000), wk =   0.0138889
        k(   26) = (   0.0318287  -0.0917928   0.0000000), wk =   0.0138889
        k(   27) = (   0.0318287  -0.0734342   0.0000000), wk =   0.0138889
        k(   28) = (   0.0318287  -0.0550757   0.0000000), wk =   0.0138889
        k(   29) = (   0.0318287  -0.0367171   0.0000000), wk =   0.0138889
        k(   30) = (   0.0318287  -0.0183586   0.0000000), wk =   0.0138889
        k(   31) = (   0.0318287  -0.0000000   0.0000000), wk =   0.0138889
        k(   32) = (   0.0477430   0.0275378   0.0000000), wk =   0.0138889
        k(   33) = (   0.0477430   0.0458964   0.0000000), wk =   0.0138889
        k(   34) = (   0.0477430   0.0642550   0.0000000), wk =   0.0138889
        k(   35) = (   0.0477430   0.0826135   0.0000000), wk =   0.0138889
        k(   36) = (   0.0477430   0.1009721   0.0000000), wk =   0.0138889
        k(   37) = (   0.0477430   0.1193307   0.0000000), wk =   0.0138889
        k(   38) = (   0.0477430  -0.0826135   0.0000000), wk =   0.0138889
        k(   39) = (   0.0477430  -0.0642550   0.0000000), wk =   0.0138889
        k(   40) = (   0.0477430  -0.0458964   0.0000000), wk =   0.0138889
        k(   41) = (   0.0477430  -0.0275378   0.0000000), wk =   0.0138889
        k(   42) = (   0.0477430  -0.0091793   0.0000000), wk =   0.0138889
        k(   43) = (   0.0477430   0.0091793   0.0000000), wk =   0.0138889
        k(   44) = (   0.0636573   0.0367171   0.0000000), wk =   0.0138889
        k(   45) = (   0.0636573   0.0550757   0.0000000), wk =   0.0138889
        k(   46) = (   0.0636573   0.0734342   0.0000000), wk =   0.0138889
        k(   47) = (   0.0636573   0.0917928   0.0000000), wk =   0.0138889
        k(   48) = (   0.0636573   0.1101514   0.0000000), wk =   0.0138889
        k(   49) = (   0.0636573   0.1285099   0.0000000), wk =   0.0138889
        k(   50) = (   0.0636573  -0.0734342   0.0000000), wk =   0.0138889
        k(   51) = (   0.0636573  -0.0550757   0.0000000), wk =   0.0138889
        k(   52) = (   0.0636573  -0.0367171   0.0000000), wk =   0.0138889
        k(   53) = (   0.0636573  -0.0183586   0.0000000), wk =   0.0138889
        k(   54) = (   0.0636573   0.0000000   0.0000000), wk =   0.0138889
        k(   55) = (   0.0636573   0.0183586   0.0000000), wk =   0.0138889
        k(   56) = (   0.0795716   0.0458964   0.0000000), wk =   0.0138889
        k(   57) = (   0.0795716   0.0642550   0.0000000), wk =   0.0138889
        k(   58) = (   0.0795716   0.0826135   0.0000000), wk =   0.0138889
        k(   59) = (   0.0795716   0.1009721   0.0000000), wk =   0.0138889
        k(   60) = (   0.0795716   0.1193307   0.0000000), wk =   0.0138889
        k(   61) = (   0.0795716   0.1376892   0.0000000), wk =   0.0138889
        k(   62) = (   0.0795716  -0.0642550   0.0000000), wk =   0.0138889
        k(   63) = (   0.0795716  -0.0458964   0.0000000), wk =   0.0138889
        k(   64) = (   0.0795716  -0.0275378   0.0000000), wk =   0.0138889
        k(   65) = (   0.0795716  -0.0091793   0.0000000), wk =   0.0138889
        k(   66) = (   0.0795716   0.0091793   0.0000000), wk =   0.0138889
        k(   67) = (   0.0795716   0.0275378   0.0000000), wk =   0.0138889
        k(   68) = (  -0.0954860  -0.0550757   0.0000000), wk =   0.0069444
        k(   69) = (  -0.0954860  -0.0367171   0.0000000), wk =   0.0138889
        k(   70) = (  -0.0954860  -0.0183586   0.0000000), wk =   0.0138889
        k(   71) = (  -0.0954860   0.0000000   0.0000000), wk =   0.0138889
        k(   72) = (  -0.0954860   0.0183586   0.0000000), wk =   0.0138889
        k(   73) = (  -0.0954860   0.0367171   0.0000000), wk =   0.0138889
        k(   74) = (  -0.0954860  -0.1652271   0.0000000), wk =   0.0069444

     Check: negative core charge=   -0.000006
     Generating pointlists ...
     new r_m :   1.0469 (alat units)  1.9783 (a.u.) for type    1
     new r_m :   1.0469 (alat units)  1.9783 (a.u.) for type    2

     Initial potential from superposition of free atoms

     starting charge  191.99650, renormalised to  192.00000

     %%%%%%%%%%%%%%%%%%%%%%%%%%%%%%%%%%%%%%%%%%%%%%%%%%%%%%%%%%%%%%%%%%%%%%%%
     %                                                                      %
     % You are using vdW-DF, which was implemented by the Thonhauser group. %
     % Please cite the following two papers that made this development      %
     % possible and the two reviews that describe the various versions:     %
     %                                                                      %
     %   T. Thonhauser et al., PRL 115, 136402 (2015).                      %
     %   T. Thonhauser et al., PRB 76, 125112 (2007).                       %
     %   K. Berland et al., Rep. Prog. Phys. 78, 066501 (2015).             %
     %   D.C. Langreth et al., J. Phys.: Condens. Matter 21, 084203 (2009). %
     %                                                                      %
     %                                                                      %
     % If you are calculating the stress with vdW-DF, please also cite:     %
     %                                                                      %
     %   R. Sabatini et al., J. Phys.: Condens. Matter 24, 424209 (2012).   %
     %                                                                      %
     %%%%%%%%%%%%%%%%%%%%%%%%%%%%%%%%%%%%%%%%%%%%%%%%%%%%%%%%%%%%%%%%%%%%%%%%

     Adding external electric field

     Computed dipole along edir(3) :
        Dipole                0.0000 Ry au,          0.0000 Debye
        Dipole field          0.0000 Ry au,

        Potential amp.       -0.0000 Ry
        Total length         44.7310 bohr

[...]

     Starting wfcs are  120 randomized atomic wfcs

     Self-consistent Calculation

     iteration #  1     ecut=    55.12 Ry     beta= 0.10
     Davidson diagonalization with overlap
     c_bands:  2 eigenvalues not converged
     ethr =  1.00E-02,  avg # of iterations =  7.9

[...]

     total energy              =   -2809.42561168 Ry
     estimated scf accuracy    <      48.66226293 Ry

     total magnetization       =    31.55 Bohr mag/cell
     absolute magnetization    =    32.18 Bohr mag/cell

     iteration #  2     ecut=    55.12 Ry     beta= 0.10
     Davidson diagonalization with overlap
     ethr =  1.00E-02,  avg # of iterations =  1.5

[...]

     iteration # 33     ecut=    55.12 Ry     beta= 0.10
     Davidson diagonalization with overlap
     c_bands:  1 eigenvalues not converged
     ethr =  3.10E-07,  avg # of iterations =  3.2

[...]

     total energy              =   -2831.99063836 Ry
     estimated scf accuracy    <       0.00001837 Ry

[...]

     iteration # 43     ecut=    55.12 Ry     beta= 0.10
     Davidson diagonalization with overlap
     ethr =  6.59E-09,  avg # of iterations =  5.1

[...]

     Adding external electric field

     Computed dipole along edir(3) :
        Dipole                0.0103 Ry au,          0.0262 Debye
        Dipole field          0.0000 Ry au,

        Potential amp.       -0.0030 Ry
        Total length         44.7310 bohr

     Magnetic moment per site:
     atom:    1    charge:   15.7101    magn:    1.0311    constr:    0.0000
     atom:    2    charge:   15.7100    magn:    1.0250    constr:    0.0000
     atom:    3    charge:   11.8951    magn:    0.0139    constr:    0.0000
     atom:    4    charge:   11.8951    magn:    0.0139    constr:    0.0000
     atom:    5    charge:   15.8576    magn:    0.8370    constr:    0.0000
     atom:    6    charge:   15.8570    magn:    0.8381    constr:    0.0000
     atom:    7    charge:   11.9574    magn:   -0.0400    constr:    0.0000
     atom:    8    charge:   11.9574    magn:   -0.0400    constr:    0.0000
     atom:    9    charge:   15.7637    magn:    0.2226    constr:    0.0000
     atom:   10    charge:   15.7636    magn:    0.2859    constr:    0.0000
     atom:   11    charge:   11.9103    magn:    0.0247    constr:    0.0000
     atom:   12    charge:   11.9103    magn:    0.0247    constr:    0.0000

     End of self-consistent calculation

     Number of k-points >= 100: set verbosity='high' to print the bands.

     the Fermi energy is     1.8842 ev

!    total energy              =   -2831.64979455 Ry
     estimated scf accuracy    <       0.00000752 Ry
     smearing contrib. (-TS)   =      -0.07140880 Ry
     internal energy E=F+TS    =   -2831.57838575 Ry

     The total energy is F=E-TS. E is the sum of the following terms:
     one-electron contribution =  -24498.35612536 Ry
     hartree contribution      =   12241.86880373 Ry
     xc contribution           =    -436.58039188 Ry
     ewald contribution        =    9861.48932741 Ry
     electric field correction =       0.00000034 Ry

     total magnetization       =     3.97 Bohr mag/cell
     absolute magnetization    =     4.99 Bohr mag/cell

     convergence has been achieved in  43 iterations

     Forces acting on atoms (cartesian axes, Ry/au):

     atom    1 type  1   force =     0.00000286   -0.00223029    0.01187731
     atom    2 type  1   force =     0.00000331   -0.00225113    0.01197611
     atom    3 type  2   force =    -0.00000076   -0.00156233    0.01594731
     atom    4 type  2   force =     0.00000137   -0.00156837    0.01594754
     atom    5 type  1   force =    -0.00000019    0.00013715   -0.01048808
     atom    6 type  1   force =    -0.00000624    0.00038888   -0.01031270
     atom    7 type  2   force =     0.00005401   -0.00164704   -0.01607416
     atom    8 type  2   force =    -0.00005082   -0.00165010   -0.01607583
     atom    9 type  1   force =     0.00000111    0.00280304    0.00059208
     atom   10 type  1   force =    -0.00000367    0.00288552    0.00081685
     atom   11 type  2   force =     0.00000506    0.00234431   -0.00210414
     atom   12 type  2   force =    -0.00000604    0.00235036   -0.00210229

     Total force =     0.039799     Total SCF correction =     0.003237

     Writing output data file ./Co2Re2/Co2Re2_beef.save/

     General routines

     Parallel routines

   This run was terminated on:  16:58: 7  30Jun2022

   JOB DONE.