     Program PWSCF v.6.6 starts on  1Jul2022 at  0: 3:23

     R & G space division:  proc/nbgrp/npool/nimage =      37
     Fft bands division:     nmany     =       1
     Reading input from Co2Ru2.in
Warning: card &CELL ignored
Warning: card / ignored

     Current dimensions of program PWSCF are:
     Max number of different atomic species (ntypx) = 10
     Max number of k-points (npk) =  40000
     Max angular momentum in pseudopotentials (lmaxx) =  3
     Presently stress not available with electric field and gates

     Message from routine cell_base_init:
     DEPRECATED: use true lattice parameter, not A to a.u. conversion factor
     file Co.pbe-spn-rrkjus_psl.0.3.1.UPF: wavefunction(s)  3P renormalized

     IMPORTANT: XC functional enforced from input :
     Exchange-correlation= BEEF-VDW
                           (   1   4  43  14   2   0   0)
     Any further DFT definition will be discarded
     Please, verify this is what you really want

     Subspace diagonalization in iterative solution of the eigenvalue problem:
     a serial algorithm will be used

     Found symmetry operation: I + (  0.5000 -0.5000  0.0000)
     This is a supercell, fractional translations are disabled

     bravais-lattice index     =            0
     lattice parameter (alat)  =       1.8897  a.u.
     unit-cell volume          =    3831.0640 (a.u.)^3
     number of atoms/cell      =           12
     number of atomic types    =            2
     number of electrons       =       198.00
     number of Kohn-Sham states=          119
     kinetic-energy cutoff     =      55.1240  Ry
     charge density cutoff     =     551.2396  Ry
     convergence threshold     =      1.0E-05
     mixing beta               =       0.1000
     number of iterations used =           10  plain     mixing
     Exchange-correlation= BEEF-VDW
                           (   1   4  43  14   2   0   0)

     celldm(1)=   1.889726  celldm(2)=   0.000000  celldm(3)=   0.000000
     celldm(4)=   0.000000  celldm(5)=   0.000000  celldm(6)=   0.000000

     crystal axes: (cart. coord. in units of alat)
               a(1) = (   5.181923   0.000000   0.000000 )
               a(2) = (   2.536532   4.518665   0.000000 )
               a(3) = (   0.000000   0.000000  24.244978 )

     reciprocal axes: (cart. coord. in units 2 pi/alat)
               b(1) = (  0.192979 -0.108328  0.000000 )
               b(2) = (  0.000000  0.221304  0.000000 )
               b(3) = (  0.000000  0.000000  0.041246 )

     PseudoPot. # 1 for Co read from file:
     ../pseudo/Co.pbe-spn-rrkjus_psl.0.3.1.UPF
     MD5 check sum: 99b21b1f85602741a4c0ed67614a7280
     Pseudo is Ultrasoft + core correction, Zval = 17.0
     Generated using "atomic" code by A. Dal Corso v.6.2.2
     Using radial grid of 1193 points,  6 beta functions with:
                l(1) =   0
                l(2) =   0
                l(3) =   1
                l(4) =   1
                l(5) =   2
                l(6) =   2
     Q(r) pseudized with 0 coefficients

     PseudoPot. # 2 for Ru read from file:
     ../pseudo/Ru.pbe-spn-rrkjus_psl.1.0.0.UPF
     MD5 check sum: fbaca725316a1a65f98761fd4ac95971
     Pseudo is Ultrasoft + core correction, Zval = 16.0
     Generated using "atomic" code by A. Dal Corso v.6.2.2
     Using radial grid of 1233 points,  6 beta functions with:
                l(1) =   0
                l(2) =   0
                l(3) =   1
                l(4) =   1
                l(5) =   2
                l(6) =   2
     Q(r) pseudized with 0 coefficients

     atomic species   valence    mass     pseudopotential
        Co            17.00    58.93319     Co( 1.00)
        Ru            16.00   101.07000     Ru( 1.00)

     Starting magnetic structure
     atomic species   magnetization
        Co           1.000
        Ru           0.000

     No symmetry found

   Cartesian axes

     site n.     atom                  positions (alat units)
         1           Co  tau(   1) = (   0.0000000   0.0000000  10.0000000  )
         2           Co  tau(   2) = (   3.8592274   2.2593326  10.0000000  )
         3           Ru  tau(   3) = (   2.5909616   0.0000000  10.0000000  )
         4           Ru  tau(   4) = (   1.2682658   2.2593326  10.0000000  )
         5           Co  tau(   5) = (   5.1819231   3.0336869  12.1224889  )
         6           Co  tau(   6) = (   1.3226957   0.7743544  12.1224889  )
         7           Ru  tau(   7) = (   2.5909616   3.0336869  12.1224889  )
         8           Ru  tau(   8) = (   3.9136573   0.7743544  12.1224889  )
         9           Co  tau(   9) = (   2.6150809   1.5309643  14.1688417  )
        10           Co  tau(  10) = (   6.4742688   3.7902726  14.1688501  )
        11           Ru  tau(  11) = (   5.2197702   1.5389874  14.2058629  )
        12           Ru  tau(  12) = (   3.8970635   3.7983398  14.2058630  )

     number of k points=    74  Fermi-Dirac smearing, width (Ry)=  0.0100
                       cart. coord. in units 2pi/alat
        k(    1) = (   0.0000000   0.0000000   0.0000000), wk =   0.0069444
        k(    2) = (   0.0000000   0.0184420   0.0000000), wk =   0.0138889
        k(    3) = (   0.0000000   0.0368841   0.0000000), wk =   0.0138889
        k(    4) = (   0.0000000   0.0553261   0.0000000), wk =   0.0138889
        k(    5) = (   0.0000000   0.0737681   0.0000000), wk =   0.0138889
        k(    6) = (   0.0000000   0.0922101   0.0000000), wk =   0.0138889
        k(    7) = (   0.0000000  -0.1106522   0.0000000), wk =   0.0069444
        k(    8) = (   0.0160815  -0.0090273   0.0000000), wk =   0.0138889
        k(    9) = (   0.0160815   0.0094147   0.0000000), wk =   0.0138889
        k(   10) = (   0.0160815   0.0278567   0.0000000), wk =   0.0138889
        k(   11) = (   0.0160815   0.0462988   0.0000000), wk =   0.0138889
        k(   12) = (   0.0160815   0.0647408   0.0000000), wk =   0.0138889
        k(   13) = (   0.0160815   0.0831828   0.0000000), wk =   0.0138889
        k(   14) = (   0.0160815  -0.1196795   0.0000000), wk =   0.0138889
        k(   15) = (   0.0160815  -0.1012374   0.0000000), wk =   0.0138889
        k(   16) = (   0.0160815  -0.0827954   0.0000000), wk =   0.0138889
        k(   17) = (   0.0160815  -0.0643534   0.0000000), wk =   0.0138889
        k(   18) = (   0.0160815  -0.0459114   0.0000000), wk =   0.0138889
        k(   19) = (   0.0160815  -0.0274693   0.0000000), wk =   0.0138889
        k(   20) = (   0.0321631  -0.0180546   0.0000000), wk =   0.0138889
        k(   21) = (   0.0321631   0.0003874   0.0000000), wk =   0.0138889
        k(   22) = (   0.0321631   0.0188294   0.0000000), wk =   0.0138889
        k(   23) = (   0.0321631   0.0372715   0.0000000), wk =   0.0138889
        k(   24) = (   0.0321631   0.0557135   0.0000000), wk =   0.0138889
        k(   25) = (   0.0321631   0.0741555   0.0000000), wk =   0.0138889
        k(   26) = (   0.0321631  -0.1287068   0.0000000), wk =   0.0138889
        k(   27) = (   0.0321631  -0.1102647   0.0000000), wk =   0.0138889
        k(   28) = (   0.0321631  -0.0918227   0.0000000), wk =   0.0138889
        k(   29) = (   0.0321631  -0.0733807   0.0000000), wk =   0.0138889
        k(   30) = (   0.0321631  -0.0549387   0.0000000), wk =   0.0138889
        k(   31) = (   0.0321631  -0.0364966   0.0000000), wk =   0.0138889
        k(   32) = (   0.0482446  -0.0270819   0.0000000), wk =   0.0138889
        k(   33) = (   0.0482446  -0.0086399   0.0000000), wk =   0.0138889
        k(   34) = (   0.0482446   0.0098021   0.0000000), wk =   0.0138889
        k(   35) = (   0.0482446   0.0282442   0.0000000), wk =   0.0138889
        k(   36) = (   0.0482446   0.0466862   0.0000000), wk =   0.0138889
        k(   37) = (   0.0482446   0.0651282   0.0000000), wk =   0.0138889
        k(   38) = (   0.0482446  -0.1377341   0.0000000), wk =   0.0138889
        k(   39) = (   0.0482446  -0.1192920   0.0000000), wk =   0.0138889
        k(   40) = (   0.0482446  -0.1008500   0.0000000), wk =   0.0138889
        k(   41) = (   0.0482446  -0.0824080   0.0000000), wk =   0.0138889
        k(   42) = (   0.0482446  -0.0639660   0.0000000), wk =   0.0138889
        k(   43) = (   0.0482446  -0.0455239   0.0000000), wk =   0.0138889
        k(   44) = (   0.0643262  -0.0361092   0.0000000), wk =   0.0138889
        k(   45) = (   0.0643262  -0.0176672   0.0000000), wk =   0.0138889
        k(   46) = (   0.0643262   0.0007748   0.0000000), wk =   0.0138889
        k(   47) = (   0.0643262   0.0192169   0.0000000), wk =   0.0138889
        k(   48) = (   0.0643262   0.0376589   0.0000000), wk =   0.0138889
        k(   49) = (   0.0643262   0.0561009   0.0000000), wk =   0.0138889
        k(   50) = (   0.0643262  -0.1467614   0.0000000), wk =   0.0138889
        k(   51) = (   0.0643262  -0.1283193   0.0000000), wk =   0.0138889
        k(   52) = (   0.0643262  -0.1098773   0.0000000), wk =   0.0138889
        k(   53) = (   0.0643262  -0.0914353   0.0000000), wk =   0.0138889
        k(   54) = (   0.0643262  -0.0729933   0.0000000), wk =   0.0138889
        k(   55) = (   0.0643262  -0.0545512   0.0000000), wk =   0.0138889
        k(   56) = (   0.0804077  -0.0451365   0.0000000), wk =   0.0138889
        k(   57) = (   0.0804077  -0.0266945   0.0000000), wk =   0.0138889
        k(   58) = (   0.0804077  -0.0082525   0.0000000), wk =   0.0138889
        k(   59) = (   0.0804077   0.0101896   0.0000000), wk =   0.0138889
        k(   60) = (   0.0804077   0.0286316   0.0000000), wk =   0.0138889
        k(   61) = (   0.0804077   0.0470736   0.0000000), wk =   0.0138889
        k(   62) = (   0.0804077  -0.1557887   0.0000000), wk =   0.0138889
        k(   63) = (   0.0804077  -0.1373466   0.0000000), wk =   0.0138889
        k(   64) = (   0.0804077  -0.1189046   0.0000000), wk =   0.0138889
        k(   65) = (   0.0804077  -0.1004626   0.0000000), wk =   0.0138889
        k(   66) = (   0.0804077  -0.0820206   0.0000000), wk =   0.0138889
        k(   67) = (   0.0804077  -0.0635785   0.0000000), wk =   0.0138889
        k(   68) = (  -0.0964893   0.0541638   0.0000000), wk =   0.0069444
        k(   69) = (  -0.0964893   0.0726058   0.0000000), wk =   0.0138889
        k(   70) = (  -0.0964893   0.0910479   0.0000000), wk =   0.0138889
        k(   71) = (  -0.0964893   0.1094899   0.0000000), wk =   0.0138889
        k(   72) = (  -0.0964893   0.1279319   0.0000000), wk =   0.0138889
        k(   73) = (  -0.0964893   0.1463739   0.0000000), wk =   0.0138889
        k(   74) = (  -0.0964893  -0.0564883   0.0000000), wk =   0.0069444

     Check: negative core charge=   -0.000008
     Generating pointlists ...
     new r_m :   1.0460 (alat units)  1.9767 (a.u.) for type    1
     new r_m :   1.0473 (alat units)  1.9791 (a.u.) for type    2

     Initial potential from superposition of free atoms

     starting charge  197.99447, renormalised to  198.00000

     %%%%%%%%%%%%%%%%%%%%%%%%%%%%%%%%%%%%%%%%%%%%%%%%%%%%%%%%%%%%%%%%%%%%%%%%
     %                                                                      %
     % You are using vdW-DF, which was implemented by the Thonhauser group. %
     % Please cite the following two papers that made this development      %
     % possible and the two reviews that describe the various versions:     %
     %                                                                      %
     %   T. Thonhauser et al., PRL 115, 136402 (2015).                      %
     %   T. Thonhauser et al., PRB 76, 125112 (2007).                       %
     %   K. Berland et al., Rep. Prog. Phys. 78, 066501 (2015).             %
     %   D.C. Langreth et al., J. Phys.: Condens. Matter 21, 084203 (2009). %
     %                                                                      %
     %                                                                      %
     % If you are calculating the stress with vdW-DF, please also cite:     %
     %                                                                      %
     %   R. Sabatini et al., J. Phys.: Condens. Matter 24, 424209 (2012).   %
     %                                                                      %
     %%%%%%%%%%%%%%%%%%%%%%%%%%%%%%%%%%%%%%%%%%%%%%%%%%%%%%%%%%%%%%%%%%%%%%%%

     Adding external electric field

     Computed dipole along edir(3) :
        Dipole                0.0000 Ry au,          0.0001 Debye
        Dipole field          0.0000 Ry au,

        Potential amp.       -0.0000 Ry
        Total length         44.6710 bohr

[...]

     Starting wfcs are  120 randomized atomic wfcs

     Self-consistent Calculation

     iteration #  1     ecut=    55.12 Ry     beta= 0.10
     Davidson diagonalization with overlap
     ethr =  1.00E-02,  avg # of iterations =  8.4

[...]

     total energy              =   -2922.75281767 Ry
     estimated scf accuracy    <      55.02442677 Ry

     total magnetization       =    32.48 Bohr mag/cell
     absolute magnetization    =    32.78 Bohr mag/cell

[...]

     iteration # 26     ecut=    55.12 Ry     beta= 0.10
     Davidson diagonalization with overlap
     c_bands:  1 eigenvalues not converged
     c_bands:  1 eigenvalues not converged
     c_bands:  1 eigenvalues not converged
     ethr =  3.61E-05,  avg # of iterations =  3.3

[...]

     iteration # 31     ecut=    55.12 Ry     beta= 0.10
     Davidson diagonalization with overlap
     c_bands:  1 eigenvalues not converged
     c_bands:  1 eigenvalues not converged
     ethr =  7.03E-07,  avg # of iterations =  4.9

[...]

     total energy              =   -2944.74625772 Ry
     estimated scf accuracy    <       0.00002345 Ry

[...]

     iteration # 45     ecut=    55.12 Ry     beta= 0.10
     Davidson diagonalization with overlap
     ethr =  1.14E-08,  avg # of iterations =  1.9

[...]

     Adding external electric field

     Computed dipole along edir(3) :
        Dipole                0.0086 Ry au,          0.0220 Debye
        Dipole field          0.0000 Ry au,

        Potential amp.       -0.0025 Ry
        Total length         44.6710 bohr

     Magnetic moment per site:
     atom:    1    charge:   15.6305    magn:    1.6659    constr:    0.0000
     atom:    2    charge:   15.6300    magn:    1.6666    constr:    0.0000
     atom:    3    charge:   13.5805    magn:    0.2418    constr:    0.0000
     atom:    4    charge:   13.5805    magn:    0.2416    constr:    0.0000
     atom:    5    charge:   15.7432    magn:    1.4933    constr:    0.0000
     atom:    6    charge:   15.7433    magn:    1.4934    constr:    0.0000
     atom:    7    charge:   13.6191    magn:    0.1581    constr:    0.0000
     atom:    8    charge:   13.6191    magn:    0.1581    constr:    0.0000
     atom:    9    charge:   15.6606    magn:    1.5868    constr:    0.0000
     atom:   10    charge:   15.6599    magn:    1.5881    constr:    0.0000
     atom:   11    charge:   13.5908    magn:    0.2042    constr:    0.0000
     atom:   12    charge:   13.5908    magn:    0.2040    constr:    0.0000

     End of self-consistent calculation

     Number of k-points >= 100: set verbosity='high' to print the bands.

     the Fermi energy is     1.6755 ev

!    total energy              =   -2944.23308459 Ry
     estimated scf accuracy    <       0.00000915 Ry
     smearing contrib. (-TS)   =      -0.08998125 Ry
     internal energy E=F+TS    =   -2944.14310334 Ry

     The total energy is F=E-TS. E is the sum of the following terms:
     one-electron contribution =  -26482.94636449 Ry
     hartree contribution      =   13242.82590791 Ry
     xc contribution           =    -371.25859440 Ry
     ewald contribution        =   10667.23594740 Ry
     electric field correction =       0.00000025 Ry

     total magnetization       =    10.30 Bohr mag/cell
     absolute magnetization    =    11.51 Bohr mag/cell

     convergence has been achieved in  45 iterations

     Forces acting on atoms (cartesian axes, Ry/au):

     atom    1 type  1   force =     0.00662402    0.00387673    0.00675391
     atom    2 type  1   force =     0.00668301    0.00390697    0.00672792
     atom    3 type  2   force =    -0.00119061   -0.00075821    0.00527297
     atom    4 type  2   force =    -0.00123925   -0.00066523    0.00527672
     atom    5 type  1   force =     0.00001188    0.00000263   -0.00733239
     atom    6 type  1   force =     0.00011225    0.00006570   -0.00731217
     atom    7 type  2   force =    -0.00125399   -0.00071640   -0.01053068
     atom    8 type  2   force =    -0.00124055   -0.00074111   -0.01052345
     atom    9 type  1   force =    -0.00381965   -0.00223426    0.00375975
     atom   10 type  1   force =    -0.00372053   -0.00217679    0.00394039
     atom   11 type  2   force =    -0.00050727   -0.00024222    0.00198518
     atom   12 type  2   force =    -0.00045932   -0.00031781    0.00198185

     Total force =     0.026052     Total SCF correction =     0.005714
     SCF correction compared to forces is large: reduce conv_thr to get better values

     Writing output data file ./Co2Ru2/Co2Ru2_beef.save/

     General routines

     Parallel routines

   This run was terminated on:   5: 7:15   1Jul2022

   JOB DONE.