     Program PWSCF v.6.6 starts on  1Jul2022 at 11:45:50

     R & G space division:  proc/nbgrp/npool/nimage =      37
     Fft bands division:     nmany     =       1
     Reading input from Co2Ti2.in
Warning: card &CELL ignored
Warning: card / ignored

     Current dimensions of program PWSCF are:
     Max number of different atomic species (ntypx) = 10
     Max number of k-points (npk) =  40000
     Max angular momentum in pseudopotentials (lmaxx) =  3
     Presently stress not available with electric field and gates

     Message from routine cell_base_init:
     DEPRECATED: use true lattice parameter, not A to a.u. conversion factor
     file Co.pbe-spn-rrkjus_psl.0.3.1.UPF: wavefunction(s)  3P renormalized
     file Ti.pbe-spn-rrkjus_psl.1.0.0.UPF: wavefunction(s)  3S 3D renormalized

     IMPORTANT: XC functional enforced from input :
     Exchange-correlation= BEEF-VDW
                           (   1   4  43  14   2   0   0)
     Any further DFT definition will be discarded
     Please, verify this is what you really want

     Subspace diagonalization in iterative solution of the eigenvalue problem:
     a serial algorithm will be used

     bravais-lattice index     =            0
     lattice parameter (alat)  =       1.8897  a.u.
     unit-cell volume          =    4135.0920 (a.u.)^3
     number of atoms/cell      =           12
     number of atomic types    =            2
     number of electrons       =       174.00
     number of Kohn-Sham states=          104
     kinetic-energy cutoff     =      55.1240  Ry
     charge density cutoff     =     551.2396  Ry
     convergence threshold     =      1.0E-05
     mixing beta               =       0.1000
     number of iterations used =           10  plain     mixing
     Exchange-correlation= BEEF-VDW
                           (   1   4  43  14   2   0   0)

     celldm(1)=   1.889726  celldm(2)=   0.000000  celldm(3)=   0.000000
     celldm(4)=   0.000000  celldm(5)=   0.000000  celldm(6)=   0.000000

     crystal axes: (cart. coord. in units of alat)
               a(1) = (   5.177983   0.000000   0.000000 )
               a(2) = (   1.717092   4.884987   0.000000 )
               a(3) = (   0.000000   0.000000  24.225047 )

     reciprocal axes: (cart. coord. in units 2 pi/alat)
               b(1) = (  0.193125 -0.067884  0.000000 )
               b(2) = (  0.000000  0.204709  0.000000 )
               b(3) = (  0.000000  0.000000  0.041280 )

     PseudoPot. # 1 for Co read from file:
     ../pseudo/Co.pbe-spn-rrkjus_psl.0.3.1.UPF
     MD5 check sum: 99b21b1f85602741a4c0ed67614a7280
     Pseudo is Ultrasoft + core correction, Zval = 17.0
     Generated using "atomic" code by A. Dal Corso v.6.2.2
     Using radial grid of 1193 points,  6 beta functions with:
                l(1) =   0
                l(2) =   0
                l(3) =   1
                l(4) =   1
                l(5) =   2
                l(6) =   2
     Q(r) pseudized with 0 coefficients

     PseudoPot. # 2 for Ti read from file:
     ../pseudo/Ti.pbe-spn-rrkjus_psl.1.0.0.UPF
     MD5 check sum: e281089c08e14b8efcf92e44a67ada65
     Pseudo is Ultrasoft + core correction, Zval = 12.0
     Generated using "atomic" code by A. Dal Corso v.6.2.2
     Using radial grid of 1177 points,  6 beta functions with:
                l(1) =   0
                l(2) =   0
                l(3) =   1
                l(4) =   1
                l(5) =   2
                l(6) =   2
     Q(r) pseudized with 0 coefficients

     atomic species   valence    mass     pseudopotential
        Co            17.00    58.93319     Co( 1.00)
        Ti            12.00    47.86700     Ti( 1.00)

     Starting magnetic structure
     atomic species   magnetization
        Co           1.000
        Ti           0.000

     No symmetry found

   Cartesian axes

     site n.     atom                  positions (alat units)
         1           Co  tau(   1) = (   0.0000000   0.0000000  10.0000000  )
         2           Co  tau(   2) = (   3.4475373   2.4424936  10.0000000  )
         3           Ti  tau(   3) = (   2.5889913   0.0000000  10.0000000  )
         4           Ti  tau(   4) = (   0.8585459   2.4424936  10.0000000  )
         5           Co  tau(   5) = (   5.1779827   3.6684707  12.1125234  )
         6           Co  tau(   6) = (   1.7304454   1.2259771  12.1125234  )
         7           Ti  tau(   7) = (   2.5889913   3.6684707  12.1125234  )
         8           Ti  tau(   8) = (   4.3194367   1.2259771  12.1125234  )
         9           Co  tau(   9) = (   3.4570891   2.4492618  13.9928040  )
        10           Co  tau(  10) = (   0.0098277   0.0069616  13.9929184  )
        11           Ti  tau(  11) = (   0.8672334   2.4486108  14.2592213  )
        12           Ti  tau(  12) = (   2.5976436   0.0061676  14.2592200  )

     number of k points=    74  Fermi-Dirac smearing, width (Ry)=  0.0100
                       cart. coord. in units 2pi/alat
        k(    1) = (   0.0000000   0.0000000   0.0000000), wk =   0.0069444
        k(    2) = (   0.0000000   0.0170591   0.0000000), wk =   0.0138889
        k(    3) = (   0.0000000   0.0341181   0.0000000), wk =   0.0138889
        k(    4) = (   0.0000000   0.0511772   0.0000000), wk =   0.0138889
        k(    5) = (   0.0000000   0.0682363   0.0000000), wk =   0.0138889
        k(    6) = (   0.0000000   0.0852953   0.0000000), wk =   0.0138889
        k(    7) = (   0.0000000  -0.1023544   0.0000000), wk =   0.0069444
        k(    8) = (   0.0160938  -0.0056570   0.0000000), wk =   0.0138889
        k(    9) = (   0.0160938   0.0114020   0.0000000), wk =   0.0138889
        k(   10) = (   0.0160938   0.0284611   0.0000000), wk =   0.0138889
        k(   11) = (   0.0160938   0.0455202   0.0000000), wk =   0.0138889
        k(   12) = (   0.0160938   0.0625793   0.0000000), wk =   0.0138889
        k(   13) = (   0.0160938   0.0796383   0.0000000), wk =   0.0138889
        k(   14) = (   0.0160938  -0.1080114   0.0000000), wk =   0.0138889
        k(   15) = (   0.0160938  -0.0909524   0.0000000), wk =   0.0138889
        k(   16) = (   0.0160938  -0.0738933   0.0000000), wk =   0.0138889
        k(   17) = (   0.0160938  -0.0568342   0.0000000), wk =   0.0138889
        k(   18) = (   0.0160938  -0.0397752   0.0000000), wk =   0.0138889
        k(   19) = (   0.0160938  -0.0227161   0.0000000), wk =   0.0138889
        k(   20) = (   0.0321876  -0.0113141   0.0000000), wk =   0.0138889
        k(   21) = (   0.0321876   0.0057450   0.0000000), wk =   0.0138889
        k(   22) = (   0.0321876   0.0228041   0.0000000), wk =   0.0138889
        k(   23) = (   0.0321876   0.0398632   0.0000000), wk =   0.0138889
        k(   24) = (   0.0321876   0.0569222   0.0000000), wk =   0.0138889
        k(   25) = (   0.0321876   0.0739813   0.0000000), wk =   0.0138889
        k(   26) = (   0.0321876  -0.1136685   0.0000000), wk =   0.0138889
        k(   27) = (   0.0321876  -0.0966094   0.0000000), wk =   0.0138889
        k(   28) = (   0.0321876  -0.0795503   0.0000000), wk =   0.0138889
        k(   29) = (   0.0321876  -0.0624913   0.0000000), wk =   0.0138889
        k(   30) = (   0.0321876  -0.0454322   0.0000000), wk =   0.0138889
        k(   31) = (   0.0321876  -0.0283731   0.0000000), wk =   0.0138889
        k(   32) = (   0.0482813  -0.0169711   0.0000000), wk =   0.0138889
        k(   33) = (   0.0482813   0.0000880   0.0000000), wk =   0.0138889
        k(   34) = (   0.0482813   0.0171471   0.0000000), wk =   0.0138889
        k(   35) = (   0.0482813   0.0342061   0.0000000), wk =   0.0138889
        k(   36) = (   0.0482813   0.0512652   0.0000000), wk =   0.0138889
        k(   37) = (   0.0482813   0.0683243   0.0000000), wk =   0.0138889
        k(   38) = (   0.0482813  -0.1193255   0.0000000), wk =   0.0138889
        k(   39) = (   0.0482813  -0.1022664   0.0000000), wk =   0.0138889
        k(   40) = (   0.0482813  -0.0852074   0.0000000), wk =   0.0138889
        k(   41) = (   0.0482813  -0.0681483   0.0000000), wk =   0.0138889
        k(   42) = (   0.0482813  -0.0510892   0.0000000), wk =   0.0138889
        k(   43) = (   0.0482813  -0.0340302   0.0000000), wk =   0.0138889
        k(   44) = (   0.0643751  -0.0226281   0.0000000), wk =   0.0138889
        k(   45) = (   0.0643751  -0.0055690   0.0000000), wk =   0.0138889
        k(   46) = (   0.0643751   0.0114900   0.0000000), wk =   0.0138889
        k(   47) = (   0.0643751   0.0285491   0.0000000), wk =   0.0138889
        k(   48) = (   0.0643751   0.0456082   0.0000000), wk =   0.0138889
        k(   49) = (   0.0643751   0.0626672   0.0000000), wk =   0.0138889
        k(   50) = (   0.0643751  -0.1249825   0.0000000), wk =   0.0138889
        k(   51) = (   0.0643751  -0.1079235   0.0000000), wk =   0.0138889
        k(   52) = (   0.0643751  -0.0908644   0.0000000), wk =   0.0138889
        k(   53) = (   0.0643751  -0.0738053   0.0000000), wk =   0.0138889
        k(   54) = (   0.0643751  -0.0567462   0.0000000), wk =   0.0138889
        k(   55) = (   0.0643751  -0.0396872   0.0000000), wk =   0.0138889
        k(   56) = (   0.0804689  -0.0282851   0.0000000), wk =   0.0138889
        k(   57) = (   0.0804689  -0.0112261   0.0000000), wk =   0.0138889
        k(   58) = (   0.0804689   0.0058330   0.0000000), wk =   0.0138889
        k(   59) = (   0.0804689   0.0228921   0.0000000), wk =   0.0138889
        k(   60) = (   0.0804689   0.0399511   0.0000000), wk =   0.0138889
        k(   61) = (   0.0804689   0.0570102   0.0000000), wk =   0.0138889
        k(   62) = (   0.0804689  -0.1306396   0.0000000), wk =   0.0138889
        k(   63) = (   0.0804689  -0.1135805   0.0000000), wk =   0.0138889
        k(   64) = (   0.0804689  -0.0965214   0.0000000), wk =   0.0138889
        k(   65) = (   0.0804689  -0.0794623   0.0000000), wk =   0.0138889
        k(   66) = (   0.0804689  -0.0624033   0.0000000), wk =   0.0138889
        k(   67) = (   0.0804689  -0.0453442   0.0000000), wk =   0.0138889
        k(   68) = (  -0.0965627   0.0339422   0.0000000), wk =   0.0069444
        k(   69) = (  -0.0965627   0.0510012   0.0000000), wk =   0.0138889
        k(   70) = (  -0.0965627   0.0680603   0.0000000), wk =   0.0138889
        k(   71) = (  -0.0965627   0.0851194   0.0000000), wk =   0.0138889
        k(   72) = (  -0.0965627   0.1021784   0.0000000), wk =   0.0138889
        k(   73) = (  -0.0965627   0.1192375   0.0000000), wk =   0.0138889
        k(   74) = (  -0.0965627  -0.0684123   0.0000000), wk =   0.0069444

     Check: negative core charge=   -0.000008
     Generating pointlists ...
     new r_m :   0.9913 (alat units)  1.8733 (a.u.) for type    1
     new r_m :   0.9913 (alat units)  1.8733 (a.u.) for type    2

     Initial potential from superposition of free atoms

     starting charge  173.98942, renormalised to  174.00000

     %%%%%%%%%%%%%%%%%%%%%%%%%%%%%%%%%%%%%%%%%%%%%%%%%%%%%%%%%%%%%%%%%%%%%%%%
     %                                                                      %
     % You are using vdW-DF, which was implemented by the Thonhauser group. %
     % Please cite the following two papers that made this development      %
     % possible and the two reviews that describe the various versions:     %
     %                                                                      %
     %   T. Thonhauser et al., PRL 115, 136402 (2015).                      %
     %   T. Thonhauser et al., PRB 76, 125112 (2007).                       %
     %   K. Berland et al., Rep. Prog. Phys. 78, 066501 (2015).             %
     %   D.C. Langreth et al., J. Phys.: Condens. Matter 21, 084203 (2009). %
     %                                                                      %
     %                                                                      %
     % If you are calculating the stress with vdW-DF, please also cite:     %
     %                                                                      %
     %   R. Sabatini et al., J. Phys.: Condens. Matter 24, 424209 (2012).   %
     %                                                                      %
     %%%%%%%%%%%%%%%%%%%%%%%%%%%%%%%%%%%%%%%%%%%%%%%%%%%%%%%%%%%%%%%%%%%%%%%%

     Adding external electric field

     Computed dipole along edir(3) :
        Dipole                0.0008 Ry au,          0.0019 Debye
        Dipole field          0.0000 Ry au,

        Potential amp.       -0.0002 Ry
        Total length         44.6342 bohr

[...]

     Starting wfcs are  120 randomized atomic wfcs

     Self-consistent Calculation

     iteration #  1     ecut=    55.12 Ry     beta= 0.10
     Davidson diagonalization with overlap
     ethr =  1.00E-02,  avg # of iterations =  4.8

[...]

     total energy              =   -2454.45944273 Ry
     estimated scf accuracy    <      54.92116309 Ry

     total magnetization       =    31.10 Bohr mag/cell
     absolute magnetization    =    32.25 Bohr mag/cell

[...]

     iteration # 28     ecut=    55.12 Ry     beta= 0.10
     Davidson diagonalization with overlap
     c_bands:  1 eigenvalues not converged
     c_bands:  1 eigenvalues not converged
     c_bands:  1 eigenvalues not converged
     c_bands:  2 eigenvalues not converged
     c_bands:  1 eigenvalues not converged
     c_bands:  2 eigenvalues not converged
     c_bands:  1 eigenvalues not converged
     c_bands:  2 eigenvalues not converged
     ethr =  5.24E-04,  avg # of iterations =  7.8

[...]

     iteration # 76     ecut=    55.12 Ry     beta= 0.10
     Davidson diagonalization with overlap
     c_bands:  1 eigenvalues not converged
     c_bands:  1 eigenvalues not converged
     ethr =  6.59E-09,  avg # of iterations =  8.7

[...]

     total energy              =   -2479.14902066 Ry
     estimated scf accuracy    <       0.00001100 Ry

[...]

     iteration # 79     ecut=    55.12 Ry     beta= 0.10
     Davidson diagonalization with overlap
     ethr =  5.78E-09,  avg # of iterations =  2.9

[...]

     Adding external electric field

     Computed dipole along edir(3) :
        Dipole                0.0941 Ry au,          0.2392 Debye
        Dipole field          0.0003 Ry au,

        Potential amp.       -0.0255 Ry
        Total length         44.6342 bohr

     Magnetic moment per site:
     atom:    1    charge:   15.4172    magn:    0.8343    constr:    0.0000
     atom:    2    charge:   15.4169    magn:    0.8335    constr:    0.0000
     atom:    3    charge:    9.6423    magn:   -0.3930    constr:    0.0000
     atom:    4    charge:    9.6423    magn:   -0.3932    constr:    0.0000
     atom:    5    charge:   15.4579    magn:    0.8381    constr:    0.0000
     atom:    6    charge:   15.4578    magn:    0.8385    constr:    0.0000
     atom:    7    charge:    9.7023    magn:   -0.1364    constr:    0.0000
     atom:    8    charge:    9.7023    magn:   -0.1364    constr:    0.0000
     atom:    9    charge:   15.4752    magn:    0.2724    constr:    0.0000
     atom:   10    charge:   15.4758    magn:    0.2755    constr:    0.0000
     atom:   11    charge:    9.6297    magn:   -0.1924    constr:    0.0000
     atom:   12    charge:    9.6297    magn:   -0.1924    constr:    0.0000

     End of self-consistent calculation

     Number of k-points >= 100: set verbosity='high' to print the bands.

     the Fermi energy is     1.0266 ev

!    total energy              =   -2478.82120598 Ry
     estimated scf accuracy    <       0.00000979 Ry
     smearing contrib. (-TS)   =      -0.05497957 Ry
     internal energy E=F+TS    =   -2478.76622641 Ry

     The total energy is F=E-TS. E is the sum of the following terms:
     one-electron contribution =  -19556.94438257 Ry
     hartree contribution      =    9772.32118325 Ry
     xc contribution           =    -306.72056790 Ry
     ewald contribution        =    7612.57751387 Ry
     electric field correction =       0.00002693 Ry

     total magnetization       =     1.26 Bohr mag/cell
     absolute magnetization    =     6.59 Bohr mag/cell

     convergence has been achieved in  79 iterations

     Forces acting on atoms (cartesian axes, Ry/au):

     atom    1 type  1   force =     0.00010945    0.00007366    0.04013712
     atom    2 type  1   force =     0.00010556    0.00008002    0.04003875
     atom    3 type  2   force =     0.00070109    0.00049864   -0.02049941
     atom    4 type  2   force =     0.00070248    0.00049663   -0.02051251
     atom    5 type  1   force =    -0.00009077   -0.00005803   -0.00100707
     atom    6 type  1   force =     0.00013565    0.00009435   -0.00098913
     atom    7 type  2   force =    -0.00045931   -0.00028717   -0.02163215
     atom    8 type  2   force =    -0.00042005   -0.00033693   -0.02162961
     atom    9 type  1   force =    -0.00022111   -0.00015265    0.00042916
     atom   10 type  1   force =    -0.00036600   -0.00026588    0.00037852
     atom   11 type  2   force =    -0.00010048   -0.00007078    0.00264014
     atom   12 type  2   force =    -0.00009651   -0.00007185    0.00264620

     Total force =     0.070779     Total SCF correction =     0.012233
     SCF correction compared to forces is large: reduce conv_thr to get better values

     Writing output data file ./Co2Ti2/Co2Ti2_beef.save/

     General routines

     Parallel routines

   This run was terminated on:  19:27: 7   1Jul2022

   JOB DONE.