     Program PWSCF v.6.6 starts on  2Jul2022 at  2:21: 0

     R & G space division:  proc/nbgrp/npool/nimage =      37
     Fft bands division:     nmany     =       1
     Reading input from Co2W2.in
Warning: card &CELL ignored
Warning: card / ignored

     Current dimensions of program PWSCF are:
     Max number of different atomic species (ntypx) = 10
     Max number of k-points (npk) =  40000
     Max angular momentum in pseudopotentials (lmaxx) =  3
     Presently stress not available with electric field and gates

     Message from routine cell_base_init:
     DEPRECATED: use true lattice parameter, not A to a.u. conversion factor
     Message from routine emend_upf/check:
     BEWARE !!! Possible out of bounds while fixing pseudo
     Message from routine emend_upf/check:
     BEWARE !!! Possible out of bounds while fixing pseudo
     Message from routine read_upf:
     Pseudo file W.pbe-spn-rrkjus_psl.0.2.3.UPF has been fixed on the fly.
     To avoid this message in the future, permanently fix
     your pseudo files following these instructions:
     file Co.pbe-spn-rrkjus_psl.0.3.1.UPF: wavefunction(s)  3P renormalized

     IMPORTANT: XC functional enforced from input :
     Exchange-correlation= BEEF-VDW
                           (   1   4  43  14   2   0   0)
     Any further DFT definition will be discarded
     Please, verify this is what you really want

     Subspace diagonalization in iterative solution of the eigenvalue problem:
     a serial algorithm will be used

     bravais-lattice index     =            0
     lattice parameter (alat)  =       1.8897  a.u.
     unit-cell volume          =    4005.2921 (a.u.)^3
     number of atoms/cell      =           12
     number of atomic types    =            2
     number of electrons       =       186.00
     number of Kohn-Sham states=          112
     kinetic-energy cutoff     =      55.1240  Ry
     charge density cutoff     =     551.2396  Ry
     convergence threshold     =      1.0E-05
     mixing beta               =       0.1000
     number of iterations used =           10  plain     mixing
     Exchange-correlation= BEEF-VDW
                           (   1   4  43  14   2   0   0)

     celldm(1)=   1.889726  celldm(2)=   0.000000  celldm(3)=   0.000000
     celldm(4)=   0.000000  celldm(5)=   0.000000  celldm(6)=   0.000000

     crystal axes: (cart. coord. in units of alat)
               a(1) = (   5.291383   0.000000   0.000000 )
               a(2) = (   2.597878   4.609747   0.000000 )
               a(3) = (   0.000000   0.000000  24.332761 )

     reciprocal axes: (cart. coord. in units 2 pi/alat)
               b(1) = (  0.188987 -0.106506  0.000000 )
               b(2) = (  0.000000  0.216932  0.000000 )
               b(3) = (  0.000000  0.000000  0.041097 )

     PseudoPot. # 1 for Co read from file:
     ../pseudo/Co.pbe-spn-rrkjus_psl.0.3.1.UPF
     MD5 check sum: 99b21b1f85602741a4c0ed67614a7280
     Pseudo is Ultrasoft + core correction, Zval = 17.0
     Generated using "atomic" code by A. Dal Corso v.6.2.2
     Using radial grid of 1193 points,  6 beta functions with:
                l(1) =   0
                l(2) =   0
                l(3) =   1
                l(4) =   1
                l(5) =   2
                l(6) =   2
     Q(r) pseudized with 0 coefficients

     PseudoPot. # 2 for W  read from file:
     ../pseudo/W.pbe-spn-rrkjus_psl.0.2.3.UPF
     MD5 check sum: 25b665cf2bbae626ad8d9f1bc024df95
     Pseudo is Ultrasoft + core correction, Zval = 14.0
     Generated using "atomic" code by A. Dal Corso v.5.0.2 svn rev. 10551
     Using radial grid of 1273 points,  6 beta functions with:
                l(1) =   0
                l(2) =   0
                l(3) =   1
                l(4) =   1
                l(5) =   2
                l(6) =   2
     Q(r) pseudized with 0 coefficients

     atomic species   valence    mass     pseudopotential
        Co            17.00    58.93319     Co( 1.00)
        W             14.00   183.84000     W ( 1.00)

     Starting magnetic structure
     atomic species   magnetization
        Co           1.000
        W            0.000

     No symmetry found

   Cartesian axes

     site n.     atom                  positions (alat units)
         1           Co  tau(   1) = (   0.0000000   0.0000000  10.0000000  )
         2           Co  tau(   2) = (   3.9446305   2.3048734  10.0000000  )
         3           W   tau(   3) = (   2.6456916   0.0000000  10.0000000  )
         4           W   tau(   4) = (   1.2989390   2.3048734  10.0000000  )
         5           Co  tau(   5) = (   5.2913831   3.0917897  12.1663804  )
         6           Co  tau(   6) = (   1.3467526   0.7869163  12.1663804  )
         7           W   tau(   7) = (   2.6456916   3.0917897  12.1663804  )
         8           W   tau(   8) = (   3.9924441   0.7869163  12.1663804  )
         9           Co  tau(   9) = (   2.7339852   1.5975063  14.2620269  )
        10           Co  tau(  10) = (   6.6784597   3.9022476  14.2619134  )
        11           W   tau(  11) = (   5.3957388   1.6068945  14.2555496  )
        12           W   tau(  12) = (   4.0490157   3.9117376  14.2555574  )

     number of k points=    74  Fermi-Dirac smearing, width (Ry)=  0.0100
                       cart. coord. in units 2pi/alat
        k(    1) = (   0.0000000   0.0000000   0.0000000), wk =   0.0069444
        k(    2) = (   0.0000000   0.0180776   0.0000000), wk =   0.0138889
        k(    3) = (   0.0000000   0.0361553   0.0000000), wk =   0.0138889
        k(    4) = (   0.0000000   0.0542329   0.0000000), wk =   0.0138889
        k(    5) = (   0.0000000   0.0723105   0.0000000), wk =   0.0138889
        k(    6) = (   0.0000000   0.0903882   0.0000000), wk =   0.0138889
        k(    7) = (   0.0000000  -0.1084658   0.0000000), wk =   0.0069444
        k(    8) = (   0.0157489  -0.0088755   0.0000000), wk =   0.0138889
        k(    9) = (   0.0157489   0.0092022   0.0000000), wk =   0.0138889
        k(   10) = (   0.0157489   0.0272798   0.0000000), wk =   0.0138889
        k(   11) = (   0.0157489   0.0453574   0.0000000), wk =   0.0138889
        k(   12) = (   0.0157489   0.0634351   0.0000000), wk =   0.0138889
        k(   13) = (   0.0157489   0.0815127   0.0000000), wk =   0.0138889
        k(   14) = (   0.0157489  -0.1173413   0.0000000), wk =   0.0138889
        k(   15) = (   0.0157489  -0.0992637   0.0000000), wk =   0.0138889
        k(   16) = (   0.0157489  -0.0811860   0.0000000), wk =   0.0138889
        k(   17) = (   0.0157489  -0.0631084   0.0000000), wk =   0.0138889
        k(   18) = (   0.0157489  -0.0450307   0.0000000), wk =   0.0138889
        k(   19) = (   0.0157489  -0.0269531   0.0000000), wk =   0.0138889
        k(   20) = (   0.0314978  -0.0177509   0.0000000), wk =   0.0138889
        k(   21) = (   0.0314978   0.0003267   0.0000000), wk =   0.0138889
        k(   22) = (   0.0314978   0.0184043   0.0000000), wk =   0.0138889
        k(   23) = (   0.0314978   0.0364820   0.0000000), wk =   0.0138889
        k(   24) = (   0.0314978   0.0545596   0.0000000), wk =   0.0138889
        k(   25) = (   0.0314978   0.0726373   0.0000000), wk =   0.0138889
        k(   26) = (   0.0314978  -0.1262168   0.0000000), wk =   0.0138889
        k(   27) = (   0.0314978  -0.1081391   0.0000000), wk =   0.0138889
        k(   28) = (   0.0314978  -0.0900615   0.0000000), wk =   0.0138889
        k(   29) = (   0.0314978  -0.0719838   0.0000000), wk =   0.0138889
        k(   30) = (   0.0314978  -0.0539062   0.0000000), wk =   0.0138889
        k(   31) = (   0.0314978  -0.0358286   0.0000000), wk =   0.0138889
        k(   32) = (   0.0472466  -0.0266264   0.0000000), wk =   0.0138889
        k(   33) = (   0.0472466  -0.0085488   0.0000000), wk =   0.0138889
        k(   34) = (   0.0472466   0.0095289   0.0000000), wk =   0.0138889
        k(   35) = (   0.0472466   0.0276065   0.0000000), wk =   0.0138889
        k(   36) = (   0.0472466   0.0456841   0.0000000), wk =   0.0138889
        k(   37) = (   0.0472466   0.0637618   0.0000000), wk =   0.0138889
        k(   38) = (   0.0472466  -0.1350922   0.0000000), wk =   0.0138889
        k(   39) = (   0.0472466  -0.1170146   0.0000000), wk =   0.0138889
        k(   40) = (   0.0472466  -0.0989369   0.0000000), wk =   0.0138889
        k(   41) = (   0.0472466  -0.0808593   0.0000000), wk =   0.0138889
        k(   42) = (   0.0472466  -0.0627817   0.0000000), wk =   0.0138889
        k(   43) = (   0.0472466  -0.0447040   0.0000000), wk =   0.0138889
        k(   44) = (   0.0629955  -0.0355019   0.0000000), wk =   0.0138889
        k(   45) = (   0.0629955  -0.0174242   0.0000000), wk =   0.0138889
        k(   46) = (   0.0629955   0.0006534   0.0000000), wk =   0.0138889
        k(   47) = (   0.0629955   0.0187310   0.0000000), wk =   0.0138889
        k(   48) = (   0.0629955   0.0368087   0.0000000), wk =   0.0138889
        k(   49) = (   0.0629955   0.0548863   0.0000000), wk =   0.0138889
        k(   50) = (   0.0629955  -0.1439677   0.0000000), wk =   0.0138889
        k(   51) = (   0.0629955  -0.1258901   0.0000000), wk =   0.0138889
        k(   52) = (   0.0629955  -0.1078124   0.0000000), wk =   0.0138889
        k(   53) = (   0.0629955  -0.0897348   0.0000000), wk =   0.0138889
        k(   54) = (   0.0629955  -0.0716571   0.0000000), wk =   0.0138889
        k(   55) = (   0.0629955  -0.0535795   0.0000000), wk =   0.0138889
        k(   56) = (   0.0787444  -0.0443773   0.0000000), wk =   0.0138889
        k(   57) = (   0.0787444  -0.0262997   0.0000000), wk =   0.0138889
        k(   58) = (   0.0787444  -0.0082221   0.0000000), wk =   0.0138889
        k(   59) = (   0.0787444   0.0098556   0.0000000), wk =   0.0138889
        k(   60) = (   0.0787444   0.0279332   0.0000000), wk =   0.0138889
        k(   61) = (   0.0787444   0.0460108   0.0000000), wk =   0.0138889
        k(   62) = (   0.0787444  -0.1528432   0.0000000), wk =   0.0138889
        k(   63) = (   0.0787444  -0.1347655   0.0000000), wk =   0.0138889
        k(   64) = (   0.0787444  -0.1166879   0.0000000), wk =   0.0138889
        k(   65) = (   0.0787444  -0.0986102   0.0000000), wk =   0.0138889
        k(   66) = (   0.0787444  -0.0805326   0.0000000), wk =   0.0138889
        k(   67) = (   0.0787444  -0.0624550   0.0000000), wk =   0.0138889
        k(   68) = (  -0.0944933   0.0532528   0.0000000), wk =   0.0069444
        k(   69) = (  -0.0944933   0.0713304   0.0000000), wk =   0.0138889
        k(   70) = (  -0.0944933   0.0894081   0.0000000), wk =   0.0138889
        k(   71) = (  -0.0944933   0.1074857   0.0000000), wk =   0.0138889
        k(   72) = (  -0.0944933   0.1255634   0.0000000), wk =   0.0138889
        k(   73) = (  -0.0944933   0.1436410   0.0000000), wk =   0.0138889
        k(   74) = (  -0.0944933  -0.0552130   0.0000000), wk =   0.0069444

     Check: negative core charge=   -0.000006
     Generating pointlists ...
     new r_m :   1.0582 (alat units)  1.9996 (a.u.) for type    1
     new r_m :   1.0582 (alat units)  1.9996 (a.u.) for type    2

     Initial potential from superposition of free atoms

     starting charge  185.99495, renormalised to  186.00000

     %%%%%%%%%%%%%%%%%%%%%%%%%%%%%%%%%%%%%%%%%%%%%%%%%%%%%%%%%%%%%%%%%%%%%%%%
     %                                                                      %
     % You are using vdW-DF, which was implemented by the Thonhauser group. %
     % Please cite the following two papers that made this development      %
     % possible and the two reviews that describe the various versions:     %
     %                                                                      %
     %   T. Thonhauser et al., PRL 115, 136402 (2015).                      %
     %   T. Thonhauser et al., PRB 76, 125112 (2007).                       %
     %   K. Berland et al., Rep. Prog. Phys. 78, 066501 (2015).             %
     %   D.C. Langreth et al., J. Phys.: Condens. Matter 21, 084203 (2009). %
     %                                                                      %
     %                                                                      %
     % If you are calculating the stress with vdW-DF, please also cite:     %
     %                                                                      %
     %   R. Sabatini et al., J. Phys.: Condens. Matter 24, 424209 (2012).   %
     %                                                                      %
     %%%%%%%%%%%%%%%%%%%%%%%%%%%%%%%%%%%%%%%%%%%%%%%%%%%%%%%%%%%%%%%%%%%%%%%%

     Adding external electric field

     Computed dipole along edir(3) :
        Dipole               -0.0000 Ry au,         -0.0000 Debye
        Dipole field         -0.0000 Ry au,

        Potential amp.        0.0000 Ry
        Total length         44.8327 bohr

[...]

     Starting wfcs are  138 randomized atomic wfcs

     Self-consistent Calculation

     iteration #  1     ecut=    55.12 Ry     beta= 0.10
     Davidson diagonalization with overlap
     ethr =  1.00E-02,  avg # of iterations =  6.1

[...]

     total energy              =   -2688.81758528 Ry
     estimated scf accuracy    <      47.60526443 Ry

     total magnetization       =    31.32 Bohr mag/cell
     absolute magnetization    =    32.10 Bohr mag/cell

[...]

     iteration # 25     ecut=    55.12 Ry     beta= 0.10
     Davidson diagonalization with overlap
     c_bands:  1 eigenvalues not converged
     c_bands:  3 eigenvalues not converged
     c_bands:  3 eigenvalues not converged
     c_bands:  2 eigenvalues not converged
     c_bands:  1 eigenvalues not converged
     c_bands:  1 eigenvalues not converged
     c_bands:  3 eigenvalues not converged
     c_bands:  1 eigenvalues not converged
     c_bands:  1 eigenvalues not converged
     c_bands:  1 eigenvalues not converged
     c_bands:  1 eigenvalues not converged
     c_bands:  2 eigenvalues not converged
     c_bands:  3 eigenvalues not converged
     c_bands:  3 eigenvalues not converged
     c_bands:  2 eigenvalues not converged
     c_bands:  2 eigenvalues not converged
     c_bands:  2 eigenvalues not converged
     c_bands:  1 eigenvalues not converged
     c_bands:  3 eigenvalues not converged
     c_bands:  4 eigenvalues not converged
     c_bands:  3 eigenvalues not converged
     c_bands:  3 eigenvalues not converged
     c_bands:  1 eigenvalues not converged
     c_bands:  2 eigenvalues not converged
     c_bands:  2 eigenvalues not converged
     c_bands:  2 eigenvalues not converged
     c_bands:  1 eigenvalues not converged
     c_bands:  3 eigenvalues not converged
     c_bands:  4 eigenvalues not converged
     c_bands:  3 eigenvalues not converged
     c_bands:  2 eigenvalues not converged
     c_bands:  2 eigenvalues not converged
     c_bands:  1 eigenvalues not converged
     c_bands:  3 eigenvalues not converged
     c_bands:  4 eigenvalues not converged
     c_bands:  4 eigenvalues not converged
     c_bands:  3 eigenvalues not converged
     c_bands:  2 eigenvalues not converged
     c_bands:  2 eigenvalues not converged
     c_bands:  1 eigenvalues not converged
     c_bands:  2 eigenvalues not converged
     c_bands:  1 eigenvalues not converged
     c_bands:  2 eigenvalues not converged
     c_bands:  2 eigenvalues not converged
     c_bands:  1 eigenvalues not converged
     c_bands:  3 eigenvalues not converged
     c_bands:  2 eigenvalues not converged
     c_bands:  2 eigenvalues not converged
     c_bands:  5 eigenvalues not converged
     c_bands:  4 eigenvalues not converged
     c_bands:  3 eigenvalues not converged
     c_bands:  4 eigenvalues not converged
     c_bands:  2 eigenvalues not converged
     c_bands:  4 eigenvalues not converged
     c_bands:  3 eigenvalues not converged
     c_bands:  4 eigenvalues not converged
     c_bands:  2 eigenvalues not converged
     c_bands:  4 eigenvalues not converged
     c_bands:  2 eigenvalues not converged
     c_bands:  4 eigenvalues not converged
[...]
     c_bands:  1 eigenvalues not converged
     c_bands:  3 eigenvalues not converged
     c_bands:  3 eigenvalues not converged
     c_bands:  2 eigenvalues not converged
     c_bands:  3 eigenvalues not converged
     c_bands:  2 eigenvalues not converged
     c_bands:  4 eigenvalues not converged
     c_bands:  4 eigenvalues not converged
     c_bands:  3 eigenvalues not converged
     c_bands:  3 eigenvalues not converged
     c_bands:  1 eigenvalues not converged
     c_bands:  2 eigenvalues not converged
     c_bands:  4 eigenvalues not converged
     c_bands:  5 eigenvalues not converged
     c_bands:  4 eigenvalues not converged
     ethr =  2.28E-06,  avg # of iterations = 19.0

[...]

     iteration # 63     ecut=    55.12 Ry     beta= 0.10
     Davidson diagonalization with overlap
     c_bands:  1 eigenvalues not converged
     ethr =  1.42E-08,  avg # of iterations =  5.5

[...]

     total energy              =   -2711.46587576 Ry
     estimated scf accuracy    <       0.00001060 Ry

[...]

     iteration #113     ecut=    55.12 Ry     beta= 0.10
     Davidson diagonalization with overlap
     ethr =  5.70E-09,  avg # of iterations =  5.8

[...]

     Adding external electric field

     Computed dipole along edir(3) :
        Dipole                0.0111 Ry au,          0.0283 Debye
        Dipole field          0.0000 Ry au,

        Potential amp.       -0.0031 Ry
        Total length         44.8327 bohr

     Magnetic moment per site:
     atom:    1    charge:   15.7798    magn:    0.7967    constr:    0.0000
     atom:    2    charge:   15.7797    magn:    0.8000    constr:    0.0000
     atom:    3    charge:   10.9036    magn:   -0.0888    constr:    0.0000
     atom:    4    charge:   10.9036    magn:   -0.0888    constr:    0.0000
     atom:    5    charge:   15.9407    magn:   -0.2220    constr:    0.0000
     atom:    6    charge:   15.9400    magn:   -0.2234    constr:    0.0000
     atom:    7    charge:   10.9814    magn:   -0.0192    constr:    0.0000
     atom:    8    charge:   10.9814    magn:   -0.0192    constr:    0.0000
     atom:    9    charge:   15.8184    magn:    0.5402    constr:    0.0000
     atom:   10    charge:   15.8180    magn:    0.5393    constr:    0.0000
     atom:   11    charge:   10.9255    magn:   -0.0620    constr:    0.0000
     atom:   12    charge:   10.9255    magn:   -0.0620    constr:    0.0000

     End of self-consistent calculation

     Number of k-points >= 100: set verbosity='high' to print the bands.

     the Fermi energy is     1.7776 ev

!    total energy              =   -2711.00989097 Ry
     estimated scf accuracy    <       0.00000939 Ry
     smearing contrib. (-TS)   =      -0.06422236 Ry
     internal energy E=F+TS    =   -2710.94566861 Ry

     The total energy is F=E-TS. E is the sum of the following terms:
     one-electron contribution =  -22396.62260967 Ry
     hartree contribution      =   11191.80687405 Ry
     xc contribution           =    -438.88247243 Ry
     ewald contribution        =    8932.75253905 Ry
     electric field correction =       0.00000039 Ry

     total magnetization       =     1.54 Bohr mag/cell
     absolute magnetization    =     4.07 Bohr mag/cell

     convergence has been achieved in 113 iterations

     Forces acting on atoms (cartesian axes, Ry/au):

     atom    1 type  1   force =     0.00000521    0.00000457    0.00978433
     atom    2 type  1   force =    -0.00004434   -0.00002990    0.00968146
     atom    3 type  2   force =    -0.00610045   -0.00362442    0.01995124
     atom    4 type  2   force =    -0.00615723   -0.00353418    0.01994200
     atom    5 type  1   force =     0.00265203    0.00154959   -0.01447822
     atom    6 type  1   force =     0.00266131    0.00155981   -0.01451094
     atom    7 type  2   force =     0.00203651    0.00113626   -0.01458838
     atom    8 type  2   force =     0.00199192    0.00121448   -0.01459644
     atom    9 type  1   force =    -0.00017892   -0.00010762    0.00221030
     atom   10 type  1   force =    -0.00008298   -0.00004847    0.00225472
     atom   11 type  2   force =     0.00157909    0.00097627   -0.00282458
     atom   12 type  2   force =     0.00163786    0.00090361   -0.00282548

     Total force =     0.044663     Total SCF correction =     0.007788
     SCF correction compared to forces is large: reduce conv_thr to get better values

     Writing output data file ./Co2W2/Co2W2_beef.save/

     General routines

     Parallel routines

   This run was terminated on:  18:32:32   2Jul2022

   JOB DONE.