     Program PWSCF v.6.6 starts on  2Jul2022 at 13:56:26

     R & G space division:  proc/nbgrp/npool/nimage =      37
     Fft bands division:     nmany     =       1
     Reading input from Co2Zr2.in
Warning: card &CELL ignored
Warning: card / ignored

     Current dimensions of program PWSCF are:
     Max number of different atomic species (ntypx) = 10
     Max number of k-points (npk) =  40000
     Max angular momentum in pseudopotentials (lmaxx) =  3
     Presently stress not available with electric field and gates

     Message from routine cell_base_init:
     DEPRECATED: use true lattice parameter, not A to a.u. conversion factor
     file Co.pbe-spn-rrkjus_psl.0.3.1.UPF: wavefunction(s)  3P renormalized
     file Zr.pbe-spn-rrkjus_psl.1.0.0.UPF: wavefunction(s)  4S renormalized

     IMPORTANT: XC functional enforced from input :
     Exchange-correlation= BEEF-VDW
                           (   1   4  43  14   2   0   0)
     Any further DFT definition will be discarded
     Please, verify this is what you really want

     Subspace diagonalization in iterative solution of the eigenvalue problem:
     a serial algorithm will be used

     bravais-lattice index     =            0
     lattice parameter (alat)  =       1.8897  a.u.
     unit-cell volume          =    4794.6902 (a.u.)^3
     number of atoms/cell      =           12
     number of atomic types    =            2
     number of electrons       =       174.00
     number of Kohn-Sham states=          104
     kinetic-energy cutoff     =      55.1240  Ry
     charge density cutoff     =     551.2396  Ry
     convergence threshold     =      1.0E-05
     mixing beta               =       0.1000
     number of iterations used =           10  plain     mixing
     Exchange-correlation= BEEF-VDW
                           (   1   4  43  14   2   0   0)

     celldm(1)=   1.889726  celldm(2)=   0.000000  celldm(3)=   0.000000
     celldm(4)=   0.000000  celldm(5)=   0.000000  celldm(6)=   0.000000

     crystal axes: (cart. coord. in units of alat)
               a(1) = (   5.542262   0.000000   0.000000 )
               a(2) = (   1.841010   5.227557   0.000000 )
               a(3) = (   0.000000   0.000000  24.523260 )

     reciprocal axes: (cart. coord. in units 2 pi/alat)
               b(1) = (  0.180432 -0.063543  0.000000 )
               b(2) = (  0.000000  0.191294  0.000000 )
               b(3) = (  0.000000  0.000000  0.040778 )

     PseudoPot. # 1 for Co read from file:
     ../pseudo/Co.pbe-spn-rrkjus_psl.0.3.1.UPF
     MD5 check sum: 99b21b1f85602741a4c0ed67614a7280
     Pseudo is Ultrasoft + core correction, Zval = 17.0
     Generated using "atomic" code by A. Dal Corso v.6.2.2
     Using radial grid of 1193 points,  6 beta functions with:
                l(1) =   0
                l(2) =   0
                l(3) =   1
                l(4) =   1
                l(5) =   2
                l(6) =   2
     Q(r) pseudized with 0 coefficients

     PseudoPot. # 2 for Zr read from file:
     ../pseudo/Zr.pbe-spn-rrkjus_psl.1.0.0.UPF
     MD5 check sum: 3d17ee99aa1707c2ccb6b09ed65e51a1
     Pseudo is Ultrasoft + core correction, Zval = 12.0
     Generated using "atomic" code by A. Dal Corso v.6.2.2
     Using radial grid of 1225 points,  6 beta functions with:
                l(1) =   0
                l(2) =   0
                l(3) =   1
                l(4) =   1
                l(5) =   2
                l(6) =   2
     Q(r) pseudized with 0 coefficients

     atomic species   valence    mass     pseudopotential
        Co            17.00    58.93319     Co( 1.00)
        Zr            12.00    91.22400     Zr( 1.00)

     Starting magnetic structure
     atomic species   magnetization
        Co           1.000
        Zr           0.000

     No symmetry found

   Cartesian axes

     site n.     atom                  positions (alat units)
         1           Co  tau(   1) = (   0.0000000   0.0000000  10.0000000  )
         2           Co  tau(   2) = (   3.6916363   2.6137785  10.0000000  )
         3           Zr  tau(   3) = (   2.7711311   0.0000000  10.0000000  )
         4           Zr  tau(   4) = (   0.9205052   2.6137785  10.0000000  )
         5           Co  tau(   5) = (   5.5422622   3.9240717  12.2616298  )
         6           Co  tau(   6) = (   1.8506259   1.3102933  12.2616298  )
         7           Zr  tau(   7) = (   2.7711311   3.9240717  12.2616298  )
         8           Zr  tau(   8) = (   4.6217570   1.3102933  12.2616298  )
         9           Co  tau(   9) = (   3.6995143   2.6193308  14.2531924  )
        10           Co  tau(  10) = (   0.0081539   0.0057983  14.2531031  )
        11           Zr  tau(  11) = (   0.9265405   2.6178345  14.5382865  )
        12           Zr  tau(  12) = (   2.7769674   0.0043496  14.5382887  )

     number of k points=    74  Fermi-Dirac smearing, width (Ry)=  0.0100
                       cart. coord. in units 2pi/alat
        k(    1) = (   0.0000000   0.0000000   0.0000000), wk =   0.0069444
        k(    2) = (   0.0000000   0.0159412   0.0000000), wk =   0.0138889
        k(    3) = (   0.0000000   0.0318823   0.0000000), wk =   0.0138889
        k(    4) = (   0.0000000   0.0478235   0.0000000), wk =   0.0138889
        k(    5) = (   0.0000000   0.0637646   0.0000000), wk =   0.0138889
        k(    6) = (   0.0000000   0.0797058   0.0000000), wk =   0.0138889
        k(    7) = (   0.0000000  -0.0956470   0.0000000), wk =   0.0069444
        k(    8) = (   0.0150360  -0.0052953   0.0000000), wk =   0.0138889
        k(    9) = (   0.0150360   0.0106459   0.0000000), wk =   0.0138889
        k(   10) = (   0.0150360   0.0265870   0.0000000), wk =   0.0138889
        k(   11) = (   0.0150360   0.0425282   0.0000000), wk =   0.0138889
        k(   12) = (   0.0150360   0.0584694   0.0000000), wk =   0.0138889
        k(   13) = (   0.0150360   0.0744105   0.0000000), wk =   0.0138889
        k(   14) = (   0.0150360  -0.1009423   0.0000000), wk =   0.0138889
        k(   15) = (   0.0150360  -0.0850011   0.0000000), wk =   0.0138889
        k(   16) = (   0.0150360  -0.0690599   0.0000000), wk =   0.0138889
        k(   17) = (   0.0150360  -0.0531188   0.0000000), wk =   0.0138889
        k(   18) = (   0.0150360  -0.0371776   0.0000000), wk =   0.0138889
        k(   19) = (   0.0150360  -0.0212364   0.0000000), wk =   0.0138889
        k(   20) = (   0.0300720  -0.0105906   0.0000000), wk =   0.0138889
        k(   21) = (   0.0300720   0.0053506   0.0000000), wk =   0.0138889
        k(   22) = (   0.0300720   0.0212918   0.0000000), wk =   0.0138889
        k(   23) = (   0.0300720   0.0372329   0.0000000), wk =   0.0138889
        k(   24) = (   0.0300720   0.0531741   0.0000000), wk =   0.0138889
        k(   25) = (   0.0300720   0.0691152   0.0000000), wk =   0.0138889
        k(   26) = (   0.0300720  -0.1062375   0.0000000), wk =   0.0138889
        k(   27) = (   0.0300720  -0.0902964   0.0000000), wk =   0.0138889
        k(   28) = (   0.0300720  -0.0743552   0.0000000), wk =   0.0138889
        k(   29) = (   0.0300720  -0.0584140   0.0000000), wk =   0.0138889
        k(   30) = (   0.0300720  -0.0424729   0.0000000), wk =   0.0138889
        k(   31) = (   0.0300720  -0.0265317   0.0000000), wk =   0.0138889
        k(   32) = (   0.0451079  -0.0158858   0.0000000), wk =   0.0138889
        k(   33) = (   0.0451079   0.0000553   0.0000000), wk =   0.0138889
        k(   34) = (   0.0451079   0.0159965   0.0000000), wk =   0.0138889
        k(   35) = (   0.0451079   0.0319376   0.0000000), wk =   0.0138889
        k(   36) = (   0.0451079   0.0478788   0.0000000), wk =   0.0138889
        k(   37) = (   0.0451079   0.0638200   0.0000000), wk =   0.0138889
        k(   38) = (   0.0451079  -0.1115328   0.0000000), wk =   0.0138889
        k(   39) = (   0.0451079  -0.0955917   0.0000000), wk =   0.0138889
        k(   40) = (   0.0451079  -0.0796505   0.0000000), wk =   0.0138889
        k(   41) = (   0.0451079  -0.0637093   0.0000000), wk =   0.0138889
        k(   42) = (   0.0451079  -0.0477682   0.0000000), wk =   0.0138889
        k(   43) = (   0.0451079  -0.0318270   0.0000000), wk =   0.0138889
        k(   44) = (   0.0601439  -0.0211811   0.0000000), wk =   0.0138889
        k(   45) = (   0.0601439  -0.0052400   0.0000000), wk =   0.0138889
        k(   46) = (   0.0601439   0.0107012   0.0000000), wk =   0.0138889
        k(   47) = (   0.0601439   0.0266424   0.0000000), wk =   0.0138889
        k(   48) = (   0.0601439   0.0425835   0.0000000), wk =   0.0138889
        k(   49) = (   0.0601439   0.0585247   0.0000000), wk =   0.0138889
        k(   50) = (   0.0601439  -0.1168281   0.0000000), wk =   0.0138889
        k(   51) = (   0.0601439  -0.1008869   0.0000000), wk =   0.0138889
        k(   52) = (   0.0601439  -0.0849458   0.0000000), wk =   0.0138889
        k(   53) = (   0.0601439  -0.0690046   0.0000000), wk =   0.0138889
        k(   54) = (   0.0601439  -0.0530635   0.0000000), wk =   0.0138889
        k(   55) = (   0.0601439  -0.0371223   0.0000000), wk =   0.0138889
        k(   56) = (   0.0751799  -0.0264764   0.0000000), wk =   0.0138889
        k(   57) = (   0.0751799  -0.0105352   0.0000000), wk =   0.0138889
        k(   58) = (   0.0751799   0.0054059   0.0000000), wk =   0.0138889
        k(   59) = (   0.0751799   0.0213471   0.0000000), wk =   0.0138889
        k(   60) = (   0.0751799   0.0372882   0.0000000), wk =   0.0138889
        k(   61) = (   0.0751799   0.0532294   0.0000000), wk =   0.0138889
        k(   62) = (   0.0751799  -0.1221234   0.0000000), wk =   0.0138889
        k(   63) = (   0.0751799  -0.1061822   0.0000000), wk =   0.0138889
        k(   64) = (   0.0751799  -0.0902411   0.0000000), wk =   0.0138889
        k(   65) = (   0.0751799  -0.0742999   0.0000000), wk =   0.0138889
        k(   66) = (   0.0751799  -0.0583587   0.0000000), wk =   0.0138889
        k(   67) = (   0.0751799  -0.0424176   0.0000000), wk =   0.0138889
        k(   68) = (  -0.0902159   0.0317717   0.0000000), wk =   0.0069444
        k(   69) = (  -0.0902159   0.0477129   0.0000000), wk =   0.0138889
        k(   70) = (  -0.0902159   0.0636540   0.0000000), wk =   0.0138889
        k(   71) = (  -0.0902159   0.0795952   0.0000000), wk =   0.0138889
        k(   72) = (  -0.0902159   0.0955363   0.0000000), wk =   0.0138889
        k(   73) = (  -0.0902159   0.1114775   0.0000000), wk =   0.0138889
        k(   74) = (  -0.0902159  -0.0638753   0.0000000), wk =   0.0069444

     Check: negative core charge=   -0.000007
     Generating pointlists ...
     new r_m :   1.0541 (alat units)  1.9920 (a.u.) for type    1
     new r_m :   1.0541 (alat units)  1.9920 (a.u.) for type    2

     Initial potential from superposition of free atoms

     starting charge  173.98539, renormalised to  174.00000

     %%%%%%%%%%%%%%%%%%%%%%%%%%%%%%%%%%%%%%%%%%%%%%%%%%%%%%%%%%%%%%%%%%%%%%%%
     %                                                                      %
     % You are using vdW-DF, which was implemented by the Thonhauser group. %
     % Please cite the following two papers that made this development      %
     % possible and the two reviews that describe the various versions:     %
     %                                                                      %
     %   T. Thonhauser et al., PRL 115, 136402 (2015).                      %
     %   T. Thonhauser et al., PRB 76, 125112 (2007).                       %
     %   K. Berland et al., Rep. Prog. Phys. 78, 066501 (2015).             %
     %   D.C. Langreth et al., J. Phys.: Condens. Matter 21, 084203 (2009). %
     %                                                                      %
     %                                                                      %
     % If you are calculating the stress with vdW-DF, please also cite:     %
     %                                                                      %
     %   R. Sabatini et al., J. Phys.: Condens. Matter 24, 424209 (2012).   %
     %                                                                      %
     %%%%%%%%%%%%%%%%%%%%%%%%%%%%%%%%%%%%%%%%%%%%%%%%%%%%%%%%%%%%%%%%%%%%%%%%

     Adding external electric field

     Computed dipole along edir(3) :
        Dipole                0.0012 Ry au,          0.0031 Debye
        Dipole field          0.0000 Ry au,

        Potential amp.       -0.0003 Ry
        Total length         45.1837 bohr

[...]

     Starting wfcs are  138 randomized atomic wfcs

     Self-consistent Calculation

     iteration #  1     ecut=    55.12 Ry     beta= 0.10
     Davidson diagonalization with overlap
     ethr =  1.00E-02,  avg # of iterations =  4.0

[...]

     total energy              =   -2333.48565005 Ry
     estimated scf accuracy    <      46.56302260 Ry

     total magnetization       =    32.17 Bohr mag/cell
     absolute magnetization    =    32.81 Bohr mag/cell

[...]

     iteration # 24     ecut=    55.12 Ry     beta= 0.10
     Davidson diagonalization with overlap
     c_bands:  1 eigenvalues not converged
     c_bands:  1 eigenvalues not converged
     ethr =  1.18E-04,  avg # of iterations =  3.9

[...]

     iteration #117     ecut=    55.12 Ry     beta= 0.10
     Davidson diagonalization with overlap
     c_bands:  1 eigenvalues not converged
     ethr =  1.39E-08,  avg # of iterations =  9.3

[...]

     total energy              =   -2356.96646703 Ry
     estimated scf accuracy    <       0.00001181 Ry

[...]

     iteration #126     ecut=    55.12 Ry     beta= 0.10
     Davidson diagonalization with overlap
     ethr =  6.79E-09,  avg # of iterations =  6.2

[...]

     Adding external electric field

     Computed dipole along edir(3) :
        Dipole                0.0973 Ry au,          0.2474 Debye
        Dipole field          0.0003 Ry au,

        Potential amp.       -0.0231 Ry
        Total length         45.1837 bohr

     Magnetic moment per site:
     atom:    1    charge:   15.6979    magn:    0.9119    constr:    0.0000
     atom:    2    charge:   15.6987    magn:    0.9115    constr:    0.0000
     atom:    3    charge:    8.9295    magn:   -0.2166    constr:    0.0000
     atom:    4    charge:    8.9295    magn:   -0.2166    constr:    0.0000
     atom:    5    charge:   15.7500    magn:    0.9961    constr:    0.0000
     atom:    6    charge:   15.7507    magn:    0.9965    constr:    0.0000
     atom:    7    charge:    8.9896    magn:   -0.0535    constr:    0.0000
     atom:    8    charge:    8.9896    magn:   -0.0535    constr:    0.0000
     atom:    9    charge:   15.7818    magn:   -0.2774    constr:    0.0000
     atom:   10    charge:   15.7814    magn:   -0.2774    constr:    0.0000
     atom:   11    charge:    8.9193    magn:    0.0006    constr:    0.0000
     atom:   12    charge:    8.9193    magn:    0.0006    constr:    0.0000

     End of self-consistent calculation

     Number of k-points >= 100: set verbosity='high' to print the bands.

     the Fermi energy is     1.4819 ev

!    total energy              =   -2356.62818963 Ry
     estimated scf accuracy    <       0.00000908 Ry
     smearing contrib. (-TS)   =      -0.05328512 Ry
     internal energy E=F+TS    =   -2356.57490451 Ry

     The total energy is F=E-TS. E is the sum of the following terms:
     one-electron contribution =  -16849.52044041 Ry
     hartree contribution      =    8423.86686314 Ry
     xc contribution           =    -303.14082634 Ry
     ewald contribution        =    6372.21947426 Ry
     electric field correction =       0.00002483 Ry

     total magnetization       =     1.75 Bohr mag/cell
     absolute magnetization    =     6.16 Bohr mag/cell

     convergence has been achieved in 126 iterations

     Forces acting on atoms (cartesian axes, Ry/au):

     atom    1 type  1   force =     0.00002893    0.00002418    0.03867847
     atom    2 type  1   force =     0.00007692    0.00005692    0.03868824
     atom    3 type  2   force =     0.00056205    0.00044297   -0.01984663
     atom    4 type  2   force =     0.00060579    0.00038482   -0.01984864
     atom    5 type  1   force =    -0.00000605   -0.00000261    0.00210595
     atom    6 type  1   force =    -0.00009117   -0.00006298    0.00210525
     atom    7 type  2   force =    -0.00029600   -0.00030712   -0.02346752
     atom    8 type  2   force =    -0.00038823   -0.00017698   -0.02347181
     atom    9 type  1   force =    -0.00021036   -0.00014704    0.00093525
     atom   10 type  1   force =    -0.00028957   -0.00021347    0.00094641
     atom   11 type  2   force =    -0.00001254    0.00003021    0.00158773
     atom   12 type  2   force =     0.00002023   -0.00002889    0.00158729

     Total force =     0.069997     Total SCF correction =     0.001891

     Writing output data file ./Co2Zr2/Co2Zr2_beef.save/

     General routines

     Parallel routines

   This run was terminated on:  11:20:14   3Jul2022

   JOB DONE.