     Program PWSCF v.6.6 starts on 10Jul2022 at  5:47:26

     R & G space division:  proc/nbgrp/npool/nimage =      37
     Fft bands division:     nmany     =       1
     Reading input from Co2Zn2.in
Warning: card &CELL ignored
Warning: card / ignored

     Current dimensions of program PWSCF are:
     Max number of different atomic species (ntypx) = 10
     Max number of k-points (npk) =  40000
     Max angular momentum in pseudopotentials (lmaxx) =  3
     Presently stress not available with electric field and gates

     Message from routine cell_base_init:
     DEPRECATED: use true lattice parameter, not A to a.u. conversion factor
     file Co.pbe-spn-rrkjus_psl.0.3.1.UPF: wavefunction(s)  3P renormalized
     file Zn.pbe-dnl-rrkjus_psl.1.0.0.UPF: wavefunction(s)  3D renormalized

     IMPORTANT: XC functional enforced from input :
     Exchange-correlation= BEEF-VDW
                           (   1   4  43  14   2   0   0)
     Any further DFT definition will be discarded
     Please, verify this is what you really want

     Subspace diagonalization in iterative solution of the eigenvalue problem:
     a serial algorithm will be used

     bravais-lattice index     =            0
     lattice parameter (alat)  =       1.8897  a.u.
     unit-cell volume          =    3826.8664 (a.u.)^3
     number of atoms/cell      =           12
     number of atomic types    =            2
     number of electrons       =       174.00
     number of Kohn-Sham states=          104
     kinetic-energy cutoff     =      55.1240  Ry
     charge density cutoff     =     551.2396  Ry
     convergence threshold     =      1.0E-05
     mixing beta               =       0.1000
     number of iterations used =           10  plain     mixing
     Exchange-correlation= BEEF-VDW
                           (   1   4  43  14   2   0   0)

     celldm(1)=   1.889726  celldm(2)=   0.000000  celldm(3)=   0.000000
     celldm(4)=   0.000000  celldm(5)=   0.000000  celldm(6)=   0.000000

     crystal axes: (cart. coord. in units of alat)
               a(1) = (   5.159064   0.000000   0.000000 )
               a(2) = (  -2.579532   4.534122   0.000000 )
               a(3) = (   0.000000   0.000000  24.242794 )

     reciprocal axes: (cart. coord. in units 2 pi/alat)
               b(1) = (  0.193834  0.110275 -0.000000 )
               b(2) = (  0.000000  0.220550  0.000000 )
               b(3) = (  0.000000 -0.000000  0.041249 )

     PseudoPot. # 1 for Co read from file:
     ../pseudo/Co.pbe-spn-rrkjus_psl.0.3.1.UPF
     MD5 check sum: 99b21b1f85602741a4c0ed67614a7280
     Pseudo is Ultrasoft + core correction, Zval = 17.0
     Generated using "atomic" code by A. Dal Corso v.6.2.2
     Using radial grid of 1193 points,  6 beta functions with:
                l(1) =   0
                l(2) =   0
                l(3) =   1
                l(4) =   1
                l(5) =   2
                l(6) =   2
     Q(r) pseudized with 0 coefficients

     PseudoPot. # 2 for Zn read from file:
     ../pseudo/Zn.pbe-dnl-rrkjus_psl.1.0.0.UPF
     MD5 check sum: 7f56cabf9682ed8c977c2f7d0c5985c5
     Pseudo is Ultrasoft + core correction, Zval = 12.0
     Generated using "atomic" code by A. Dal Corso v.6.2.2
     Using radial grid of 1201 points,  6 beta functions with:
                l(1) =   0
                l(2) =   0
                l(3) =   1
                l(4) =   1
                l(5) =   2
                l(6) =   2
     Q(r) pseudized with 0 coefficients

     atomic species   valence    mass     pseudopotential
        Co            17.00    58.93319     Co( 1.00)
        Zn            12.00    65.38000     Zn( 1.00)

     Starting magnetic structure
     atomic species   magnetization
        Co           1.000
        Zn           0.000

     No symmetry found

   Cartesian axes

     site n.     atom                  positions (alat units)
         1           Co  tau(   1) = (   0.0000000   0.0000000  10.0000000  )
         2           Co  tau(   2) = (   2.5795320   0.0000000  10.0000000  )
         3           Zn  tau(   3) = (   1.2897660   2.2670611  10.0000000  )
         4           Zn  tau(   4) = (  -1.2897660   2.2670611  10.0000000  )
         5           Co  tau(   5) = (   2.5795320   1.4675355  12.1213969  )
         6           Co  tau(   6) = (  -0.0000000   1.4675355  12.1213969  )
         7           Zn  tau(   7) = (  -1.2897660   3.7345966  12.1213969  )
         8           Zn  tau(   8) = (   1.2897660   3.7345966  12.1213969  )
         9           Co  tau(   9) = (  -0.0002635   2.7446808  14.1072412  )
        10           Co  tau(  10) = (   2.5792684   2.7447877  14.1075905  )
        11           Zn  tau(  11) = (   3.8692241   0.5168807  14.4437857  )
        12           Zn  tau(  12) = (   1.2894205   0.5168780  14.4437859  )

     number of k points=    74  Fermi-Dirac smearing, width (Ry)=  0.0100
                       cart. coord. in units 2pi/alat
        k(    1) = (   0.0000000   0.0000000   0.0000000), wk =   0.0069444
        k(    2) = (   0.0000000   0.0183792   0.0000000), wk =   0.0138889
        k(    3) = (   0.0000000   0.0367583   0.0000000), wk =   0.0138889
        k(    4) = (   0.0000000   0.0551375   0.0000000), wk =   0.0138889
        k(    5) = (   0.0000000   0.0735166   0.0000000), wk =   0.0138889
        k(    6) = (   0.0000000   0.0918958   0.0000000), wk =   0.0138889
        k(    7) = (   0.0000000  -0.1102749   0.0000000), wk =   0.0069444
        k(    8) = (   0.0161528   0.0091896   0.0000000), wk =   0.0138889
        k(    9) = (   0.0161528   0.0275687   0.0000000), wk =   0.0138889
        k(   10) = (   0.0161528   0.0459479   0.0000000), wk =   0.0138889
        k(   11) = (   0.0161528   0.0643270   0.0000000), wk =   0.0138889
        k(   12) = (   0.0161528   0.0827062   0.0000000), wk =   0.0138889
        k(   13) = (   0.0161528   0.1010854   0.0000000), wk =   0.0138889
        k(   14) = (   0.0161528  -0.1010854   0.0000000), wk =   0.0138889
        k(   15) = (   0.0161528  -0.0827062   0.0000000), wk =   0.0138889
        k(   16) = (   0.0161528  -0.0643270   0.0000000), wk =   0.0138889
        k(   17) = (   0.0161528  -0.0459479   0.0000000), wk =   0.0138889
        k(   18) = (   0.0161528  -0.0275687   0.0000000), wk =   0.0138889
        k(   19) = (   0.0161528  -0.0091896   0.0000000), wk =   0.0138889
        k(   20) = (   0.0323056   0.0183792   0.0000000), wk =   0.0138889
        k(   21) = (   0.0323056   0.0367583   0.0000000), wk =   0.0138889
        k(   22) = (   0.0323056   0.0551375   0.0000000), wk =   0.0138889
        k(   23) = (   0.0323056   0.0735166   0.0000000), wk =   0.0138889
        k(   24) = (   0.0323056   0.0918958   0.0000000), wk =   0.0138889
        k(   25) = (   0.0323056   0.1102749   0.0000000), wk =   0.0138889
        k(   26) = (   0.0323056  -0.0918958   0.0000000), wk =   0.0138889
        k(   27) = (   0.0323056  -0.0735166   0.0000000), wk =   0.0138889
        k(   28) = (   0.0323056  -0.0551375   0.0000000), wk =   0.0138889
        k(   29) = (   0.0323056  -0.0367583   0.0000000), wk =   0.0138889
        k(   30) = (   0.0323056  -0.0183792   0.0000000), wk =   0.0138889
        k(   31) = (   0.0323056  -0.0000000   0.0000000), wk =   0.0138889
        k(   32) = (   0.0484584   0.0275687   0.0000000), wk =   0.0138889
        k(   33) = (   0.0484584   0.0459479   0.0000000), wk =   0.0138889
        k(   34) = (   0.0484584   0.0643270   0.0000000), wk =   0.0138889
        k(   35) = (   0.0484584   0.0827062   0.0000000), wk =   0.0138889
        k(   36) = (   0.0484584   0.1010854   0.0000000), wk =   0.0138889
        k(   37) = (   0.0484584   0.1194645   0.0000000), wk =   0.0138889
        k(   38) = (   0.0484584  -0.0827062   0.0000000), wk =   0.0138889
        k(   39) = (   0.0484584  -0.0643270   0.0000000), wk =   0.0138889
        k(   40) = (   0.0484584  -0.0459479   0.0000000), wk =   0.0138889
        k(   41) = (   0.0484584  -0.0275687   0.0000000), wk =   0.0138889
        k(   42) = (   0.0484584  -0.0091896   0.0000000), wk =   0.0138889
        k(   43) = (   0.0484584   0.0091896   0.0000000), wk =   0.0138889
        k(   44) = (   0.0646112   0.0367583   0.0000000), wk =   0.0138889
        k(   45) = (   0.0646112   0.0551375   0.0000000), wk =   0.0138889
        k(   46) = (   0.0646112   0.0735166   0.0000000), wk =   0.0138889
        k(   47) = (   0.0646112   0.0918958   0.0000000), wk =   0.0138889
        k(   48) = (   0.0646112   0.1102749   0.0000000), wk =   0.0138889
        k(   49) = (   0.0646112   0.1286541   0.0000000), wk =   0.0138889
        k(   50) = (   0.0646112  -0.0735166   0.0000000), wk =   0.0138889
        k(   51) = (   0.0646112  -0.0551375   0.0000000), wk =   0.0138889
        k(   52) = (   0.0646112  -0.0367583   0.0000000), wk =   0.0138889
        k(   53) = (   0.0646112  -0.0183792   0.0000000), wk =   0.0138889
        k(   54) = (   0.0646112   0.0000000   0.0000000), wk =   0.0138889
        k(   55) = (   0.0646112   0.0183792   0.0000000), wk =   0.0138889
        k(   56) = (   0.0807640   0.0459479   0.0000000), wk =   0.0138889
        k(   57) = (   0.0807640   0.0643270   0.0000000), wk =   0.0138889
        k(   58) = (   0.0807640   0.0827062   0.0000000), wk =   0.0138889
        k(   59) = (   0.0807640   0.1010854   0.0000000), wk =   0.0138889
        k(   60) = (   0.0807640   0.1194645   0.0000000), wk =   0.0138889
        k(   61) = (   0.0807640   0.1378437   0.0000000), wk =   0.0138889
        k(   62) = (   0.0807640  -0.0643270   0.0000000), wk =   0.0138889
        k(   63) = (   0.0807640  -0.0459479   0.0000000), wk =   0.0138889
        k(   64) = (   0.0807640  -0.0275687   0.0000000), wk =   0.0138889
        k(   65) = (   0.0807640  -0.0091896   0.0000000), wk =   0.0138889
        k(   66) = (   0.0807640   0.0091896   0.0000000), wk =   0.0138889
        k(   67) = (   0.0807640   0.0275687   0.0000000), wk =   0.0138889
        k(   68) = (  -0.0969168  -0.0551375   0.0000000), wk =   0.0069444
        k(   69) = (  -0.0969168  -0.0367583   0.0000000), wk =   0.0138889
        k(   70) = (  -0.0969168  -0.0183792   0.0000000), wk =   0.0138889
        k(   71) = (  -0.0969168   0.0000000   0.0000000), wk =   0.0138889
        k(   72) = (  -0.0969168   0.0183792   0.0000000), wk =   0.0138889
        k(   73) = (  -0.0969168   0.0367583   0.0000000), wk =   0.0138889
        k(   74) = (  -0.0969168  -0.1654124   0.0000000), wk =   0.0069444

     Check: negative core charge=   -0.000007
     Generating pointlists ...
     new r_m :   0.9739 (alat units)  1.8405 (a.u.) for type    1
     new r_m :   1.0586 (alat units)  2.0005 (a.u.) for type    2

     Initial potential from superposition of free atoms

     starting charge  173.97595, renormalised to  174.00000

     %%%%%%%%%%%%%%%%%%%%%%%%%%%%%%%%%%%%%%%%%%%%%%%%%%%%%%%%%%%%%%%%%%%%%%%%
     %                                                                      %
     % You are using vdW-DF, which was implemented by the Thonhauser group. %
     % Please cite the following two papers that made this development      %
     % possible and the two reviews that describe the various versions:     %
     %                                                                      %
     %   T. Thonhauser et al., PRL 115, 136402 (2015).                      %
     %   T. Thonhauser et al., PRB 76, 125112 (2007).                       %
     %   K. Berland et al., Rep. Prog. Phys. 78, 066501 (2015).             %
     %   D.C. Langreth et al., J. Phys.: Condens. Matter 21, 084203 (2009). %
     %                                                                      %
     %                                                                      %
     % If you are calculating the stress with vdW-DF, please also cite:     %
     %                                                                      %
     %   R. Sabatini et al., J. Phys.: Condens. Matter 24, 424209 (2012).   %
     %                                                                      %
     %%%%%%%%%%%%%%%%%%%%%%%%%%%%%%%%%%%%%%%%%%%%%%%%%%%%%%%%%%%%%%%%%%%%%%%%

     Adding external electric field

     Computed dipole along edir(3) :
        Dipole                0.0026 Ry au,          0.0067 Debye
        Dipole field          0.0000 Ry au,

        Potential amp.       -0.0008 Ry
        Total length         44.6669 bohr

[...]

     Starting wfcs are  114 randomized atomic wfcs

     Self-consistent Calculation

     iteration #  1     ecut=    55.12 Ry     beta= 0.10
     Davidson diagonalization with overlap
     ethr =  1.00E-02,  avg # of iterations =  8.8

[...]

     total energy              =   -2630.62640039 Ry
     estimated scf accuracy    <      39.80553350 Ry

     total magnetization       =    31.77 Bohr mag/cell
     absolute magnetization    =    33.27 Bohr mag/cell

[...]

     iteration # 15     ecut=    55.12 Ry     beta= 0.10
     Davidson diagonalization with overlap
     c_bands:  1 eigenvalues not converged
     c_bands:  1 eigenvalues not converged
     c_bands:  1 eigenvalues not converged
     c_bands:  2 eigenvalues not converged
     c_bands:  1 eigenvalues not converged
     c_bands:  1 eigenvalues not converged
     c_bands:  1 eigenvalues not converged
     c_bands:  1 eigenvalues not converged
     c_bands:  1 eigenvalues not converged
     c_bands:  1 eigenvalues not converged
     c_bands:  1 eigenvalues not converged
     c_bands:  1 eigenvalues not converged
     c_bands:  1 eigenvalues not converged
     c_bands:  1 eigenvalues not converged
     c_bands:  1 eigenvalues not converged
     c_bands:  1 eigenvalues not converged
     ethr =  1.46E-04,  avg # of iterations = 12.8

[...]

     iteration # 23     ecut=    55.12 Ry     beta= 0.10
     Davidson diagonalization with overlap
     c_bands:  2 eigenvalues not converged
     c_bands:  1 eigenvalues not converged
     c_bands:  1 eigenvalues not converged
     c_bands:  1 eigenvalues not converged
     c_bands:  1 eigenvalues not converged
     ethr =  1.91E-06,  avg # of iterations =  9.4

[...]

     total energy              =   -2655.33507015 Ry
     estimated scf accuracy    <       0.00001237 Ry

[...]

     iteration # 33     ecut=    55.12 Ry     beta= 0.10
     Davidson diagonalization with overlap
     ethr =  7.11E-09,  avg # of iterations =  4.6

[...]

     Adding external electric field

     Computed dipole along edir(3) :
        Dipole                0.0108 Ry au,          0.0274 Debye
        Dipole field          0.0000 Ry au,

        Potential amp.       -0.0032 Ry
        Total length         44.6669 bohr

     Magnetic moment per site:
     atom:    1    charge:   15.2380    magn:    1.6366    constr:    0.0000
     atom:    2    charge:   15.2373    magn:    1.6365    constr:    0.0000
     atom:    3    charge:   10.5976    magn:   -0.0419    constr:    0.0000
     atom:    4    charge:   10.5976    magn:   -0.0419    constr:    0.0000
     atom:    5    charge:   15.2854    magn:    1.5649    constr:    0.0000
     atom:    6    charge:   15.2854    magn:    1.5642    constr:    0.0000
     atom:    7    charge:   10.6637    magn:   -0.0492    constr:    0.0000
     atom:    8    charge:   10.6637    magn:   -0.0492    constr:    0.0000
     atom:    9    charge:   15.2564    magn:    1.6364    constr:    0.0000
     atom:   10    charge:   15.2556    magn:    1.6371    constr:    0.0000
     atom:   11    charge:   10.5538    magn:   -0.0379    constr:    0.0000
     atom:   12    charge:   10.5537    magn:   -0.0379    constr:    0.0000

     End of self-consistent calculation

     Number of k-points >= 100: set verbosity='high' to print the bands.

     the Fermi energy is     0.3361 ev

!    total energy              =   -2653.70788299 Ry
     estimated scf accuracy    <       0.00000703 Ry
     smearing contrib. (-TS)   =      -0.05681068 Ry
     internal energy E=F+TS    =   -2653.65107230 Ry

     The total energy is F=E-TS. E is the sum of the following terms:
     one-electron contribution =  -20756.87103059 Ry
     hartree contribution      =   10451.00738962 Ry
     xc contribution           =    -482.24244798 Ry
     ewald contribution        =    8134.45501626 Ry
     electric field correction =       0.00000038 Ry

     total magnetization       =     8.88 Bohr mag/cell
     absolute magnetization    =    10.86 Bohr mag/cell

     convergence has been achieved in  33 iterations

     Forces acting on atoms (cartesian axes, Ry/au):

     atom    1 type  1   force =    -0.00000448    0.00950087    0.02109435
     atom    2 type  1   force =     0.00000078    0.00955054    0.02114132
     atom    3 type  2   force =    -0.00007906   -0.00284911   -0.02515554
     atom    4 type  2   force =     0.00007322   -0.00285586   -0.02515235
     atom    5 type  1   force =     0.00000047   -0.01293605    0.00267325
     atom    6 type  1   force =     0.00000839   -0.01310151    0.00247144
     atom    7 type  2   force =    -0.00008218    0.00788830    0.00034095
     atom    8 type  2   force =     0.00007003    0.00789513    0.00032850
     atom    9 type  1   force =     0.00000771   -0.00049955   -0.00002684
     atom   10 type  1   force =     0.00000986   -0.00063759    0.00005415
     atom   11 type  2   force =    -0.00001209   -0.00097675    0.00111697
     atom   12 type  2   force =     0.00000735   -0.00097842    0.00111381

     Total force =     0.053266     Total SCF correction =     0.009258
     SCF correction compared to forces is large: reduce conv_thr to get better values

     Writing output data file ./Co2Zn2/Co2Zn2_beef.save/

     General routines

     Parallel routines

   This run was terminated on:   8:50:40  10Jul2022

   JOB DONE.