     Program PWSCF v.6.6 starts on 10Jul2022 at 17:25:36

     R & G space division:  proc/nbgrp/npool/nimage =      37
     Fft bands division:     nmany     =       1
     Reading input from Cr2Ag2.in
Warning: card &CELL ignored
Warning: card / ignored

     Current dimensions of program PWSCF are:
     Max number of different atomic species (ntypx) = 10
     Max number of k-points (npk) =  40000
     Max angular momentum in pseudopotentials (lmaxx) =  3
     Presently stress not available with electric field and gates

     Message from routine cell_base_init:
     DEPRECATED: use true lattice parameter, not A to a.u. conversion factor
     file Cr.pbe-spn-rrkjus_psl.1.0.0.UPF: wavefunction(s)  3P renormalized

     IMPORTANT: XC functional enforced from input :
     Exchange-correlation= BEEF-VDW
                           (   1   4  43  14   2   0   0)
     Any further DFT definition will be discarded
     Please, verify this is what you really want

     Subspace diagonalization in iterative solution of the eigenvalue problem:
     a serial algorithm will be used

     bravais-lattice index     =            0
     lattice parameter (alat)  =       1.8897  a.u.
     unit-cell volume          =    4413.9180 (a.u.)^3
     number of atoms/cell      =           12
     number of atomic types    =            2
     number of electrons       =       150.00
     number of Kohn-Sham states=           90
     kinetic-energy cutoff     =      55.1240  Ry
     charge density cutoff     =     551.2396  Ry
     convergence threshold     =      1.0E-05
     mixing beta               =       0.1000
     number of iterations used =           10  plain     mixing
     Exchange-correlation= BEEF-VDW
                           (   1   4  43  14   2   0   0)

     celldm(1)=   1.889726  celldm(2)=   0.000000  celldm(3)=   0.000000
     celldm(4)=   0.000000  celldm(5)=   0.000000  celldm(6)=   0.000000

     crystal axes: (cart. coord. in units of alat)
               a(1) = (   5.221429   0.000000   0.000000 )
               a(2) = (  -2.610715   5.115026   0.000000 )
               a(3) = (   0.000000   0.000000  24.490098 )

     reciprocal axes: (cart. coord. in units 2 pi/alat)
               b(1) = (  0.191518  0.097751 -0.000000 )
               b(2) = (  0.000000  0.195502  0.000000 )
               b(3) = (  0.000000 -0.000000  0.040833 )

     PseudoPot. # 1 for Cr read from file:
     ../pseudo/Cr.pbe-spn-rrkjus_psl.1.0.0.UPF
     MD5 check sum: 793d051e4f89dd1e3290b85340a92c0a
     Pseudo is Ultrasoft + core correction, Zval = 14.0
     Generated using "atomic" code by A. Dal Corso v.6.2.2
     Using radial grid of 1183 points,  6 beta functions with:
                l(1) =   0
                l(2) =   0
                l(3) =   1
                l(4) =   1
                l(5) =   2
                l(6) =   2
     Q(r) pseudized with 0 coefficients

     PseudoPot. # 2 for Ag read from file:
     ../pseudo/Ag.pbe-n-rrkjus_psl.1.0.0.UPF
     MD5 check sum: d841cbfac2b0861aec33b46768a516bf
     Pseudo is Ultrasoft + core correction, Zval = 11.0
     Generated using "atomic" code by A. Dal Corso v.6.2.2
     Using radial grid of 1237 points,  6 beta functions with:
                l(1) =   0
                l(2) =   0
                l(3) =   1
                l(4) =   1
                l(5) =   2
                l(6) =   2
     Q(r) pseudized with 0 coefficients

     atomic species   valence    mass     pseudopotential
        Cr            14.00    51.99610     Cr( 1.00)
        Ag            11.00   107.86820     Ag( 1.00)

     No symmetry found

   Cartesian axes

     site n.     atom                  positions (alat units)
         1           Cr  tau(   1) = (   0.0000000   0.0000000  10.0000000  )
         2           Cr  tau(   2) = (   2.6107146   0.0000000  10.0000000  )
         3           Ag  tau(   3) = (   1.3053573   2.5575132  10.0000000  )
         4           Ag  tau(   4) = (  -1.3053573   2.5575132  10.0000000  )
         5           Cr  tau(   5) = (   2.6107146   1.3325114  12.2450488  )
         6           Cr  tau(   6) = (   0.0000000   1.3325114  12.2450488  )
         7           Ag  tau(   7) = (  -1.3053573   3.8900246  12.2450488  )
         8           Ag  tau(   8) = (   1.3053573   3.8900246  12.2450488  )
         9           Cr  tau(   9) = (  -0.0004089   1.8396794  14.0094613  )
        10           Cr  tau(  10) = (   2.6103067   1.8396727  14.0092681  )
        11           Ag  tau(  11) = (   1.3040572   4.5665381  14.9535846  )
        12           Ag  tau(  12) = (  -1.3052453   4.5665759  14.9535942  )

     number of k points=    74  Fermi-Dirac smearing, width (Ry)=  0.0100
                       cart. coord. in units 2pi/alat
        k(    1) = (   0.0000000   0.0000000   0.0000000), wk =   0.0138889
        k(    2) = (   0.0000000   0.0162919   0.0000000), wk =   0.0277778
        k(    3) = (   0.0000000   0.0325837   0.0000000), wk =   0.0277778
        k(    4) = (   0.0000000   0.0488756   0.0000000), wk =   0.0277778
        k(    5) = (   0.0000000   0.0651675   0.0000000), wk =   0.0277778
        k(    6) = (   0.0000000   0.0814593   0.0000000), wk =   0.0277778
        k(    7) = (   0.0000000  -0.0977512   0.0000000), wk =   0.0138889
        k(    8) = (   0.0159599   0.0081459   0.0000000), wk =   0.0277778
        k(    9) = (   0.0159599   0.0244378   0.0000000), wk =   0.0277778
        k(   10) = (   0.0159599   0.0407297   0.0000000), wk =   0.0277778
        k(   11) = (   0.0159599   0.0570215   0.0000000), wk =   0.0277778
        k(   12) = (   0.0159599   0.0733134   0.0000000), wk =   0.0277778
        k(   13) = (   0.0159599   0.0896053   0.0000000), wk =   0.0277778
        k(   14) = (   0.0159599  -0.0896053   0.0000000), wk =   0.0277778
        k(   15) = (   0.0159599  -0.0733134   0.0000000), wk =   0.0277778
        k(   16) = (   0.0159599  -0.0570215   0.0000000), wk =   0.0277778
        k(   17) = (   0.0159599  -0.0407297   0.0000000), wk =   0.0277778
        k(   18) = (   0.0159599  -0.0244378   0.0000000), wk =   0.0277778
        k(   19) = (   0.0159599  -0.0081459   0.0000000), wk =   0.0277778
        k(   20) = (   0.0319197   0.0162919   0.0000000), wk =   0.0277778
        k(   21) = (   0.0319197   0.0325837   0.0000000), wk =   0.0277778
        k(   22) = (   0.0319197   0.0488756   0.0000000), wk =   0.0277778
        k(   23) = (   0.0319197   0.0651675   0.0000000), wk =   0.0277778
        k(   24) = (   0.0319197   0.0814593   0.0000000), wk =   0.0277778
        k(   25) = (   0.0319197   0.0977512   0.0000000), wk =   0.0277778
        k(   26) = (   0.0319197  -0.0814593   0.0000000), wk =   0.0277778
        k(   27) = (   0.0319197  -0.0651675   0.0000000), wk =   0.0277778
        k(   28) = (   0.0319197  -0.0488756   0.0000000), wk =   0.0277778
        k(   29) = (   0.0319197  -0.0325837   0.0000000), wk =   0.0277778
        k(   30) = (   0.0319197  -0.0162919   0.0000000), wk =   0.0277778
        k(   31) = (   0.0319197   0.0000000   0.0000000), wk =   0.0277778
        k(   32) = (   0.0478796   0.0244378   0.0000000), wk =   0.0277778
        k(   33) = (   0.0478796   0.0407297   0.0000000), wk =   0.0277778
        k(   34) = (   0.0478796   0.0570215   0.0000000), wk =   0.0277778
        k(   35) = (   0.0478796   0.0733134   0.0000000), wk =   0.0277778
        k(   36) = (   0.0478796   0.0896053   0.0000000), wk =   0.0277778
        k(   37) = (   0.0478796   0.1058972   0.0000000), wk =   0.0277778
        k(   38) = (   0.0478796  -0.0733134   0.0000000), wk =   0.0277778
        k(   39) = (   0.0478796  -0.0570215   0.0000000), wk =   0.0277778
        k(   40) = (   0.0478796  -0.0407297   0.0000000), wk =   0.0277778
        k(   41) = (   0.0478796  -0.0244378   0.0000000), wk =   0.0277778
        k(   42) = (   0.0478796  -0.0081459   0.0000000), wk =   0.0277778
        k(   43) = (   0.0478796   0.0081459   0.0000000), wk =   0.0277778
        k(   44) = (   0.0638395   0.0325837   0.0000000), wk =   0.0277778
        k(   45) = (   0.0638395   0.0488756   0.0000000), wk =   0.0277778
        k(   46) = (   0.0638395   0.0651675   0.0000000), wk =   0.0277778
        k(   47) = (   0.0638395   0.0814594   0.0000000), wk =   0.0277778
        k(   48) = (   0.0638395   0.0977512   0.0000000), wk =   0.0277778
        k(   49) = (   0.0638395   0.1140431   0.0000000), wk =   0.0277778
        k(   50) = (   0.0638395  -0.0651675   0.0000000), wk =   0.0277778
        k(   51) = (   0.0638395  -0.0488756   0.0000000), wk =   0.0277778
        k(   52) = (   0.0638395  -0.0325837   0.0000000), wk =   0.0277778
        k(   53) = (   0.0638395  -0.0162919   0.0000000), wk =   0.0277778
        k(   54) = (   0.0638395   0.0000000   0.0000000), wk =   0.0277778
        k(   55) = (   0.0638395   0.0162919   0.0000000), wk =   0.0277778
        k(   56) = (   0.0797994   0.0407297   0.0000000), wk =   0.0277778
        k(   57) = (   0.0797994   0.0570215   0.0000000), wk =   0.0277778
        k(   58) = (   0.0797994   0.0733134   0.0000000), wk =   0.0277778
        k(   59) = (   0.0797994   0.0896053   0.0000000), wk =   0.0277778
        k(   60) = (   0.0797994   0.1058972   0.0000000), wk =   0.0277778
        k(   61) = (   0.0797994   0.1221890   0.0000000), wk =   0.0277778
        k(   62) = (   0.0797994  -0.0570215   0.0000000), wk =   0.0277778
        k(   63) = (   0.0797994  -0.0407297   0.0000000), wk =   0.0277778
        k(   64) = (   0.0797994  -0.0244378   0.0000000), wk =   0.0277778
        k(   65) = (   0.0797994  -0.0081459   0.0000000), wk =   0.0277778
        k(   66) = (   0.0797994   0.0081459   0.0000000), wk =   0.0277778
        k(   67) = (   0.0797994   0.0244378   0.0000000), wk =   0.0277778
        k(   68) = (  -0.0957592  -0.0488756   0.0000000), wk =   0.0138889
        k(   69) = (  -0.0957592  -0.0325837   0.0000000), wk =   0.0277778
        k(   70) = (  -0.0957592  -0.0162919   0.0000000), wk =   0.0277778
        k(   71) = (  -0.0957592  -0.0000000   0.0000000), wk =   0.0277778
        k(   72) = (  -0.0957592   0.0162919   0.0000000), wk =   0.0277778
        k(   73) = (  -0.0957592   0.0325837   0.0000000), wk =   0.0277778
        k(   74) = (  -0.0957592  -0.1466268   0.0000000), wk =   0.0138889

     Initial potential from superposition of free atoms

     starting charge  149.99297, renormalised to  150.00000

     negative rho (up, down):  3.351E-03 0.000E+00

     %%%%%%%%%%%%%%%%%%%%%%%%%%%%%%%%%%%%%%%%%%%%%%%%%%%%%%%%%%%%%%%%%%%%%%%%
     %                                                                      %
     % You are using vdW-DF, which was implemented by the Thonhauser group. %
     % Please cite the following two papers that made this development      %
     % possible and the two reviews that describe the various versions:     %
     %                                                                      %
     %   T. Thonhauser et al., PRL 115, 136402 (2015).                      %
     %   T. Thonhauser et al., PRB 76, 125112 (2007).                       %
     %   K. Berland et al., Rep. Prog. Phys. 78, 066501 (2015).             %
     %   D.C. Langreth et al., J. Phys.: Condens. Matter 21, 084203 (2009). %
     %                                                                      %
     %                                                                      %
     % If you are calculating the stress with vdW-DF, please also cite:     %
     %                                                                      %
     %   R. Sabatini et al., J. Phys.: Condens. Matter 24, 424209 (2012).   %
     %                                                                      %
     %%%%%%%%%%%%%%%%%%%%%%%%%%%%%%%%%%%%%%%%%%%%%%%%%%%%%%%%%%%%%%%%%%%%%%%%

     Adding external electric field

     Computed dipole along edir(3) :
        Dipole               -0.0004 Ry au,         -0.0011 Debye
        Dipole field         -0.0000 Ry au,

        Potential amp.        0.0001 Ry
        Total length         45.1226 bohr

     Starting wfcs are  114 randomized atomic wfcs

     Self-consistent Calculation

     iteration #  1     ecut=    55.12 Ry     beta= 0.10
     Davidson diagonalization with overlap
     ethr =  1.00E-02,  avg # of iterations =  2.1

[...]

     total energy              =   -1561.65852212 Ry
     estimated scf accuracy    <      18.03563251 Ry

[...]

     iteration # 10     ecut=    55.12 Ry     beta= 0.10
     Davidson diagonalization with overlap
     c_bands:  1 eigenvalues not converged
     c_bands:  1 eigenvalues not converged
     c_bands:  1 eigenvalues not converged
     c_bands:  1 eigenvalues not converged
     c_bands:  1 eigenvalues not converged
     c_bands:  1 eigenvalues not converged
     c_bands:  1 eigenvalues not converged
     c_bands:  2 eigenvalues not converged
     c_bands:  2 eigenvalues not converged
     c_bands:  2 eigenvalues not converged
     ethr =  1.33E-05,  avg # of iterations = 15.3

[...]

     iteration # 18     ecut=    55.12 Ry     beta= 0.10
     Davidson diagonalization with overlap
     c_bands:  1 eigenvalues not converged
     ethr =  2.18E-08,  avg # of iterations =  7.5

[...]

     total energy              =   -1564.28429511 Ry
     estimated scf accuracy    <       0.00001133 Ry

     iteration # 19     ecut=    55.12 Ry     beta= 0.10
     Davidson diagonalization with overlap
     ethr =  7.55E-09,  avg # of iterations =  2.3

[...]

     Adding external electric field

     Computed dipole along edir(3) :
        Dipole                0.0444 Ry au,          0.1128 Debye
        Dipole field          0.0001 Ry au,

        Potential amp.       -0.0114 Ry
        Total length         45.1226 bohr

     End of self-consistent calculation

          k = 0.0000 0.0000 0.0000 ( 30485 PWs)   bands (ev):

   -71.4415 -71.3935 -71.0564 -71.0116 -70.6375 -70.5944 -43.8715 -43.8237
   -42.6823 -42.6021 -42.5585 -42.4613 -42.4285 -42.3902 -42.3409 -42.3019
   -42.2868 -42.1869 -42.1286 -42.1016 -42.0928 -41.8472 -40.9918 -40.9631
    -6.4365  -5.7977  -5.7784  -5.6429  -5.6080  -5.3724  -5.3247  -5.1991
    -5.1185  -4.7433  -4.6931  -4.6827  -4.6311  -4.5277  -4.3545  -4.0447
    -4.0436  -4.0047  -3.9125  -3.6886  -3.6131  -3.4509  -3.4351  -3.3482
    -3.3237  -3.2416  -3.0259  -2.8709  -2.7759  -2.7218  -2.5362  -2.3085
    -1.9945  -1.9356  -1.6506  -1.4234  -1.2408  -1.0973  -1.0199  -0.9637
    -0.6697  -0.5372  -0.1996  -0.1548  -0.0248  -0.0006   0.4114   0.4270
     0.6986   0.7643   1.0396   1.0754   1.1413   1.1600   1.3643   1.5544
     1.6098   1.6971   1.7619   1.8389   1.8693   1.8912   2.0611   2.1653
     2.2277   2.6008

[...]

          k = 0.0798 0.0244 0.0000 ( 30501 PWs)   bands (ev):

[...]

          k =-0.0958-0.0489 0.0000 ( 30536 PWs)   bands (ev):

[...]

          k =-0.0958-0.1466 0.0000 ( 30536 PWs)   bands (ev):

   -71.4179 -71.4173 -71.0342 -71.0338 -70.6161 -70.6160 -43.8483 -43.8471
   -42.5807 -42.5804 -42.4867 -42.4864 -42.4096 -42.4091 -42.3219 -42.3215
   -42.2833 -42.2829 -42.1109 -42.1109 -42.0187 -42.0186 -40.9777 -40.9770
    -5.1720  -5.1719  -5.0080  -5.0079  -4.8867  -4.8864  -4.8064  -4.8061
    -4.5760  -4.5759  -4.3732  -4.3722  -4.2046  -4.2044  -4.0969  -4.0968
    -3.9158  -3.9137  -3.8875  -3.8833  -3.8172  -3.8162  -3.7586  -3.7563
    -3.5801  -3.5789  -3.4602  -3.4595  -3.3533  -3.3515  -3.2707  -3.2685
    -2.3573  -2.3565  -1.8457  -1.8456  -1.4115  -1.4111  -1.3127  -1.3125
    -0.9829  -0.9825  -0.1874  -0.1873  -0.1160  -0.1157   0.0537   0.0538
     0.4396   0.4398   0.5073   0.5076   0.6093   0.6094   1.0006   1.0007
     1.1210   1.1213   1.5884   1.5887   1.9910   1.9911   2.3543   2.3543
     2.7593   2.7596

     the Fermi energy is     0.6386 ev

!    total energy              =   -1564.28430476 Ry
     estimated scf accuracy    <       0.00000722 Ry
     smearing contrib. (-TS)   =      -0.07694871 Ry
     internal energy E=F+TS    =   -1564.20735605 Ry

     The total energy is F=E-TS. E is the sum of the following terms:
     one-electron contribution =  -12944.59544521 Ry
     hartree contribution      =    6511.39086072 Ry
     xc contribution           =    -277.96080143 Ry
     ewald contribution        =    5146.95802425 Ry
     electric field correction =       0.00000561 Ry

     convergence has been achieved in  19 iterations

     negative rho (up, down):  3.211E-03 0.000E+00

     Forces acting on atoms (cartesian axes, Ry/au):

     atom    1 type  1   force =    -0.00000694    0.00702872    0.02673246
     atom    2 type  1   force =     0.00000870    0.00703437    0.02670722
     atom    3 type  2   force =    -0.00000271   -0.02282968   -0.05026781
     atom    4 type  2   force =     0.00000168   -0.02282702   -0.05026632
     atom    5 type  1   force =    -0.00003775   -0.00646591   -0.00802040
     atom    6 type  1   force =     0.00005715   -0.00641168   -0.00768970
     atom    7 type  2   force =    -0.00005674    0.02209595    0.03227640
     atom    8 type  2   force =     0.00005157    0.02209804    0.03227553
     atom    9 type  1   force =    -0.00005803    0.00137486   -0.00065298
     atom   10 type  1   force =     0.00004408    0.00136537   -0.00060612
     atom   11 type  2   force =     0.00065946   -0.00123050   -0.00024600
     atom   12 type  2   force =    -0.00066049   -0.00123251   -0.00024229

     Total force =     0.104392     Total SCF correction =     0.006829

     Writing output data file ./Cr2Ag2/Cr2Ag2_beef.save/

     General routines

     Parallel routines

   This run was terminated on:  18:23:49  10Jul2022

   JOB DONE.