     Program PWSCF v.6.6 starts on 10Jul2022 at 14:53:32

     R & G space division:  proc/nbgrp/npool/nimage =      37
     Fft bands division:     nmany     =       1
     Reading input from Cr2Au2.in
Warning: card &CELL ignored
Warning: card / ignored

     Current dimensions of program PWSCF are:
     Max number of different atomic species (ntypx) = 10
     Max number of k-points (npk) =  40000
     Max angular momentum in pseudopotentials (lmaxx) =  3
     Presently stress not available with electric field and gates

     Message from routine cell_base_init:
     DEPRECATED: use true lattice parameter, not A to a.u. conversion factor
     file Cr.pbe-spn-rrkjus_psl.1.0.0.UPF: wavefunction(s)  3P renormalized

     IMPORTANT: XC functional enforced from input :
     Exchange-correlation= BEEF-VDW
                           (   1   4  43  14   2   0   0)
     Any further DFT definition will be discarded
     Please, verify this is what you really want

     Subspace diagonalization in iterative solution of the eigenvalue problem:
     a serial algorithm will be used

     bravais-lattice index     =            0
     lattice parameter (alat)  =       1.8897  a.u.
     unit-cell volume          =    4396.7462 (a.u.)^3
     number of atoms/cell      =           12
     number of atomic types    =            2
     number of electrons       =       150.00
     number of Kohn-Sham states=           90
     kinetic-energy cutoff     =      55.1240  Ry
     charge density cutoff     =     551.2396  Ry
     convergence threshold     =      1.0E-05
     mixing beta               =       0.1000
     number of iterations used =           10  plain     mixing
     Exchange-correlation= BEEF-VDW
                           (   1   4  43  14   2   0   0)

     celldm(1)=   1.889726  celldm(2)=   0.000000  celldm(3)=   0.000000
     celldm(4)=   0.000000  celldm(5)=   0.000000  celldm(6)=   0.000000

     crystal axes: (cart. coord. in units of alat)
               a(1) = (   5.400786   0.000000   0.000000 )
               a(2) = (  -2.700393   4.920925   0.000000 )
               a(3) = (   0.000000   0.000000  24.514959 )

     reciprocal axes: (cart. coord. in units 2 pi/alat)
               b(1) = (  0.185158  0.101607 -0.000000 )
               b(2) = (  0.000000  0.203214  0.000000 )
               b(3) = (  0.000000 -0.000000  0.040791 )

     PseudoPot. # 1 for Cr read from file:
     ../pseudo/Cr.pbe-spn-rrkjus_psl.1.0.0.UPF
     MD5 check sum: 793d051e4f89dd1e3290b85340a92c0a
     Pseudo is Ultrasoft + core correction, Zval = 14.0
     Generated using "atomic" code by A. Dal Corso v.6.2.2
     Using radial grid of 1183 points,  6 beta functions with:
                l(1) =   0
                l(2) =   0
                l(3) =   1
                l(4) =   1
                l(5) =   2
                l(6) =   2
     Q(r) pseudized with 0 coefficients

     PseudoPot. # 2 for Au read from file:
     ../pseudo/Au.pbe-n-rrkjus_psl.1.0.0.UPF
     MD5 check sum: d7e77ba19504afed2c9b41c931dde4f0
     Pseudo is Ultrasoft + core correction, Zval = 11.0
     Generated using "atomic" code by A. Dal Corso v.6.3
     Using radial grid of 1279 points,  6 beta functions with:
                l(1) =   0
                l(2) =   0
                l(3) =   1
                l(4) =   1
                l(5) =   2
                l(6) =   2
     Q(r) pseudized with 0 coefficients

     atomic species   valence    mass     pseudopotential
        Cr            14.00    51.99610     Cr( 1.00)
        Au            11.00   196.96657     Au( 1.00)

     No symmetry found

   Cartesian axes

     site n.     atom                  positions (alat units)
         1           Cr  tau(   1) = (   0.0000000   0.0000000  10.0000000  )
         2           Cr  tau(   2) = (   2.7003930   0.0000000  10.0000000  )
         3           Au  tau(   3) = (   1.3501965   2.4604623  10.0000000  )
         4           Au  tau(   4) = (  -1.3501965   2.4604623  10.0000000  )
         5           Cr  tau(   5) = (   2.7003930   1.4818602  12.2574793  )
         6           Cr  tau(   6) = (  -0.0000000   1.4818602  12.2574793  )
         7           Au  tau(   7) = (  -1.3501965   3.9423226  12.2574793  )
         8           Au  tau(   8) = (   1.3501965   3.9423226  12.2574793  )
         9           Cr  tau(   9) = (  -0.0003246   1.9786822  14.0251165  )
        10           Cr  tau(  10) = (   2.7000774   1.9796391  14.0273138  )
        11           Au  tau(  11) = (   1.3503997   4.6827524  15.0082216  )
        12           Au  tau(  12) = (  -1.3510113   4.6827343  15.0082409  )

     number of k points=    74  Fermi-Dirac smearing, width (Ry)=  0.0100
                       cart. coord. in units 2pi/alat
        k(    1) = (   0.0000000   0.0000000   0.0000000), wk =   0.0138889
        k(    2) = (   0.0000000   0.0169345   0.0000000), wk =   0.0277778
        k(    3) = (   0.0000000   0.0338690   0.0000000), wk =   0.0277778
        k(    4) = (   0.0000000   0.0508035   0.0000000), wk =   0.0277778
        k(    5) = (   0.0000000   0.0677379   0.0000000), wk =   0.0277778
        k(    6) = (   0.0000000   0.0846724   0.0000000), wk =   0.0277778
        k(    7) = (   0.0000000  -0.1016069   0.0000000), wk =   0.0138889
        k(    8) = (   0.0154299   0.0084672   0.0000000), wk =   0.0277778
        k(    9) = (   0.0154299   0.0254017   0.0000000), wk =   0.0277778
        k(   10) = (   0.0154299   0.0423362   0.0000000), wk =   0.0277778
        k(   11) = (   0.0154299   0.0592707   0.0000000), wk =   0.0277778
        k(   12) = (   0.0154299   0.0762052   0.0000000), wk =   0.0277778
        k(   13) = (   0.0154299   0.0931397   0.0000000), wk =   0.0277778
        k(   14) = (   0.0154299  -0.0931397   0.0000000), wk =   0.0277778
        k(   15) = (   0.0154299  -0.0762052   0.0000000), wk =   0.0277778
        k(   16) = (   0.0154299  -0.0592707   0.0000000), wk =   0.0277778
        k(   17) = (   0.0154299  -0.0423362   0.0000000), wk =   0.0277778
        k(   18) = (   0.0154299  -0.0254017   0.0000000), wk =   0.0277778
        k(   19) = (   0.0154299  -0.0084672   0.0000000), wk =   0.0277778
        k(   20) = (   0.0308597   0.0169345   0.0000000), wk =   0.0277778
        k(   21) = (   0.0308597   0.0338690   0.0000000), wk =   0.0277778
        k(   22) = (   0.0308597   0.0508035   0.0000000), wk =   0.0277778
        k(   23) = (   0.0308597   0.0677379   0.0000000), wk =   0.0277778
        k(   24) = (   0.0308597   0.0846724   0.0000000), wk =   0.0277778
        k(   25) = (   0.0308597   0.1016069   0.0000000), wk =   0.0277778
        k(   26) = (   0.0308597  -0.0846724   0.0000000), wk =   0.0277778
        k(   27) = (   0.0308597  -0.0677379   0.0000000), wk =   0.0277778
        k(   28) = (   0.0308597  -0.0508035   0.0000000), wk =   0.0277778
        k(   29) = (   0.0308597  -0.0338690   0.0000000), wk =   0.0277778
        k(   30) = (   0.0308597  -0.0169345   0.0000000), wk =   0.0277778
        k(   31) = (   0.0308597  -0.0000000   0.0000000), wk =   0.0277778
        k(   32) = (   0.0462896   0.0254017   0.0000000), wk =   0.0277778
        k(   33) = (   0.0462896   0.0423362   0.0000000), wk =   0.0277778
        k(   34) = (   0.0462896   0.0592707   0.0000000), wk =   0.0277778
        k(   35) = (   0.0462896   0.0762052   0.0000000), wk =   0.0277778
        k(   36) = (   0.0462896   0.0931397   0.0000000), wk =   0.0277778
        k(   37) = (   0.0462896   0.1100742   0.0000000), wk =   0.0277778
        k(   38) = (   0.0462896  -0.0762052   0.0000000), wk =   0.0277778
        k(   39) = (   0.0462896  -0.0592707   0.0000000), wk =   0.0277778
        k(   40) = (   0.0462896  -0.0423362   0.0000000), wk =   0.0277778
        k(   41) = (   0.0462896  -0.0254017   0.0000000), wk =   0.0277778
        k(   42) = (   0.0462896  -0.0084672   0.0000000), wk =   0.0277778
        k(   43) = (   0.0462896   0.0084672   0.0000000), wk =   0.0277778
        k(   44) = (   0.0617194   0.0338690   0.0000000), wk =   0.0277778
        k(   45) = (   0.0617194   0.0508035   0.0000000), wk =   0.0277778
        k(   46) = (   0.0617194   0.0677379   0.0000000), wk =   0.0277778
        k(   47) = (   0.0617194   0.0846724   0.0000000), wk =   0.0277778
        k(   48) = (   0.0617194   0.1016069   0.0000000), wk =   0.0277778
        k(   49) = (   0.0617194   0.1185414   0.0000000), wk =   0.0277778
        k(   50) = (   0.0617194  -0.0677379   0.0000000), wk =   0.0277778
        k(   51) = (   0.0617194  -0.0508035   0.0000000), wk =   0.0277778
        k(   52) = (   0.0617194  -0.0338690   0.0000000), wk =   0.0277778
        k(   53) = (   0.0617194  -0.0169345   0.0000000), wk =   0.0277778
        k(   54) = (   0.0617194   0.0000000   0.0000000), wk =   0.0277778
        k(   55) = (   0.0617194   0.0169345   0.0000000), wk =   0.0277778
        k(   56) = (   0.0771493   0.0423362   0.0000000), wk =   0.0277778
        k(   57) = (   0.0771493   0.0592707   0.0000000), wk =   0.0277778
        k(   58) = (   0.0771493   0.0762052   0.0000000), wk =   0.0277778
        k(   59) = (   0.0771493   0.0931397   0.0000000), wk =   0.0277778
        k(   60) = (   0.0771493   0.1100742   0.0000000), wk =   0.0277778
        k(   61) = (   0.0771493   0.1270086   0.0000000), wk =   0.0277778
        k(   62) = (   0.0771493  -0.0592707   0.0000000), wk =   0.0277778
        k(   63) = (   0.0771493  -0.0423362   0.0000000), wk =   0.0277778
        k(   64) = (   0.0771493  -0.0254017   0.0000000), wk =   0.0277778
        k(   65) = (   0.0771493  -0.0084672   0.0000000), wk =   0.0277778
        k(   66) = (   0.0771493   0.0084672   0.0000000), wk =   0.0277778
        k(   67) = (   0.0771493   0.0254017   0.0000000), wk =   0.0277778
        k(   68) = (  -0.0925791  -0.0508035   0.0000000), wk =   0.0138889
        k(   69) = (  -0.0925791  -0.0338690   0.0000000), wk =   0.0277778
        k(   70) = (  -0.0925791  -0.0169345   0.0000000), wk =   0.0277778
        k(   71) = (  -0.0925791   0.0000000   0.0000000), wk =   0.0277778
        k(   72) = (  -0.0925791   0.0169345   0.0000000), wk =   0.0277778
        k(   73) = (  -0.0925791   0.0338690   0.0000000), wk =   0.0277778
        k(   74) = (  -0.0925791  -0.1524104   0.0000000), wk =   0.0138889

     Initial potential from superposition of free atoms

     starting charge  149.99470, renormalised to  150.00000

     negative rho (up, down):  3.544E-03 0.000E+00

     %%%%%%%%%%%%%%%%%%%%%%%%%%%%%%%%%%%%%%%%%%%%%%%%%%%%%%%%%%%%%%%%%%%%%%%%
     %                                                                      %
     % You are using vdW-DF, which was implemented by the Thonhauser group. %
     % Please cite the following two papers that made this development      %
     % possible and the two reviews that describe the various versions:     %
     %                                                                      %
     %   T. Thonhauser et al., PRL 115, 136402 (2015).                      %
     %   T. Thonhauser et al., PRB 76, 125112 (2007).                       %
     %   K. Berland et al., Rep. Prog. Phys. 78, 066501 (2015).             %
     %   D.C. Langreth et al., J. Phys.: Condens. Matter 21, 084203 (2009). %
     %                                                                      %
     %                                                                      %
     % If you are calculating the stress with vdW-DF, please also cite:     %
     %                                                                      %
     %   R. Sabatini et al., J. Phys.: Condens. Matter 24, 424209 (2012).   %
     %                                                                      %
     %%%%%%%%%%%%%%%%%%%%%%%%%%%%%%%%%%%%%%%%%%%%%%%%%%%%%%%%%%%%%%%%%%%%%%%%

     Adding external electric field

     Computed dipole along edir(3) :
        Dipole               -0.0010 Ry au,         -0.0026 Debye
        Dipole field         -0.0000 Ry au,

        Potential amp.        0.0003 Ry
        Total length         45.1684 bohr

     Starting wfcs are  114 randomized atomic wfcs

     Self-consistent Calculation

     iteration #  1     ecut=    55.12 Ry     beta= 0.10
     Davidson diagonalization with overlap
     ethr =  1.00E-02,  avg # of iterations =  2.1

[...]

     total energy              =   -1568.88248587 Ry
     estimated scf accuracy    <      31.93307233 Ry

[...]

     iteration #  7     ecut=    55.12 Ry     beta= 0.10
     Davidson diagonalization with overlap
     c_bands:  1 eigenvalues not converged
     ethr =  2.87E-04,  avg # of iterations =  5.1

[...]

     iteration # 14     ecut=    55.12 Ry     beta= 0.10
     Davidson diagonalization with overlap
     c_bands:  1 eigenvalues not converged
     c_bands:  1 eigenvalues not converged
     ethr =  3.23E-06,  avg # of iterations =  8.6

[...]

     total energy              =   -1573.10878237 Ry
     estimated scf accuracy    <       0.00002951 Ry

     iteration # 23     ecut=    55.12 Ry     beta= 0.10
     Davidson diagonalization with overlap
     ethr =  1.97E-08,  avg # of iterations =  1.9

[...]

     Adding external electric field

     Computed dipole along edir(3) :
        Dipole               -0.0673 Ry au,         -0.1709 Debye
        Dipole field         -0.0002 Ry au,

        Potential amp.        0.0174 Ry
        Total length         45.1684 bohr

     End of self-consistent calculation

          k = 0.0000 0.0000 0.0000 ( 30377 PWs)   bands (ev):

   -71.2352 -71.2025 -70.8802 -70.8504 -70.4401 -70.4114 -43.6396 -43.6031
   -42.4382 -42.4091 -42.3782 -42.2616 -42.2393 -42.2345 -42.1568 -42.1492
   -42.1296 -41.9788 -41.9565 -41.9475 -41.9223 -41.7117 -40.7805 -40.7584
    -7.5099  -6.1463  -5.7680  -5.7653  -5.5846  -5.4320  -5.2472  -5.0731
    -4.9987  -4.8730  -4.6079  -4.4203  -4.3563  -4.2355  -4.2011  -3.8094
    -3.6774  -3.5178  -3.4042  -3.2444  -3.1511  -2.9603  -2.9392  -2.8117
    -2.6864  -2.6120  -2.4565  -2.2185  -1.9568  -1.8335  -1.7067  -1.5094
    -1.4409  -1.1719  -0.9992  -0.9882  -0.9820  -0.8731  -0.8421  -0.4094
    -0.0626   0.0573   0.1952   0.2097   0.2154   0.4027   0.6868   0.7824
     1.0348   1.1729   1.3198   1.3580   1.4792   1.5524   1.5623   1.7649
     1.7968   1.8590   2.0422   2.0728   2.1409   2.2519   2.2564   2.2960
     2.3588   3.1171

[...]

          k = 0.0771 0.0254 0.0000 ( 30437 PWs)   bands (ev):

[...]

          k =-0.0926-0.0508 0.0000 ( 30416 PWs)   bands (ev):

[...]

          k =-0.0926-0.1524 0.0000 ( 30416 PWs)   bands (ev):

   -71.2218 -71.2159 -70.8655 -70.8651 -70.4272 -70.4243 -43.6284 -43.6145
   -42.3955 -42.3928 -42.2967 -42.2935 -42.2482 -42.2480 -42.1440 -42.1436
   -42.1103 -42.1100 -41.9360 -41.9342 -41.8356 -41.8343 -40.7742 -40.7647
    -5.7987  -5.7984  -4.9049  -4.9043  -4.7278  -4.7274  -4.6766  -4.6760
    -4.4151  -4.4147  -4.2617  -4.2609  -4.0509  -4.0506  -3.7024  -3.7022
    -3.5860  -3.5856  -3.4290  -3.4286  -3.3247  -3.3233  -3.2785  -3.2749
    -3.1327  -3.1320  -3.0409  -3.0378  -2.7613  -2.7600  -2.5712  -2.5680
    -2.3640  -2.3634  -1.5377  -1.5349  -1.0692  -1.0651  -0.9539  -0.9497
    -0.7408  -0.7378  -0.0586  -0.0575   0.2071   0.2083   0.3428   0.3441
     0.6971   0.6976   0.8154   0.8155   0.9715   0.9719   1.2555   1.2574
     1.3874   1.3894   1.7245   1.7246   2.3912   2.3927   2.7013   2.7043
     3.0917   3.0943

     the Fermi energy is     0.9253 ev

!    total energy              =   -1573.10878275 Ry
     estimated scf accuracy    <       0.00000628 Ry
     smearing contrib. (-TS)   =      -0.07985556 Ry
     internal energy E=F+TS    =   -1573.02892719 Ry

     The total energy is F=E-TS. E is the sum of the following terms:
     one-electron contribution =  -12848.57416830 Ry
     hartree contribution      =    6461.72166283 Ry
     xc contribution           =    -338.21606639 Ry
     ewald contribution        =    5152.03963174 Ry
     electric field correction =       0.00001293 Ry

     convergence has been achieved in  23 iterations

     negative rho (up, down):  3.364E-03 0.000E+00

     Forces acting on atoms (cartesian axes, Ry/au):

     atom    1 type  1   force =     0.00000020    0.00343905    0.02317330
     atom    2 type  1   force =    -0.00000903    0.00346304    0.02321648
     atom    3 type  2   force =     0.00005801   -0.02917685   -0.05521673
     atom    4 type  2   force =    -0.00004929   -0.02918887   -0.05521019
     atom    5 type  1   force =     0.00000505   -0.00199251    0.00551731
     atom    6 type  1   force =     0.00000769   -0.00255522    0.00373440
     atom    7 type  2   force =     0.00010876    0.02788670    0.02719929
     atom    8 type  2   force =    -0.00013032    0.02789023    0.02719698
     atom    9 type  1   force =     0.00001050    0.00072729   -0.00100561
     atom   10 type  1   force =     0.00000527    0.00055859   -0.00147136
     atom   11 type  2   force =    -0.00042920   -0.00053439    0.00142707
     atom   12 type  2   force =     0.00042236   -0.00051707    0.00143905

     Total force =     0.109541     Total SCF correction =     0.009962

     Writing output data file ./Cr2Au2/Cr2Au2_beef.save/

     General routines

     Parallel routines

   This run was terminated on:  15:55:19  10Jul2022

   JOB DONE.