     Program PWSCF v.6.6 starts on 10Jul2022 at 18:24:49

     R & G space division:  proc/nbgrp/npool/nimage =      37
     Fft bands division:     nmany     =       1
     Reading input from Cr2Cu2.in
Warning: card &CELL ignored
Warning: card / ignored

     Current dimensions of program PWSCF are:
     Max number of different atomic species (ntypx) = 10
     Max number of k-points (npk) =  40000
     Max angular momentum in pseudopotentials (lmaxx) =  3
     Presently stress not available with electric field and gates

     Message from routine cell_base_init:
     DEPRECATED: use true lattice parameter, not A to a.u. conversion factor
     file Cr.pbe-spn-rrkjus_psl.1.0.0.UPF: wavefunction(s)  3P renormalized
     file Cu.pbe-dn-rrkjus_psl.1.0.0.UPF: wavefunction(s)  3D renormalized

     IMPORTANT: XC functional enforced from input :
     Exchange-correlation= BEEF-VDW
                           (   1   4  43  14   2   0   0)
     Any further DFT definition will be discarded
     Please, verify this is what you really want

     Subspace diagonalization in iterative solution of the eigenvalue problem:
     a serial algorithm will be used

     bravais-lattice index     =            0
     lattice parameter (alat)  =       1.8897  a.u.
     unit-cell volume          =    3738.1557 (a.u.)^3
     number of atoms/cell      =           12
     number of atomic types    =            2
     number of electrons       =       150.00
     number of Kohn-Sham states=           90
     kinetic-energy cutoff     =      55.1240  Ry
     charge density cutoff     =     551.2396  Ry
     convergence threshold     =      1.0E-05
     mixing beta               =       0.1000
     number of iterations used =           10  plain     mixing
     Exchange-correlation= BEEF-VDW
                           (   1   4  43  14   2   0   0)

     celldm(1)=   1.889726  celldm(2)=   0.000000  celldm(3)=   0.000000
     celldm(4)=   0.000000  celldm(5)=   0.000000  celldm(6)=   0.000000

     crystal axes: (cart. coord. in units of alat)
               a(1) = (   4.847883   0.000000   0.000000 )
               a(2) = (  -2.423941   4.728954   0.000000 )
               a(3) = (   0.000000   0.000000  24.162599 )

     reciprocal axes: (cart. coord. in units 2 pi/alat)
               b(1) = (  0.206276  0.105732 -0.000000 )
               b(2) = (  0.000000  0.211463  0.000000 )
               b(3) = (  0.000000 -0.000000  0.041386 )

     PseudoPot. # 1 for Cr read from file:
     ../pseudo/Cr.pbe-spn-rrkjus_psl.1.0.0.UPF
     MD5 check sum: 793d051e4f89dd1e3290b85340a92c0a
     Pseudo is Ultrasoft + core correction, Zval = 14.0
     Generated using "atomic" code by A. Dal Corso v.6.2.2
     Using radial grid of 1183 points,  6 beta functions with:
                l(1) =   0
                l(2) =   0
                l(3) =   1
                l(4) =   1
                l(5) =   2
                l(6) =   2
     Q(r) pseudized with 0 coefficients

     PseudoPot. # 2 for Cu read from file:
     ../pseudo/Cu.pbe-dn-rrkjus_psl.1.0.0.UPF
     MD5 check sum: 8469560995d0c2df1ffe68c099c04a63
     Pseudo is Ultrasoft + core correction, Zval = 11.0
     Generated using "atomic" code by A. Dal Corso v.6.3
     Using radial grid of 1199 points,  6 beta functions with:
                l(1) =   0
                l(2) =   0
                l(3) =   1
                l(4) =   1
                l(5) =   2
                l(6) =   2
     Q(r) pseudized with 0 coefficients

     atomic species   valence    mass     pseudopotential
        Cr            14.00    51.99610     Cr( 1.00)
        Cu            11.00    63.54600     Cu( 1.00)

     No symmetry found

   Cartesian axes

     site n.     atom                  positions (alat units)
         1           Cr  tau(   1) = (   0.0000000   0.0000000  10.0000000  )
         2           Cr  tau(   2) = (   2.4239413   0.0000000  10.0000000  )
         3           Cu  tau(   3) = (   1.2119706   2.3644771  10.0000000  )
         4           Cu  tau(   4) = (  -1.2119706   2.3644771  10.0000000  )
         5           Cr  tau(   5) = (   2.4239413   1.2424504  12.0812996  )
         6           Cr  tau(   6) = (  -0.0000000   1.2424504  12.0812996  )
         7           Cu  tau(   7) = (  -1.2119706   3.6069275  12.0812996  )
         8           Cu  tau(   8) = (   1.2119706   3.6069275  12.0812996  )
         9           Cr  tau(   9) = (   0.0000274   2.4181392  14.0291825  )
        10           Cr  tau(  10) = (   2.4239483   2.4180250  14.0291408  )
        11           Cu  tau(  11) = (   3.6358702   0.1028756  14.2419793  )
        12           Cu  tau(  12) = (   1.2121974   0.1028751  14.2419740  )

     number of k points=    74  Fermi-Dirac smearing, width (Ry)=  0.0100
                       cart. coord. in units 2pi/alat
        k(    1) = (   0.0000000   0.0000000   0.0000000), wk =   0.0138889
        k(    2) = (   0.0000000   0.0176219   0.0000000), wk =   0.0277778
        k(    3) = (   0.0000000   0.0352439   0.0000000), wk =   0.0277778
        k(    4) = (   0.0000000   0.0528658   0.0000000), wk =   0.0277778
        k(    5) = (   0.0000000   0.0704878   0.0000000), wk =   0.0277778
        k(    6) = (   0.0000000   0.0881097   0.0000000), wk =   0.0277778
        k(    7) = (   0.0000000  -0.1057316   0.0000000), wk =   0.0138889
        k(    8) = (   0.0171896   0.0088110   0.0000000), wk =   0.0277778
        k(    9) = (   0.0171896   0.0264329   0.0000000), wk =   0.0277778
        k(   10) = (   0.0171896   0.0440548   0.0000000), wk =   0.0277778
        k(   11) = (   0.0171896   0.0616768   0.0000000), wk =   0.0277778
        k(   12) = (   0.0171896   0.0792987   0.0000000), wk =   0.0277778
        k(   13) = (   0.0171896   0.0969207   0.0000000), wk =   0.0277778
        k(   14) = (   0.0171896  -0.0969207   0.0000000), wk =   0.0277778
        k(   15) = (   0.0171896  -0.0792987   0.0000000), wk =   0.0277778
        k(   16) = (   0.0171896  -0.0616768   0.0000000), wk =   0.0277778
        k(   17) = (   0.0171896  -0.0440548   0.0000000), wk =   0.0277778
        k(   18) = (   0.0171896  -0.0264329   0.0000000), wk =   0.0277778
        k(   19) = (   0.0171896  -0.0088110   0.0000000), wk =   0.0277778
        k(   20) = (   0.0343793   0.0176219   0.0000000), wk =   0.0277778
        k(   21) = (   0.0343793   0.0352439   0.0000000), wk =   0.0277778
        k(   22) = (   0.0343793   0.0528658   0.0000000), wk =   0.0277778
        k(   23) = (   0.0343793   0.0704877   0.0000000), wk =   0.0277778
        k(   24) = (   0.0343793   0.0881097   0.0000000), wk =   0.0277778
        k(   25) = (   0.0343793   0.1057316   0.0000000), wk =   0.0277778
        k(   26) = (   0.0343793  -0.0881097   0.0000000), wk =   0.0277778
        k(   27) = (   0.0343793  -0.0704878   0.0000000), wk =   0.0277778
        k(   28) = (   0.0343793  -0.0528658   0.0000000), wk =   0.0277778
        k(   29) = (   0.0343793  -0.0352439   0.0000000), wk =   0.0277778
        k(   30) = (   0.0343793  -0.0176219   0.0000000), wk =   0.0277778
        k(   31) = (   0.0343793  -0.0000000   0.0000000), wk =   0.0277778
        k(   32) = (   0.0515689   0.0264329   0.0000000), wk =   0.0277778
        k(   33) = (   0.0515689   0.0440548   0.0000000), wk =   0.0277778
        k(   34) = (   0.0515689   0.0616768   0.0000000), wk =   0.0277778
        k(   35) = (   0.0515689   0.0792987   0.0000000), wk =   0.0277778
        k(   36) = (   0.0515689   0.0969207   0.0000000), wk =   0.0277778
        k(   37) = (   0.0515689   0.1145426   0.0000000), wk =   0.0277778
        k(   38) = (   0.0515689  -0.0792987   0.0000000), wk =   0.0277778
        k(   39) = (   0.0515689  -0.0616768   0.0000000), wk =   0.0277778
        k(   40) = (   0.0515689  -0.0440548   0.0000000), wk =   0.0277778
        k(   41) = (   0.0515689  -0.0264329   0.0000000), wk =   0.0277778
        k(   42) = (   0.0515689  -0.0088110   0.0000000), wk =   0.0277778
        k(   43) = (   0.0515689   0.0088110   0.0000000), wk =   0.0277778
        k(   44) = (   0.0687585   0.0352439   0.0000000), wk =   0.0277778
        k(   45) = (   0.0687585   0.0528658   0.0000000), wk =   0.0277778
        k(   46) = (   0.0687585   0.0704877   0.0000000), wk =   0.0277778
        k(   47) = (   0.0687585   0.0881097   0.0000000), wk =   0.0277778
        k(   48) = (   0.0687585   0.1057316   0.0000000), wk =   0.0277778
        k(   49) = (   0.0687585   0.1233536   0.0000000), wk =   0.0277778
        k(   50) = (   0.0687585  -0.0704878   0.0000000), wk =   0.0277778
        k(   51) = (   0.0687585  -0.0528658   0.0000000), wk =   0.0277778
        k(   52) = (   0.0687585  -0.0352439   0.0000000), wk =   0.0277778
        k(   53) = (   0.0687585  -0.0176219   0.0000000), wk =   0.0277778
        k(   54) = (   0.0687585  -0.0000000   0.0000000), wk =   0.0277778
        k(   55) = (   0.0687585   0.0176219   0.0000000), wk =   0.0277778
        k(   56) = (   0.0859482   0.0440548   0.0000000), wk =   0.0277778
        k(   57) = (   0.0859482   0.0616768   0.0000000), wk =   0.0277778
        k(   58) = (   0.0859482   0.0792987   0.0000000), wk =   0.0277778
        k(   59) = (   0.0859482   0.0969206   0.0000000), wk =   0.0277778
        k(   60) = (   0.0859482   0.1145426   0.0000000), wk =   0.0277778
        k(   61) = (   0.0859482   0.1321645   0.0000000), wk =   0.0277778
        k(   62) = (   0.0859482  -0.0616768   0.0000000), wk =   0.0277778
        k(   63) = (   0.0859482  -0.0440549   0.0000000), wk =   0.0277778
        k(   64) = (   0.0859482  -0.0264329   0.0000000), wk =   0.0277778
        k(   65) = (   0.0859482  -0.0088110   0.0000000), wk =   0.0277778
        k(   66) = (   0.0859482   0.0088110   0.0000000), wk =   0.0277778
        k(   67) = (   0.0859482   0.0264329   0.0000000), wk =   0.0277778
        k(   68) = (  -0.1031378  -0.0528658   0.0000000), wk =   0.0138889
        k(   69) = (  -0.1031378  -0.0352439   0.0000000), wk =   0.0277778
        k(   70) = (  -0.1031378  -0.0176219   0.0000000), wk =   0.0277778
        k(   71) = (  -0.1031378   0.0000000   0.0000000), wk =   0.0277778
        k(   72) = (  -0.1031378   0.0176219   0.0000000), wk =   0.0277778
        k(   73) = (  -0.1031378   0.0352439   0.0000000), wk =   0.0277778
        k(   74) = (  -0.1031378  -0.1585974   0.0000000), wk =   0.0138889

     Initial potential from superposition of free atoms

     starting charge  149.99398, renormalised to  150.00000

     negative rho (up, down):  3.241E-03 0.000E+00

     %%%%%%%%%%%%%%%%%%%%%%%%%%%%%%%%%%%%%%%%%%%%%%%%%%%%%%%%%%%%%%%%%%%%%%%%
     %                                                                      %
     % You are using vdW-DF, which was implemented by the Thonhauser group. %
     % Please cite the following two papers that made this development      %
     % possible and the two reviews that describe the various versions:     %
     %                                                                      %
     %   T. Thonhauser et al., PRL 115, 136402 (2015).                      %
     %   T. Thonhauser et al., PRB 76, 125112 (2007).                       %
     %   K. Berland et al., Rep. Prog. Phys. 78, 066501 (2015).             %
     %   D.C. Langreth et al., J. Phys.: Condens. Matter 21, 084203 (2009). %
     %                                                                      %
     %                                                                      %
     % If you are calculating the stress with vdW-DF, please also cite:     %
     %                                                                      %
     %   R. Sabatini et al., J. Phys.: Condens. Matter 24, 424209 (2012).   %
     %                                                                      %
     %%%%%%%%%%%%%%%%%%%%%%%%%%%%%%%%%%%%%%%%%%%%%%%%%%%%%%%%%%%%%%%%%%%%%%%%

     Adding external electric field

     Computed dipole along edir(3) :
        Dipole               -0.0002 Ry au,         -0.0004 Debye
        Dipole field         -0.0000 Ry au,

        Potential amp.        0.0001 Ry
        Total length         44.5192 bohr

     Starting wfcs are  114 randomized atomic wfcs

     Self-consistent Calculation

     iteration #  1     ecut=    55.12 Ry     beta= 0.10
     Davidson diagonalization with overlap
     ethr =  1.00E-02,  avg # of iterations =  2.1

[...]

     total energy              =   -1796.60726465 Ry
     estimated scf accuracy    <      13.01985037 Ry

[...]

     iteration # 14     ecut=    55.12 Ry     beta= 0.10
     Davidson diagonalization with overlap
     c_bands:  2 eigenvalues not converged
     ethr =  6.66E-06,  avg # of iterations =  4.0

[...]

     total energy              =   -1798.35406646 Ry
     estimated scf accuracy    <       0.00005005 Ry

     iteration # 22     ecut=    55.12 Ry     beta= 0.10
     Davidson diagonalization with overlap
     ethr =  2.23E-08,  avg # of iterations =  1.0

[...]

     Adding external electric field

     Computed dipole along edir(3) :
        Dipole               -0.0282 Ry au,         -0.0717 Debye
        Dipole field         -0.0001 Ry au,

        Potential amp.        0.0084 Ry
        Total length         44.5192 bohr

     End of self-consistent calculation

          k = 0.0000 0.0000 0.0000 ( 25813 PWs)   bands (ev):

   -71.5830 -71.4765 -71.4388 -71.3868 -71.3345 -71.2830 -43.1862 -43.1710
   -43.0740 -42.9615 -42.9358 -42.8653 -42.8078 -42.7811 -42.7277 -42.7265
   -42.6897 -42.6455 -42.6074 -42.4732 -42.4505 -42.3829 -42.2573 -42.2335
    -7.5624  -5.6587  -4.6946  -4.3093  -4.2890  -4.2552  -4.1792  -4.0611
    -3.9737  -3.7946  -3.7144  -3.6604  -3.6355  -3.6054  -3.3284  -3.2236
    -3.1927  -3.0007  -2.8958  -2.7281  -2.6557  -2.6413  -2.3871  -2.3532
    -2.3329  -2.2070  -2.1593  -1.9879  -1.8911  -1.8744  -1.7787  -1.6907
    -1.6491  -1.5261  -1.4157  -1.3969  -1.2045  -1.1368  -1.1108  -1.0177
    -0.9514  -0.7125  -0.3637  -0.3550  -0.3286  -0.0090   0.0555   0.0649
     0.2321   0.5032   0.5914   0.7009   0.8266   1.0690   1.1376   1.2960
     1.3039   1.4220   1.6527   1.7116   1.7220   1.8210   1.8597   1.8770
     1.9214   2.0510

[...]

          k = 0.0859 0.0264 0.0000 ( 25861 PWs)   bands (ev):

[...]

          k =-0.1031-0.0529 0.0000 ( 25884 PWs)   bands (ev):

[...]

          k =-0.1031-0.1586 0.0000 ( 25884 PWs)   bands (ev):

   -71.5301 -71.5299 -71.3873 -71.3866 -71.3352 -71.3351 -43.1231 -43.1228
   -42.8358 -42.8357 -42.8238 -42.8237 -42.7668 -42.7662 -42.6873 -42.6867
   -42.6489 -42.6488 -42.6151 -42.6144 -42.5904 -42.5903 -42.4167 -42.4166
    -5.6535  -5.6534  -4.2494  -4.2491  -3.7791  -3.7791  -3.6742  -3.6742
    -3.5618  -3.5617  -3.4027  -3.4027  -3.3083  -3.3083  -3.1354  -3.1353
    -2.8727  -2.8726  -2.7918  -2.7916  -2.6881  -2.6877  -2.6565  -2.6564
    -2.5642  -2.5636  -2.4995  -2.4995  -2.3907  -2.3902  -2.2537  -2.2536
    -2.1366  -2.1365  -1.6917  -1.6915  -1.2668  -1.2666  -1.1009  -1.1009
    -0.8591  -0.8588  -0.5083  -0.5083  -0.0706  -0.0705  -0.0620  -0.0619
     0.0817   0.0819   0.1797   0.1800   0.2523   0.2525   0.4531   0.4532
     0.4940   0.4941   1.1695   1.1696   1.3754   1.3755   1.5890   1.5891
     2.2944   2.2944

     the Fermi energy is     0.2877 ev

!    total energy              =   -1798.35406777 Ry
     estimated scf accuracy    <       0.00000659 Ry
     smearing contrib. (-TS)   =      -0.07841971 Ry
     internal energy E=F+TS    =   -1798.27564806 Ry

     The total energy is F=E-TS. E is the sum of the following terms:
     one-electron contribution =  -15479.05244377 Ry
     hartree contribution      =    7804.22503222 Ry
     xc contribution           =    -414.08450318 Ry
     ewald contribution        =    6290.63626399 Ry
     electric field correction =       0.00000268 Ry

     convergence has been achieved in  22 iterations

     negative rho (up, down):  3.107E-03 0.000E+00

     Forces acting on atoms (cartesian axes, Ry/au):

     atom    1 type  1   force =     0.00000594    0.00794921    0.02154257
     atom    2 type  1   force =     0.00000471    0.00794348    0.02154316
     atom    3 type  2   force =    -0.00001675   -0.00894150   -0.01927283
     atom    4 type  2   force =     0.00001683   -0.00894752   -0.01927365
     atom    5 type  1   force =     0.00004453   -0.00680880   -0.00063836
     atom    6 type  1   force =     0.00004647   -0.00673065   -0.00052482
     atom    7 type  2   force =    -0.00010343    0.01048317   -0.00374905
     atom    8 type  2   force =     0.00011430    0.01048608   -0.00374723
     atom    9 type  1   force =    -0.00004970   -0.00155087    0.00019232
     atom   10 type  1   force =    -0.00005263   -0.00151300    0.00023564
     atom   11 type  2   force =     0.00011772   -0.00118213    0.00184724
     atom   12 type  2   force =    -0.00012799   -0.00118747    0.00184500

     Total force =     0.048085     Total SCF correction =     0.010583
     SCF correction compared to forces is large: reduce conv_thr to get better values

     Writing output data file ./Cr2Cu2/Cr2Cu2_beef.save/

     General routines

     Parallel routines

   This run was terminated on:  19:15:38  10Jul2022

   JOB DONE.