     Program PWSCF v.6.6 starts on 10Jul2022 at 15:55:23

     R & G space division:  proc/nbgrp/npool/nimage =      37
     Fft bands division:     nmany     =       1
     Reading input from Cr2Cd2.in
Warning: card &CELL ignored
Warning: card / ignored

     Current dimensions of program PWSCF are:
     Max number of different atomic species (ntypx) = 10
     Max number of k-points (npk) =  40000
     Max angular momentum in pseudopotentials (lmaxx) =  3
     Presently stress not available with electric field and gates

     Message from routine cell_base_init:
     DEPRECATED: use true lattice parameter, not A to a.u. conversion factor
     file Cr.pbe-spn-rrkjus_psl.1.0.0.UPF: wavefunction(s)  3P renormalized
     file Cd.pbe-n-rrkjus_psl.1.0.0.UPF: wavefunction(s)  4D renormalized

     IMPORTANT: XC functional enforced from input :
     Exchange-correlation= BEEF-VDW
                           (   1   4  43  14   2   0   0)
     Any further DFT definition will be discarded
     Please, verify this is what you really want

     Subspace diagonalization in iterative solution of the eigenvalue problem:
     a serial algorithm will be used

     bravais-lattice index     =            0
     lattice parameter (alat)  =       1.8897  a.u.
     unit-cell volume          =    4658.0987 (a.u.)^3
     number of atoms/cell      =           12
     number of atomic types    =            2
     number of electrons       =       156.00
     number of Kohn-Sham states=           94
     kinetic-energy cutoff     =      55.1240  Ry
     charge density cutoff     =     551.2396  Ry
     convergence threshold     =      1.0E-05
     mixing beta               =       0.1000
     number of iterations used =           10  plain     mixing
     Exchange-correlation= BEEF-VDW
                           (   1   4  43  14   2   0   0)

     celldm(1)=   1.889726  celldm(2)=   0.000000  celldm(3)=   0.000000
     celldm(4)=   0.000000  celldm(5)=   0.000000  celldm(6)=   0.000000

     crystal axes: (cart. coord. in units of alat)
               a(1) = (   5.411894   0.000000   0.000000 )
               a(2) = (  -2.705947   5.181529   0.000000 )
               a(3) = (   0.000000   0.000000  24.615290 )

     reciprocal axes: (cart. coord. in units 2 pi/alat)
               b(1) = (  0.184778  0.096497 -0.000000 )
               b(2) = (  0.000000  0.192993  0.000000 )
               b(3) = (  0.000000 -0.000000  0.040625 )

     PseudoPot. # 1 for Cr read from file:
     ../pseudo/Cr.pbe-spn-rrkjus_psl.1.0.0.UPF
     MD5 check sum: 793d051e4f89dd1e3290b85340a92c0a
     Pseudo is Ultrasoft + core correction, Zval = 14.0
     Generated using "atomic" code by A. Dal Corso v.6.2.2
     Using radial grid of 1183 points,  6 beta functions with:
                l(1) =   0
                l(2) =   0
                l(3) =   1
                l(4) =   1
                l(5) =   2
                l(6) =   2
     Q(r) pseudized with 0 coefficients

     PseudoPot. # 2 for Cd read from file:
     ../pseudo/Cd.pbe-n-rrkjus_psl.1.0.0.UPF
     MD5 check sum: a744746c89d2344a134ead0d8ab94e7a
     Pseudo is Ultrasoft + core correction, Zval = 12.0
     Generated using "atomic" code by A. Dal Corso v.6.3
     Using radial grid of 1239 points,  6 beta functions with:
                l(1) =   0
                l(2) =   0
                l(3) =   1
                l(4) =   1
                l(5) =   2
                l(6) =   2
     Q(r) pseudized with 0 coefficients

     atomic species   valence    mass     pseudopotential
        Cr            14.00    51.99610     Cr( 1.00)
        Cd            12.00   112.41400     Cd( 1.00)

     No symmetry found

   Cartesian axes

     site n.     atom                  positions (alat units)
         1           Cr  tau(   1) = (   0.0000000   0.0000000  10.0000000  )
         2           Cr  tau(   2) = (   2.7059469   0.0000000  10.0000000  )
         3           Cd  tau(   3) = (   1.3529735   2.5907644  10.0000000  )
         4           Cd  tau(   4) = (  -1.3529735   2.5907644  10.0000000  )
         5           Cr  tau(   5) = (   2.7059469   1.4131252  12.3076451  )
         6           Cr  tau(   6) = (  -0.0000000   1.4131252  12.3076451  )
         7           Cd  tau(   7) = (  -1.3529735   4.0038896  12.3076451  )
         8           Cd  tau(   8) = (   1.3529735   4.0038896  12.3076451  )
         9           Cr  tau(   9) = (  -0.0003283   2.0694951  14.0444254  )
        10           Cr  tau(  10) = (   2.7056106   2.0695235  14.0440975  )
        11           Cd  tau(  11) = (   1.3530948   4.8617103  15.1246822  )
        12           Cd  tau(  12) = (  -1.3537848   4.8616857  15.1247002  )

     number of k points=    74  Fermi-Dirac smearing, width (Ry)=  0.0100
                       cart. coord. in units 2pi/alat
        k(    1) = (   0.0000000   0.0000000   0.0000000), wk =   0.0138889
        k(    2) = (   0.0000000   0.0160828   0.0000000), wk =   0.0277778
        k(    3) = (   0.0000000   0.0321655   0.0000000), wk =   0.0277778
        k(    4) = (   0.0000000   0.0482483   0.0000000), wk =   0.0277778
        k(    5) = (   0.0000000   0.0643311   0.0000000), wk =   0.0277778
        k(    6) = (   0.0000000   0.0804138   0.0000000), wk =   0.0277778
        k(    7) = (   0.0000000  -0.0964966   0.0000000), wk =   0.0138889
        k(    8) = (   0.0153982   0.0080414   0.0000000), wk =   0.0277778
        k(    9) = (   0.0153982   0.0241242   0.0000000), wk =   0.0277778
        k(   10) = (   0.0153982   0.0402069   0.0000000), wk =   0.0277778
        k(   11) = (   0.0153982   0.0562897   0.0000000), wk =   0.0277778
        k(   12) = (   0.0153982   0.0723725   0.0000000), wk =   0.0277778
        k(   13) = (   0.0153982   0.0884552   0.0000000), wk =   0.0277778
        k(   14) = (   0.0153982  -0.0884552   0.0000000), wk =   0.0277778
        k(   15) = (   0.0153982  -0.0723725   0.0000000), wk =   0.0277778
        k(   16) = (   0.0153982  -0.0562897   0.0000000), wk =   0.0277778
        k(   17) = (   0.0153982  -0.0402069   0.0000000), wk =   0.0277778
        k(   18) = (   0.0153982  -0.0241242   0.0000000), wk =   0.0277778
        k(   19) = (   0.0153982  -0.0080414   0.0000000), wk =   0.0277778
        k(   20) = (   0.0307964   0.0160828   0.0000000), wk =   0.0277778
        k(   21) = (   0.0307964   0.0321655   0.0000000), wk =   0.0277778
        k(   22) = (   0.0307964   0.0482483   0.0000000), wk =   0.0277778
        k(   23) = (   0.0307964   0.0643311   0.0000000), wk =   0.0277778
        k(   24) = (   0.0307964   0.0804138   0.0000000), wk =   0.0277778
        k(   25) = (   0.0307964   0.0964966   0.0000000), wk =   0.0277778
        k(   26) = (   0.0307964  -0.0804138   0.0000000), wk =   0.0277778
        k(   27) = (   0.0307964  -0.0643311   0.0000000), wk =   0.0277778
        k(   28) = (   0.0307964  -0.0482483   0.0000000), wk =   0.0277778
        k(   29) = (   0.0307964  -0.0321655   0.0000000), wk =   0.0277778
        k(   30) = (   0.0307964  -0.0160828   0.0000000), wk =   0.0277778
        k(   31) = (   0.0307964  -0.0000000   0.0000000), wk =   0.0277778
        k(   32) = (   0.0461945   0.0241242   0.0000000), wk =   0.0277778
        k(   33) = (   0.0461945   0.0402069   0.0000000), wk =   0.0277778
        k(   34) = (   0.0461945   0.0562897   0.0000000), wk =   0.0277778
        k(   35) = (   0.0461945   0.0723725   0.0000000), wk =   0.0277778
        k(   36) = (   0.0461945   0.0884552   0.0000000), wk =   0.0277778
        k(   37) = (   0.0461945   0.1045380   0.0000000), wk =   0.0277778
        k(   38) = (   0.0461945  -0.0723725   0.0000000), wk =   0.0277778
        k(   39) = (   0.0461945  -0.0562897   0.0000000), wk =   0.0277778
        k(   40) = (   0.0461945  -0.0402069   0.0000000), wk =   0.0277778
        k(   41) = (   0.0461945  -0.0241242   0.0000000), wk =   0.0277778
        k(   42) = (   0.0461945  -0.0080414   0.0000000), wk =   0.0277778
        k(   43) = (   0.0461945   0.0080414   0.0000000), wk =   0.0277778
        k(   44) = (   0.0615927   0.0321655   0.0000000), wk =   0.0277778
        k(   45) = (   0.0615927   0.0482483   0.0000000), wk =   0.0277778
        k(   46) = (   0.0615927   0.0643311   0.0000000), wk =   0.0277778
        k(   47) = (   0.0615927   0.0804138   0.0000000), wk =   0.0277778
        k(   48) = (   0.0615927   0.0964966   0.0000000), wk =   0.0277778
        k(   49) = (   0.0615927   0.1125794   0.0000000), wk =   0.0277778
        k(   50) = (   0.0615927  -0.0643311   0.0000000), wk =   0.0277778
        k(   51) = (   0.0615927  -0.0482483   0.0000000), wk =   0.0277778
        k(   52) = (   0.0615927  -0.0321655   0.0000000), wk =   0.0277778
        k(   53) = (   0.0615927  -0.0160828   0.0000000), wk =   0.0277778
        k(   54) = (   0.0615927   0.0000000   0.0000000), wk =   0.0277778
        k(   55) = (   0.0615927   0.0160828   0.0000000), wk =   0.0277778
        k(   56) = (   0.0769909   0.0402069   0.0000000), wk =   0.0277778
        k(   57) = (   0.0769909   0.0562897   0.0000000), wk =   0.0277778
        k(   58) = (   0.0769909   0.0723725   0.0000000), wk =   0.0277778
        k(   59) = (   0.0769909   0.0884552   0.0000000), wk =   0.0277778
        k(   60) = (   0.0769909   0.1045380   0.0000000), wk =   0.0277778
        k(   61) = (   0.0769909   0.1206208   0.0000000), wk =   0.0277778
        k(   62) = (   0.0769909  -0.0562897   0.0000000), wk =   0.0277778
        k(   63) = (   0.0769909  -0.0402069   0.0000000), wk =   0.0277778
        k(   64) = (   0.0769909  -0.0241242   0.0000000), wk =   0.0277778
        k(   65) = (   0.0769909  -0.0080414   0.0000000), wk =   0.0277778
        k(   66) = (   0.0769909   0.0080414   0.0000000), wk =   0.0277778
        k(   67) = (   0.0769909   0.0241242   0.0000000), wk =   0.0277778
        k(   68) = (  -0.0923891  -0.0482483   0.0000000), wk =   0.0138889
        k(   69) = (  -0.0923891  -0.0321655   0.0000000), wk =   0.0277778
        k(   70) = (  -0.0923891  -0.0160828   0.0000000), wk =   0.0277778
        k(   71) = (  -0.0923891   0.0000000   0.0000000), wk =   0.0277778
        k(   72) = (  -0.0923891   0.0160828   0.0000000), wk =   0.0277778
        k(   73) = (  -0.0923891   0.0321655   0.0000000), wk =   0.0277778
        k(   74) = (  -0.0923891  -0.1447449   0.0000000), wk =   0.0138889

     Initial potential from superposition of free atoms

     starting charge  155.96606, renormalised to  156.00000

     negative rho (up, down):  4.094E-03 0.000E+00

     %%%%%%%%%%%%%%%%%%%%%%%%%%%%%%%%%%%%%%%%%%%%%%%%%%%%%%%%%%%%%%%%%%%%%%%%
     %                                                                      %
     % You are using vdW-DF, which was implemented by the Thonhauser group. %
     % Please cite the following two papers that made this development      %
     % possible and the two reviews that describe the various versions:     %
     %                                                                      %
     %   T. Thonhauser et al., PRL 115, 136402 (2015).                      %
     %   T. Thonhauser et al., PRB 76, 125112 (2007).                       %
     %   K. Berland et al., Rep. Prog. Phys. 78, 066501 (2015).             %
     %   D.C. Langreth et al., J. Phys.: Condens. Matter 21, 084203 (2009). %
     %                                                                      %
     %                                                                      %
     % If you are calculating the stress with vdW-DF, please also cite:     %
     %                                                                      %
     %   R. Sabatini et al., J. Phys.: Condens. Matter 24, 424209 (2012).   %
     %                                                                      %
     %%%%%%%%%%%%%%%%%%%%%%%%%%%%%%%%%%%%%%%%%%%%%%%%%%%%%%%%%%%%%%%%%%%%%%%%

     Adding external electric field

     Computed dipole along edir(3) :
        Dipole                0.0093 Ry au,          0.0236 Debye
        Dipole field          0.0000 Ry au,

        Potential amp.       -0.0023 Ry
        Total length         45.3532 bohr

     Starting wfcs are  114 randomized atomic wfcs

     Self-consistent Calculation

     iteration #  1     ecut=    55.12 Ry     beta= 0.10
     Davidson diagonalization with overlap
     ethr =  1.00E-02,  avg # of iterations =  2.2

[...]

     total energy              =   -1658.89441393 Ry
     estimated scf accuracy    <      17.43052978 Ry

[...]

     iteration # 13     ecut=    55.12 Ry     beta= 0.10
     Davidson diagonalization with overlap
     c_bands:  2 eigenvalues not converged
     c_bands:  1 eigenvalues not converged
     c_bands:  1 eigenvalues not converged
     c_bands:  1 eigenvalues not converged
     c_bands:  1 eigenvalues not converged
     c_bands:  1 eigenvalues not converged
     c_bands:  1 eigenvalues not converged
     c_bands:  2 eigenvalues not converged
     c_bands:  1 eigenvalues not converged
     c_bands:  1 eigenvalues not converged
     c_bands:  2 eigenvalues not converged
     c_bands:  2 eigenvalues not converged
     c_bands:  1 eigenvalues not converged
     c_bands:  1 eigenvalues not converged
     c_bands:  2 eigenvalues not converged
     c_bands:  4 eigenvalues not converged
     c_bands:  3 eigenvalues not converged
     c_bands:  2 eigenvalues not converged
     c_bands:  1 eigenvalues not converged
     c_bands:  1 eigenvalues not converged
     c_bands:  1 eigenvalues not converged
     c_bands:  1 eigenvalues not converged
     c_bands:  1 eigenvalues not converged
     c_bands:  1 eigenvalues not converged
     c_bands:  2 eigenvalues not converged
     c_bands:  3 eigenvalues not converged
     c_bands:  3 eigenvalues not converged
     c_bands:  3 eigenvalues not converged
     c_bands:  1 eigenvalues not converged
     c_bands:  2 eigenvalues not converged
     c_bands:  2 eigenvalues not converged
     c_bands:  1 eigenvalues not converged
     c_bands:  2 eigenvalues not converged
     c_bands:  2 eigenvalues not converged
     c_bands:  1 eigenvalues not converged
     c_bands:  2 eigenvalues not converged
     c_bands:  2 eigenvalues not converged
     ethr =  4.20E-06,  avg # of iterations = 19.1

[...]

     iteration # 15     ecut=    55.12 Ry     beta= 0.10
     Davidson diagonalization with overlap
     c_bands:  1 eigenvalues not converged
     ethr =  7.75E-07,  avg # of iterations =  5.9

[...]

     total energy              =   -1661.34541537 Ry
     estimated scf accuracy    <       0.00023581 Ry

     iteration # 22     ecut=    55.12 Ry     beta= 0.10
     Davidson diagonalization with overlap
     ethr =  6.77E-08,  avg # of iterations =  2.0

[...]

     Adding external electric field

     Computed dipole along edir(3) :
        Dipole                0.0902 Ry au,          0.2294 Debye
        Dipole field          0.0002 Ry au,

        Potential amp.       -0.0221 Ry
        Total length         45.3532 bohr

     End of self-consistent calculation

          k = 0.0000 0.0000 0.0000 ( 32111 PWs)   bands (ev):

   -71.0945 -71.0633 -70.7615 -70.7324 -70.3667 -70.3390 -43.5050 -43.4720
   -42.2811 -42.2600 -42.2507 -42.1494 -42.1375 -42.1112 -42.0252 -41.9981
   -41.9781 -41.8943 -41.8583 -41.8336 -41.8196 -41.5798 -40.8247 -40.8052
    -9.4215  -9.1094  -9.0617  -9.0393  -8.9206  -8.7091  -8.6312  -8.5592
    -8.5363  -8.4524  -8.4213  -8.3641  -8.1904  -7.9896  -7.9795  -7.8571
    -7.8511  -7.8043  -7.7914  -7.7654  -7.7461  -7.7318  -7.6378  -7.5109
    -7.4334  -7.4259  -7.3976  -7.3414  -7.1797  -7.0180  -6.9151  -5.1278
    -2.9896  -2.3005  -1.9290  -1.8005  -1.5377  -1.3504  -1.0814  -1.0200
    -0.9618  -0.9407  -0.6856  -0.5701  -0.1525  -0.0358   0.0148   0.0370
     0.2755   0.5776   0.5892   0.8617   1.0253   1.0455   1.0648   1.1670
     1.3267   1.3481   1.4253   1.5145   1.5587   1.7919   1.8868   1.8940
     2.2468   2.2551   2.5588   2.9904   3.3868   3.4977

[...]

          k = 0.0770 0.0241 0.0000 ( 32204 PWs)   bands (ev):

[...]

          k =-0.0924-0.0482 0.0000 ( 32146 PWs)   bands (ev):

[...]

          k =-0.0924-0.1447 0.0000 ( 32146 PWs)   bands (ev):

   -71.0796 -71.0782 -70.7471 -70.7470 -70.3531 -70.3526 -43.4898 -43.4873
   -42.2665 -42.2657 -42.1246 -42.1246 -42.1205 -42.1194 -42.0228 -42.0227
   -42.0119 -42.0117 -41.8462 -41.8458 -41.7008 -41.7001 -40.8150 -40.8147
    -8.7705  -8.7704  -8.5665  -8.5664  -8.4808  -8.4808  -8.3682  -8.3682
    -8.3483  -8.3482  -8.1027  -8.1004  -8.0427  -8.0414  -8.0109  -8.0107
    -7.9796  -7.9785  -7.9535  -7.9521  -7.8840  -7.8834  -7.8648  -7.8644
    -7.7827  -7.7821  -7.6918  -7.6916  -7.6441  -7.6440  -5.3207  -5.3203
    -3.6281  -3.6269  -2.3510  -2.3504  -1.7726  -1.7720  -1.3920  -1.3917
    -0.9544  -0.9540  -0.6514  -0.6508  -0.2323  -0.2319   0.0226   0.0228
     0.3770   0.3771   0.6017   0.6018   0.6600   0.6603   0.8901   0.8902
     1.1255   1.1257   1.3574   1.3574   1.6913   1.6916   1.8998   1.8999
     2.4021   2.4023   2.7504   2.7505   3.2254   3.2260

     the Fermi energy is     0.8706 ev

!    total energy              =   -1661.34543487 Ry
     estimated scf accuracy    <       0.00000750 Ry
     smearing contrib. (-TS)   =      -0.08462806 Ry
     internal energy E=F+TS    =   -1661.26080681 Ry

     The total energy is F=E-TS. E is the sum of the following terms:
     one-electron contribution =  -13239.36790690 Ry
     hartree contribution      =    6655.97486293 Ry
     xc contribution           =    -281.69874509 Ry
     ewald contribution        =    5203.83096028 Ry
     electric field correction =       0.00002197 Ry

     convergence has been achieved in  22 iterations

     negative rho (up, down):  4.292E-03 0.000E+00

     Forces acting on atoms (cartesian axes, Ry/au):

     atom    1 type  1   force =    -0.00001715    0.01011526    0.03352191
     atom    2 type  1   force =    -0.00002405    0.01007032    0.03360332
     atom    3 type  2   force =     0.00002223   -0.01891045   -0.05639684
     atom    4 type  2   force =    -0.00003821   -0.01890495   -0.05638684
     atom    5 type  1   force =     0.00002146   -0.01552937    0.00373379
     atom    6 type  1   force =     0.00002507   -0.01573954    0.00322078
     atom    7 type  2   force =     0.00008570    0.02367478    0.01996230
     atom    8 type  2   force =    -0.00008988    0.02370335    0.01993761
     atom    9 type  1   force =     0.00001048   -0.00029688   -0.00071851
     atom   10 type  1   force =     0.00000880   -0.00003766    0.00008172
     atom   11 type  2   force =    -0.00032006    0.00092061   -0.00030538
     atom   12 type  2   force =     0.00031563    0.00093455   -0.00025386

     Total force =     0.109389     Total SCF correction =     0.008541

     Writing output data file ./Cr2Cd2/Cr2Cd2_beef.save/

     General routines

     Parallel routines

   This run was terminated on:  17: 2:28  10Jul2022

   JOB DONE.