     Program PWSCF v.6.6 starts on 27Jun2022 at 22:34:29

     R & G space division:  proc/nbgrp/npool/nimage =      37
     Fft bands division:     nmany     =       1
     Reading input from Cr2Fe2.in
Warning: card &CELL ignored
Warning: card / ignored

     Current dimensions of program PWSCF are:
     Max number of different atomic species (ntypx) = 10
     Max number of k-points (npk) =  40000
     Max angular momentum in pseudopotentials (lmaxx) =  3
     Presently stress not available with electric field and gates

     Message from routine cell_base_init:
     DEPRECATED: use true lattice parameter, not A to a.u. conversion factor
     file Cr.pbe-spn-rrkjus_psl.1.0.0.UPF: wavefunction(s)  3P renormalized
     file Fe.pbe-n-rrkjus_psl.1.0.0.UPF: wavefunction(s)  3D renormalized

     IMPORTANT: XC functional enforced from input :
     Exchange-correlation= BEEF-VDW
                           (   1   4  43  14   2   0   0)
     Any further DFT definition will be discarded
     Please, verify this is what you really want

     Subspace diagonalization in iterative solution of the eigenvalue problem:
     a serial algorithm will be used

     bravais-lattice index     =            0
     lattice parameter (alat)  =       1.8897  a.u.
     unit-cell volume          =    3515.5157 (a.u.)^3
     number of atoms/cell      =           12
     number of atomic types    =            2
     number of electrons       =       132.00
     number of Kohn-Sham states=           79
     kinetic-energy cutoff     =      55.1240  Ry
     charge density cutoff     =     551.2396  Ry
     convergence threshold     =      1.0E-05
     mixing beta               =       0.1000
     number of iterations used =           10  plain     mixing
     Exchange-correlation= BEEF-VDW
                           (   1   4  43  14   2   0   0)

     celldm(1)=   1.889726  celldm(2)=   0.000000  celldm(3)=   0.000000
     celldm(4)=   0.000000  celldm(5)=   0.000000  celldm(6)=   0.000000

     crystal axes: (cart. coord. in units of alat)
               a(1) = (   4.978214   0.000000   0.000000 )
               a(2) = (   2.428458   4.345711   0.000000 )
               a(3) = (   0.000000   0.000000  24.080091 )

     reciprocal axes: (cart. coord. in units 2 pi/alat)
               b(1) = (  0.200875 -0.112253  0.000000 )
               b(2) = (  0.000000  0.230112  0.000000 )
               b(3) = (  0.000000  0.000000  0.041528 )

     PseudoPot. # 1 for Cr read from file:
     ../pseudo/Cr.pbe-spn-rrkjus_psl.1.0.0.UPF
     MD5 check sum: 793d051e4f89dd1e3290b85340a92c0a
     Pseudo is Ultrasoft + core correction, Zval = 14.0
     Generated using "atomic" code by A. Dal Corso v.6.2.2
     Using radial grid of 1183 points,  6 beta functions with:
                l(1) =   0
                l(2) =   0
                l(3) =   1
                l(4) =   1
                l(5) =   2
                l(6) =   2
     Q(r) pseudized with 0 coefficients

     PseudoPot. # 2 for Fe read from file:
     ../pseudo/Fe.pbe-n-rrkjus_psl.1.0.0.UPF
     MD5 check sum: e37eda618788e2416bb099156d582190
     Pseudo is Ultrasoft + core correction, Zval =  8.0
     Generated using "atomic" code by A. Dal Corso v.6.5
     Using radial grid of 1191 points,  6 beta functions with:
                l(1) =   0
                l(2) =   0
                l(3) =   1
                l(4) =   1
                l(5) =   2
                l(6) =   2
     Q(r) pseudized with 0 coefficients

     atomic species   valence    mass     pseudopotential
        Cr            14.00    51.99610     Cr( 1.00)
        Fe             8.00    55.84500     Fe( 1.00)

     Starting magnetic structure
     atomic species   magnetization
        Cr           0.000
        Fe           0.750

     No symmetry found

   Cartesian axes

     site n.     atom                  positions (alat units)
         1           Cr  tau(   1) = (   0.0000000   0.0000000  10.0000000  )
         2           Cr  tau(   2) = (   3.7033357   2.1728556  10.0000000  )
         3           Fe  tau(   3) = (   2.4891069   0.0000000  10.0000000  )
         4           Fe  tau(   4) = (   1.2142288   2.1728556  10.0000000  )
         5           Cr  tau(   5) = (   4.9782138   2.9208640  12.0400454  )
         6           Cr  tau(   6) = (   1.2748781   0.7480084  12.0400454  )
         7           Fe  tau(   7) = (   2.4891069   2.9208640  12.0400454  )
         8           Fe  tau(   8) = (   3.7639850   0.7480084  12.0400454  )
         9           Cr  tau(   9) = (   2.5474688   1.4946561  14.0606836  )
        10           Cr  tau(  10) = (   6.2507354   3.6675079  14.0606622  )
        11           Fe  tau(  11) = (   5.0383381   1.4957125  14.1136164  )
        12           Fe  tau(  12) = (   3.7633334   3.6684866  14.1134026  )

     number of k points=    74  Fermi-Dirac smearing, width (Ry)=  0.0100
                       cart. coord. in units 2pi/alat
        k(    1) = (   0.0000000   0.0000000   0.0000000), wk =   0.0069444
        k(    2) = (   0.0000000   0.0191760   0.0000000), wk =   0.0138889
        k(    3) = (   0.0000000   0.0383520   0.0000000), wk =   0.0138889
        k(    4) = (   0.0000000   0.0575280   0.0000000), wk =   0.0138889
        k(    5) = (   0.0000000   0.0767040   0.0000000), wk =   0.0138889
        k(    6) = (   0.0000000   0.0958800   0.0000000), wk =   0.0138889
        k(    7) = (   0.0000000  -0.1150560   0.0000000), wk =   0.0069444
        k(    8) = (   0.0167396  -0.0093544   0.0000000), wk =   0.0138889
        k(    9) = (   0.0167396   0.0098216   0.0000000), wk =   0.0138889
        k(   10) = (   0.0167396   0.0289976   0.0000000), wk =   0.0138889
        k(   11) = (   0.0167396   0.0481736   0.0000000), wk =   0.0138889
        k(   12) = (   0.0167396   0.0673496   0.0000000), wk =   0.0138889
        k(   13) = (   0.0167396   0.0865256   0.0000000), wk =   0.0138889
        k(   14) = (   0.0167396  -0.1244103   0.0000000), wk =   0.0138889
        k(   15) = (   0.0167396  -0.1052344   0.0000000), wk =   0.0138889
        k(   16) = (   0.0167396  -0.0860584   0.0000000), wk =   0.0138889
        k(   17) = (   0.0167396  -0.0668824   0.0000000), wk =   0.0138889
        k(   18) = (   0.0167396  -0.0477064   0.0000000), wk =   0.0138889
        k(   19) = (   0.0167396  -0.0285304   0.0000000), wk =   0.0138889
        k(   20) = (   0.0334792  -0.0187088   0.0000000), wk =   0.0138889
        k(   21) = (   0.0334792   0.0004672   0.0000000), wk =   0.0138889
        k(   22) = (   0.0334792   0.0196432   0.0000000), wk =   0.0138889
        k(   23) = (   0.0334792   0.0388192   0.0000000), wk =   0.0138889
        k(   24) = (   0.0334792   0.0579952   0.0000000), wk =   0.0138889
        k(   25) = (   0.0334792   0.0771712   0.0000000), wk =   0.0138889
        k(   26) = (   0.0334792  -0.1337647   0.0000000), wk =   0.0138889
        k(   27) = (   0.0334792  -0.1145887   0.0000000), wk =   0.0138889
        k(   28) = (   0.0334792  -0.0954127   0.0000000), wk =   0.0138889
        k(   29) = (   0.0334792  -0.0762367   0.0000000), wk =   0.0138889
        k(   30) = (   0.0334792  -0.0570607   0.0000000), wk =   0.0138889
        k(   31) = (   0.0334792  -0.0378848   0.0000000), wk =   0.0138889
        k(   32) = (   0.0502188  -0.0280631   0.0000000), wk =   0.0138889
        k(   33) = (   0.0502188  -0.0088871   0.0000000), wk =   0.0138889
        k(   34) = (   0.0502188   0.0102889   0.0000000), wk =   0.0138889
        k(   35) = (   0.0502188   0.0294648   0.0000000), wk =   0.0138889
        k(   36) = (   0.0502188   0.0486408   0.0000000), wk =   0.0138889
        k(   37) = (   0.0502188   0.0678168   0.0000000), wk =   0.0138889
        k(   38) = (   0.0502188  -0.1431191   0.0000000), wk =   0.0138889
        k(   39) = (   0.0502188  -0.1239431   0.0000000), wk =   0.0138889
        k(   40) = (   0.0502188  -0.1047671   0.0000000), wk =   0.0138889
        k(   41) = (   0.0502188  -0.0855911   0.0000000), wk =   0.0138889
        k(   42) = (   0.0502188  -0.0664151   0.0000000), wk =   0.0138889
        k(   43) = (   0.0502188  -0.0472391   0.0000000), wk =   0.0138889
        k(   44) = (   0.0669584  -0.0374175   0.0000000), wk =   0.0138889
        k(   45) = (   0.0669584  -0.0182415   0.0000000), wk =   0.0138889
        k(   46) = (   0.0669584   0.0009345   0.0000000), wk =   0.0138889
        k(   47) = (   0.0669584   0.0201105   0.0000000), wk =   0.0138889
        k(   48) = (   0.0669584   0.0392865   0.0000000), wk =   0.0138889
        k(   49) = (   0.0669584   0.0584625   0.0000000), wk =   0.0138889
        k(   50) = (   0.0669584  -0.1524735   0.0000000), wk =   0.0138889
        k(   51) = (   0.0669584  -0.1332975   0.0000000), wk =   0.0138889
        k(   52) = (   0.0669584  -0.1141215   0.0000000), wk =   0.0138889
        k(   53) = (   0.0669584  -0.0949455   0.0000000), wk =   0.0138889
        k(   54) = (   0.0669584  -0.0757695   0.0000000), wk =   0.0138889
        k(   55) = (   0.0669584  -0.0565935   0.0000000), wk =   0.0138889
        k(   56) = (   0.0836980  -0.0467719   0.0000000), wk =   0.0138889
        k(   57) = (   0.0836980  -0.0275959   0.0000000), wk =   0.0138889
        k(   58) = (   0.0836980  -0.0084199   0.0000000), wk =   0.0138889
        k(   59) = (   0.0836980   0.0107561   0.0000000), wk =   0.0138889
        k(   60) = (   0.0836980   0.0299321   0.0000000), wk =   0.0138889
        k(   61) = (   0.0836980   0.0491081   0.0000000), wk =   0.0138889
        k(   62) = (   0.0836980  -0.1618279   0.0000000), wk =   0.0138889
        k(   63) = (   0.0836980  -0.1426519   0.0000000), wk =   0.0138889
        k(   64) = (   0.0836980  -0.1234759   0.0000000), wk =   0.0138889
        k(   65) = (   0.0836980  -0.1042999   0.0000000), wk =   0.0138889
        k(   66) = (   0.0836980  -0.0851239   0.0000000), wk =   0.0138889
        k(   67) = (   0.0836980  -0.0659479   0.0000000), wk =   0.0138889
        k(   68) = (  -0.1004376   0.0561263   0.0000000), wk =   0.0069444
        k(   69) = (  -0.1004376   0.0753023   0.0000000), wk =   0.0138889
        k(   70) = (  -0.1004376   0.0944783   0.0000000), wk =   0.0138889
        k(   71) = (  -0.1004376   0.1136543   0.0000000), wk =   0.0138889
        k(   72) = (  -0.1004376   0.1328303   0.0000000), wk =   0.0138889
        k(   73) = (  -0.1004376   0.1520062   0.0000000), wk =   0.0138889
        k(   74) = (  -0.1004376  -0.0589297   0.0000000), wk =   0.0069444

     Initial potential from superposition of free atoms

     starting charge  131.99222, renormalised to  132.00000

     %%%%%%%%%%%%%%%%%%%%%%%%%%%%%%%%%%%%%%%%%%%%%%%%%%%%%%%%%%%%%%%%%%%%%%%%
     %                                                                      %
     % You are using vdW-DF, which was implemented by the Thonhauser group. %
     % Please cite the following two papers that made this development      %
     % possible and the two reviews that describe the various versions:     %
     %                                                                      %
     %   T. Thonhauser et al., PRL 115, 136402 (2015).                      %
     %   T. Thonhauser et al., PRB 76, 125112 (2007).                       %
     %   K. Berland et al., Rep. Prog. Phys. 78, 066501 (2015).             %
     %   D.C. Langreth et al., J. Phys.: Condens. Matter 21, 084203 (2009). %
     %                                                                      %
     %                                                                      %
     % If you are calculating the stress with vdW-DF, please also cite:     %
     %                                                                      %
     %   R. Sabatini et al., J. Phys.: Condens. Matter 24, 424209 (2012).   %
     %                                                                      %
     %%%%%%%%%%%%%%%%%%%%%%%%%%%%%%%%%%%%%%%%%%%%%%%%%%%%%%%%%%%%%%%%%%%%%%%%

     Adding external electric field

     Computed dipole along edir(3) :
        Dipole                0.0000 Ry au,          0.0000 Debye
        Dipole field          0.0000 Ry au,

        Potential amp.       -0.0000 Ry
        Total length         44.3672 bohr

[...]

     Starting wfcs are  114 randomized atomic wfcs

     Self-consistent Calculation

     iteration #  1     ecut=    55.12 Ry     beta= 0.10
     Davidson diagonalization with overlap
     ethr =  1.00E-02,  avg # of iterations =  2.0

[...]

     total energy              =   -1426.33114887 Ry
     estimated scf accuracy    <      14.31469175 Ry

     total magnetization       =    21.35 Bohr mag/cell
     absolute magnetization    =    24.55 Bohr mag/cell

[...]

     iteration # 14     ecut=    55.12 Ry     beta= 0.10
     Davidson diagonalization with overlap
     c_bands:  4 eigenvalues not converged
     c_bands:  2 eigenvalues not converged
     c_bands:  1 eigenvalues not converged
     c_bands:  1 eigenvalues not converged
     c_bands:  1 eigenvalues not converged
     c_bands:  1 eigenvalues not converged
     ethr =  3.46E-05,  avg # of iterations =  5.5

[...]

     iteration # 51     ecut=    55.12 Ry     beta= 0.10
     Davidson diagonalization with overlap
     c_bands:  1 eigenvalues not converged
     ethr =  1.34E-08,  avg # of iterations =  8.6

[...]

     total energy              =   -1429.14910475 Ry
     estimated scf accuracy    <       0.00001610 Ry

[...]

     iteration # 59     ecut=    55.12 Ry     beta= 0.10
     Davidson diagonalization with overlap
     ethr =  9.03E-09,  avg # of iterations =  5.2

[...]

     Adding external electric field

     Computed dipole along edir(3) :
        Dipole               -0.0119 Ry au,         -0.0303 Debye
        Dipole field         -0.0000 Ry au,

        Potential amp.        0.0038 Ry
        Total length         44.3672 bohr

     Magnetic moment per site:
     atom:    1    charge:   12.1823    magn:   -1.7592    constr:    0.0000
     atom:    2    charge:   12.1821    magn:   -1.7591    constr:    0.0000
     atom:    3    charge:    6.5129    magn:    1.9808    constr:    0.0000
     atom:    4    charge:    6.5129    magn:    1.9808    constr:    0.0000
     atom:    5    charge:   12.2562    magn:   -0.1055    constr:    0.0000
     atom:    6    charge:   12.2565    magn:   -0.1053    constr:    0.0000
     atom:    7    charge:    6.6348    magn:    0.9794    constr:    0.0000
     atom:    8    charge:    6.6349    magn:    0.9795    constr:    0.0000
     atom:    9    charge:   12.1887    magn:   -1.6932    constr:    0.0000
     atom:   10    charge:   12.1888    magn:   -1.6929    constr:    0.0000
     atom:   11    charge:    6.4991    magn:    2.0469    constr:    0.0000
     atom:   12    charge:    6.4992    magn:    2.0466    constr:    0.0000

     End of self-consistent calculation

     Number of k-points >= 100: set verbosity='high' to print the bands.

     the Fermi energy is     0.6277 ev

!    total energy              =   -1428.53084294 Ry
     estimated scf accuracy    <       0.00000838 Ry
     smearing contrib. (-TS)   =      -0.08248384 Ry
     internal energy E=F+TS    =   -1428.44835911 Ry

     The total energy is F=E-TS. E is the sum of the following terms:
     one-electron contribution =  -12615.92883823 Ry
     hartree contribution      =    6344.56588958 Ry
     xc contribution           =    -331.10792302 Ry
     ewald contribution        =    5174.02251205 Ry
     electric field correction =       0.00000051 Ry

     total magnetization       =     1.87 Bohr mag/cell
     absolute magnetization    =    19.19 Bohr mag/cell

     convergence has been achieved in  59 iterations

     Forces acting on atoms (cartesian axes, Ry/au):

     atom    1 type  1   force =     0.00083855    0.00053059    0.00182665
     atom    2 type  1   force =     0.00085517    0.00046611    0.00180441
     atom    3 type  2   force =    -0.00020709   -0.00014517   -0.00531739
     atom    4 type  2   force =    -0.00019049   -0.00008690   -0.00531702
     atom    5 type  1   force =    -0.00173990   -0.00104027    0.00313859
     atom    6 type  1   force =    -0.00177877   -0.00102939    0.00311255
     atom    7 type  2   force =     0.00168432    0.00095973   -0.00174536
     atom    8 type  2   force =     0.00166843    0.00100700   -0.00172591
     atom    9 type  1   force =    -0.00049056   -0.00032802    0.00290155
     atom   10 type  1   force =    -0.00049677   -0.00025003    0.00292702
     atom   11 type  2   force =    -0.00007960   -0.00002806   -0.00082198
     atom   12 type  2   force =    -0.00006328   -0.00005558   -0.00078311

     Total force =     0.011206     Total SCF correction =     0.007532
     SCF correction compared to forces is large: reduce conv_thr to get better values

     Writing output data file ./Cr2Fe2/Cr2Fe2_beef.save/

     General routines

     Parallel routines

   This run was terminated on:   2:30:43  28Jun2022

   JOB DONE.