     Program PWSCF v.6.6 starts on 10Jul2022 at 15:18: 1

     R & G space division:  proc/nbgrp/npool/nimage =      37
     Fft bands division:     nmany     =       1
     Reading input from Cr2Hg2.in
Warning: card &CELL ignored
Warning: card / ignored

     Current dimensions of program PWSCF are:
     Max number of different atomic species (ntypx) = 10
     Max number of k-points (npk) =  40000
     Max angular momentum in pseudopotentials (lmaxx) =  3
     Presently stress not available with electric field and gates

     Message from routine cell_base_init:
     DEPRECATED: use true lattice parameter, not A to a.u. conversion factor
     file Cr.pbe-spn-rrkjus_psl.1.0.0.UPF: wavefunction(s)  3P renormalized
     file Hg.pbe-n-rrkjus_psl.1.0.0.UPF: wavefunction(s)  6S renormalized

     IMPORTANT: XC functional enforced from input :
     Exchange-correlation= BEEF-VDW
                           (   1   4  43  14   2   0   0)
     Any further DFT definition will be discarded
     Please, verify this is what you really want

     Subspace diagonalization in iterative solution of the eigenvalue problem:
     a serial algorithm will be used

     bravais-lattice index     =            0
     lattice parameter (alat)  =       1.8897  a.u.
     unit-cell volume          =    4737.4869 (a.u.)^3
     number of atoms/cell      =           12
     number of atomic types    =            2
     number of electrons       =       156.00
     number of Kohn-Sham states=           94
     kinetic-energy cutoff     =      55.1240  Ry
     charge density cutoff     =     551.2396  Ry
     convergence threshold     =      1.0E-05
     mixing beta               =       0.1000
     number of iterations used =           10  plain     mixing
     Exchange-correlation= BEEF-VDW
                           (   1   4  43  14   2   0   0)

     celldm(1)=   1.889726  celldm(2)=   0.000000  celldm(3)=   0.000000
     celldm(4)=   0.000000  celldm(5)=   0.000000  celldm(6)=   0.000000

     crystal axes: (cart. coord. in units of alat)
               a(1) = (   5.627128   0.000000   0.000000 )
               a(2) = (  -2.813564   5.055937   0.000000 )
               a(3) = (   0.000000   0.000000  24.675335 )

     reciprocal axes: (cart. coord. in units 2 pi/alat)
               b(1) = (  0.177711  0.098894 -0.000000 )
               b(2) = (  0.000000  0.197787  0.000000 )
               b(3) = (  0.000000 -0.000000  0.040526 )

     PseudoPot. # 1 for Cr read from file:
     ../pseudo/Cr.pbe-spn-rrkjus_psl.1.0.0.UPF
     MD5 check sum: 793d051e4f89dd1e3290b85340a92c0a
     Pseudo is Ultrasoft + core correction, Zval = 14.0
     Generated using "atomic" code by A. Dal Corso v.6.2.2
     Using radial grid of 1183 points,  6 beta functions with:
                l(1) =   0
                l(2) =   0
                l(3) =   1
                l(4) =   1
                l(5) =   2
                l(6) =   2
     Q(r) pseudized with 0 coefficients

     PseudoPot. # 2 for Hg read from file:
     ../pseudo/Hg.pbe-n-rrkjus_psl.1.0.0.UPF
     MD5 check sum: 7519ac2e5b9cac440d3cfd4127d6ea3c
     Pseudo is Ultrasoft + core correction, Zval = 12.0
     Generated using "atomic" code by A. Dal Corso v.6.3
     Using radial grid of 1279 points,  6 beta functions with:
                l(1) =   0
                l(2) =   0
                l(3) =   1
                l(4) =   1
                l(5) =   2
                l(6) =   2
     Q(r) pseudized with 0 coefficients

     atomic species   valence    mass     pseudopotential
        Cr            14.00    51.99610     Cr( 1.00)
        Hg            12.00   200.59200     Hg( 1.00)

     No symmetry found

   Cartesian axes

     site n.     atom                  positions (alat units)
         1           Cr  tau(   1) = (   0.0000000   0.0000000  10.0000000  )
         2           Cr  tau(   2) = (   2.8135642   0.0000000  10.0000000  )
         3           Hg  tau(   3) = (   1.4067821   2.5279687  10.0000000  )
         4           Hg  tau(   4) = (  -1.4067821   2.5279687  10.0000000  )
         5           Cr  tau(   5) = (   2.8135642   1.5657123  12.3376673  )
         6           Cr  tau(   6) = (  -0.0000000   1.5657123  12.3376673  )
         7           Hg  tau(   7) = (  -1.4067821   4.0936810  12.3376673  )
         8           Hg  tau(   8) = (   1.4067821   4.0936810  12.3376673  )
         9           Cr  tau(   9) = (  -0.0000073   2.1840069  14.0063574  )
        10           Cr  tau(  10) = (   2.8135644   2.1838603  14.0053516  )
        11           Hg  tau(  11) = (   1.4081797   5.0497020  15.3861647  )
        12           Hg  tau(  12) = (  -1.4081903   5.0497206  15.3861669  )

     number of k points=    74  Fermi-Dirac smearing, width (Ry)=  0.0100
                       cart. coord. in units 2pi/alat
        k(    1) = (   0.0000000   0.0000000   0.0000000), wk =   0.0138889
        k(    2) = (   0.0000000   0.0164823   0.0000000), wk =   0.0277778
        k(    3) = (   0.0000000   0.0329645   0.0000000), wk =   0.0277778
        k(    4) = (   0.0000000   0.0494468   0.0000000), wk =   0.0277778
        k(    5) = (   0.0000000   0.0659291   0.0000000), wk =   0.0277778
        k(    6) = (   0.0000000   0.0824114   0.0000000), wk =   0.0277778
        k(    7) = (   0.0000000  -0.0988936   0.0000000), wk =   0.0138889
        k(    8) = (   0.0148092   0.0082411   0.0000000), wk =   0.0277778
        k(    9) = (   0.0148092   0.0247234   0.0000000), wk =   0.0277778
        k(   10) = (   0.0148092   0.0412057   0.0000000), wk =   0.0277778
        k(   11) = (   0.0148092   0.0576880   0.0000000), wk =   0.0277778
        k(   12) = (   0.0148092   0.0741702   0.0000000), wk =   0.0277778
        k(   13) = (   0.0148092   0.0906525   0.0000000), wk =   0.0277778
        k(   14) = (   0.0148092  -0.0906525   0.0000000), wk =   0.0277778
        k(   15) = (   0.0148092  -0.0741702   0.0000000), wk =   0.0277778
        k(   16) = (   0.0148092  -0.0576880   0.0000000), wk =   0.0277778
        k(   17) = (   0.0148092  -0.0412057   0.0000000), wk =   0.0277778
        k(   18) = (   0.0148092  -0.0247234   0.0000000), wk =   0.0277778
        k(   19) = (   0.0148092  -0.0082411   0.0000000), wk =   0.0277778
        k(   20) = (   0.0296184   0.0164823   0.0000000), wk =   0.0277778
        k(   21) = (   0.0296184   0.0329645   0.0000000), wk =   0.0277778
        k(   22) = (   0.0296184   0.0494468   0.0000000), wk =   0.0277778
        k(   23) = (   0.0296184   0.0659291   0.0000000), wk =   0.0277778
        k(   24) = (   0.0296184   0.0824114   0.0000000), wk =   0.0277778
        k(   25) = (   0.0296184   0.0988936   0.0000000), wk =   0.0277778
        k(   26) = (   0.0296184  -0.0824114   0.0000000), wk =   0.0277778
        k(   27) = (   0.0296184  -0.0659291   0.0000000), wk =   0.0277778
        k(   28) = (   0.0296184  -0.0494468   0.0000000), wk =   0.0277778
        k(   29) = (   0.0296184  -0.0329645   0.0000000), wk =   0.0277778
        k(   30) = (   0.0296184  -0.0164823   0.0000000), wk =   0.0277778
        k(   31) = (   0.0296184  -0.0000000   0.0000000), wk =   0.0277778
        k(   32) = (   0.0444276   0.0247234   0.0000000), wk =   0.0277778
        k(   33) = (   0.0444276   0.0412057   0.0000000), wk =   0.0277778
        k(   34) = (   0.0444276   0.0576880   0.0000000), wk =   0.0277778
        k(   35) = (   0.0444276   0.0741702   0.0000000), wk =   0.0277778
        k(   36) = (   0.0444276   0.0906525   0.0000000), wk =   0.0277778
        k(   37) = (   0.0444276   0.1071348   0.0000000), wk =   0.0277778
        k(   38) = (   0.0444276  -0.0741702   0.0000000), wk =   0.0277778
        k(   39) = (   0.0444276  -0.0576880   0.0000000), wk =   0.0277778
        k(   40) = (   0.0444276  -0.0412057   0.0000000), wk =   0.0277778
        k(   41) = (   0.0444276  -0.0247234   0.0000000), wk =   0.0277778
        k(   42) = (   0.0444276  -0.0082411   0.0000000), wk =   0.0277778
        k(   43) = (   0.0444276   0.0082411   0.0000000), wk =   0.0277778
        k(   44) = (   0.0592368   0.0329645   0.0000000), wk =   0.0277778
        k(   45) = (   0.0592368   0.0494468   0.0000000), wk =   0.0277778
        k(   46) = (   0.0592368   0.0659291   0.0000000), wk =   0.0277778
        k(   47) = (   0.0592368   0.0824114   0.0000000), wk =   0.0277778
        k(   48) = (   0.0592368   0.0988936   0.0000000), wk =   0.0277778
        k(   49) = (   0.0592368   0.1153759   0.0000000), wk =   0.0277778
        k(   50) = (   0.0592368  -0.0659291   0.0000000), wk =   0.0277778
        k(   51) = (   0.0592368  -0.0494468   0.0000000), wk =   0.0277778
        k(   52) = (   0.0592368  -0.0329645   0.0000000), wk =   0.0277778
        k(   53) = (   0.0592368  -0.0164823   0.0000000), wk =   0.0277778
        k(   54) = (   0.0592368   0.0000000   0.0000000), wk =   0.0277778
        k(   55) = (   0.0592368   0.0164823   0.0000000), wk =   0.0277778
        k(   56) = (   0.0740461   0.0412057   0.0000000), wk =   0.0277778
        k(   57) = (   0.0740461   0.0576880   0.0000000), wk =   0.0277778
        k(   58) = (   0.0740461   0.0741702   0.0000000), wk =   0.0277778
        k(   59) = (   0.0740461   0.0906525   0.0000000), wk =   0.0277778
        k(   60) = (   0.0740461   0.1071348   0.0000000), wk =   0.0277778
        k(   61) = (   0.0740461   0.1236170   0.0000000), wk =   0.0277778
        k(   62) = (   0.0740461  -0.0576880   0.0000000), wk =   0.0277778
        k(   63) = (   0.0740461  -0.0412057   0.0000000), wk =   0.0277778
        k(   64) = (   0.0740461  -0.0247234   0.0000000), wk =   0.0277778
        k(   65) = (   0.0740461  -0.0082411   0.0000000), wk =   0.0277778
        k(   66) = (   0.0740461   0.0082411   0.0000000), wk =   0.0277778
        k(   67) = (   0.0740461   0.0247234   0.0000000), wk =   0.0277778
        k(   68) = (  -0.0888553  -0.0494468   0.0000000), wk =   0.0138889
        k(   69) = (  -0.0888553  -0.0329645   0.0000000), wk =   0.0277778
        k(   70) = (  -0.0888553  -0.0164823   0.0000000), wk =   0.0277778
        k(   71) = (  -0.0888553   0.0000000   0.0000000), wk =   0.0277778
        k(   72) = (  -0.0888553   0.0164823   0.0000000), wk =   0.0277778
        k(   73) = (  -0.0888553   0.0329645   0.0000000), wk =   0.0277778
        k(   74) = (  -0.0888553  -0.1483405   0.0000000), wk =   0.0138889

     Initial potential from superposition of free atoms

     starting charge  155.99487, renormalised to  156.00000

     negative rho (up, down):  3.591E-03 0.000E+00

     %%%%%%%%%%%%%%%%%%%%%%%%%%%%%%%%%%%%%%%%%%%%%%%%%%%%%%%%%%%%%%%%%%%%%%%%
     %                                                                      %
     % You are using vdW-DF, which was implemented by the Thonhauser group. %
     % Please cite the following two papers that made this development      %
     % possible and the two reviews that describe the various versions:     %
     %                                                                      %
     %   T. Thonhauser et al., PRL 115, 136402 (2015).                      %
     %   T. Thonhauser et al., PRB 76, 125112 (2007).                       %
     %   K. Berland et al., Rep. Prog. Phys. 78, 066501 (2015).             %
     %   D.C. Langreth et al., J. Phys.: Condens. Matter 21, 084203 (2009). %
     %                                                                      %
     %                                                                      %
     % If you are calculating the stress with vdW-DF, please also cite:     %
     %                                                                      %
     %   R. Sabatini et al., J. Phys.: Condens. Matter 24, 424209 (2012).   %
     %                                                                      %
     %%%%%%%%%%%%%%%%%%%%%%%%%%%%%%%%%%%%%%%%%%%%%%%%%%%%%%%%%%%%%%%%%%%%%%%%

     Adding external electric field

     Computed dipole along edir(3) :
        Dipole               -0.0016 Ry au,         -0.0041 Debye
        Dipole field         -0.0000 Ry au,

        Potential amp.        0.0004 Ry
        Total length         45.4639 bohr

     Starting wfcs are  114 randomized atomic wfcs

     Self-consistent Calculation

     iteration #  1     ecut=    55.12 Ry     beta= 0.10
     Davidson diagonalization with overlap
     ethr =  1.00E-02,  avg # of iterations =  2.1

[...]

     total energy              =   -1657.45703073 Ry
     estimated scf accuracy    <      25.06697772 Ry

[...]

     iteration # 12     ecut=    55.12 Ry     beta= 0.10
     Davidson diagonalization with overlap
     c_bands:  2 eigenvalues not converged
     c_bands:  1 eigenvalues not converged
     c_bands:  1 eigenvalues not converged
     c_bands:  1 eigenvalues not converged
     c_bands:  2 eigenvalues not converged
     c_bands:  2 eigenvalues not converged
     c_bands:  1 eigenvalues not converged
     c_bands:  1 eigenvalues not converged
     c_bands:  2 eigenvalues not converged
     c_bands:  1 eigenvalues not converged
     c_bands:  2 eigenvalues not converged
     ethr =  2.07E-05,  avg # of iterations = 15.8

[...]

     iteration # 15     ecut=    55.12 Ry     beta= 0.10
     Davidson diagonalization with overlap
     c_bands:  1 eigenvalues not converged
     c_bands:  1 eigenvalues not converged
     c_bands:  1 eigenvalues not converged
     c_bands:  1 eigenvalues not converged
     ethr =  8.59E-07,  avg # of iterations =  9.9

[...]

     total energy              =   -1660.65514132 Ry
     estimated scf accuracy    <       0.00001467 Ry

     iteration # 22     ecut=    55.12 Ry     beta= 0.10
     Davidson diagonalization with overlap
     ethr =  9.41E-09,  avg # of iterations =  2.1

[...]

     Adding external electric field

     Computed dipole along edir(3) :
        Dipole                0.0643 Ry au,          0.1633 Debye
        Dipole field          0.0002 Ry au,

        Potential amp.       -0.0155 Ry
        Total length         45.4639 bohr

     End of self-consistent calculation

          k = 0.0000 0.0000 0.0000 ( 32721 PWs)   bands (ev):

   -71.0823 -71.0625 -70.5022 -70.4843 -70.0411 -70.0241 -43.7658 -43.7435
   -42.1629 -42.1422 -42.1295 -41.9321 -41.8823 -41.8648 -41.8513 -41.7858
   -41.7679 -41.6778 -41.5781 -41.5620 -41.5298 -41.3698 -40.2734 -40.2600
    -8.2732  -7.7511  -7.6220  -7.4803  -7.4631  -7.3803  -7.1590  -6.9989
    -6.9476  -6.9201  -6.7364  -6.5921  -6.5504  -6.3084  -6.2940  -6.1917
    -6.0690  -5.9415  -5.9323  -5.8614  -5.8514  -5.8133  -5.8091  -5.6111
    -5.5822  -5.5091  -5.3162  -5.1875  -5.1764  -5.1048  -5.0772  -4.6899
    -3.2511  -2.0957  -1.8047  -1.6968  -1.4006  -1.1397  -0.9713  -0.9528
    -0.9139  -0.4208  -0.3948  -0.3216  -0.2832   0.2588   0.3115   0.5115
     0.6953   0.8875   1.1084   1.2622   1.2628   1.2951   1.3045   1.3888
     1.5796   1.7314   1.8118   1.8432   1.8951   1.9815   2.0570   2.2038
     2.4131   2.4796   2.5317   2.9827   3.1346   3.8347

[...]

          k = 0.0740 0.0247 0.0000 ( 32723 PWs)   bands (ev):

[...]

          k =-0.0889-0.0494 0.0000 ( 32708 PWs)   bands (ev):

[...]

          k =-0.0889-0.1483 0.0000 ( 32708 PWs)   bands (ev):

   -71.0741 -71.0707 -70.4932 -70.4932 -70.0333 -70.0319 -43.7583 -43.7511
   -42.1536 -42.1521 -42.0324 -42.0306 -41.8735 -41.8735 -41.7772 -41.7772
   -41.7651 -41.7650 -41.5706 -41.5698 -41.4505 -41.4499 -40.2689 -40.2643
    -7.1881  -7.1881  -6.9611  -6.9609  -6.8699  -6.8698  -6.7394  -6.7392
    -6.6555  -6.6552  -6.3694  -6.3691  -6.3025  -6.3021  -6.1661  -6.1656
    -6.0613  -6.0493  -6.0159  -6.0142  -6.0034  -6.0019  -5.9214  -5.9154
    -5.7874  -5.7866  -5.7480  -5.7425  -5.6845  -5.6831  -5.4563  -5.4545
    -3.9743  -3.9694  -2.6782  -2.6751  -1.7133  -1.7123  -1.3059  -1.3033
    -0.9006  -0.9004  -0.5934  -0.5925   0.0912   0.0925   0.2305   0.2308
     0.6728   0.6730   0.8804   0.8809   0.9543   0.9546   1.1863   1.1864
     1.4641   1.4645   1.6370   1.6376   2.0543   2.0546   2.3185   2.3192
     2.8262   2.8267   3.1433   3.1453   3.6571   3.6585

     the Fermi energy is     1.1585 ev

!    total energy              =   -1660.65515072 Ry
     estimated scf accuracy    <       0.00000283 Ry
     smearing contrib. (-TS)   =      -0.08579974 Ry
     internal energy E=F+TS    =   -1660.56935098 Ry

     The total energy is F=E-TS. E is the sum of the following terms:
     one-electron contribution =  -12795.51746687 Ry
     hartree contribution      =    6435.93836227 Ry
     xc contribution           =    -339.97455397 Ry
     ewald contribution        =    5038.98429663 Ry
     electric field correction =       0.00001095 Ry

     convergence has been achieved in  22 iterations

     negative rho (up, down):  3.236E-03 0.000E+00

     Forces acting on atoms (cartesian axes, Ry/au):

     atom    1 type  1   force =     0.00003116    0.00810821    0.02694003
     atom    2 type  1   force =     0.00003206    0.00806492    0.02694006
     atom    3 type  2   force =     0.00005133   -0.01710669   -0.05957361
     atom    4 type  2   force =    -0.00002271   -0.01710597   -0.05957218
     atom    5 type  1   force =    -0.00003615   -0.02079322    0.00826971
     atom    6 type  1   force =    -0.00003657   -0.02066227    0.00853077
     atom    7 type  2   force =     0.00004386    0.02967782    0.02535439
     atom    8 type  2   force =    -0.00000670    0.02967938    0.02535912
     atom    9 type  1   force =    -0.00004658    0.00008452   -0.00009098
     atom   10 type  1   force =    -0.00004482    0.00010838    0.00063432
     atom   11 type  2   force =    -0.00089093   -0.00002737   -0.00139609
     atom   12 type  2   force =     0.00092604   -0.00002769   -0.00139552

     Total force =     0.115410     Total SCF correction =     0.004903

     Writing output data file ./Cr2Hg2/Cr2Hg2_beef.save/

     General routines

     Parallel routines

   This run was terminated on:  16: 3:54  10Jul2022

   JOB DONE.