     Program PWSCF v.6.6 starts on 23Jun2022 at 22:26:19

     R & G space division:  proc/nbgrp/npool/nimage =      37
     Fft bands division:     nmany     =       1
     Reading input from Cr2Hf2.in
Warning: card &CELL ignored
Warning: card / ignored

     Current dimensions of program PWSCF are:
     Max number of different atomic species (ntypx) = 10
     Max number of k-points (npk) =  40000
     Max angular momentum in pseudopotentials (lmaxx) =  3
     Presently stress not available with electric field and gates

     Message from routine cell_base_init:
     DEPRECATED: use true lattice parameter, not A to a.u. conversion factor
     file Cr.pbe-spn-rrkjus_psl.1.0.0.UPF: wavefunction(s)  3P renormalized

     IMPORTANT: XC functional enforced from input :
     Exchange-correlation= BEEF-VDW
                           (   1   4  43  14   2   0   0)
     Any further DFT definition will be discarded
     Please, verify this is what you really want

     Subspace diagonalization in iterative solution of the eigenvalue problem:
     a serial algorithm will be used

     bravais-lattice index     =            0
     lattice parameter (alat)  =       1.8897  a.u.
     unit-cell volume          =    4832.3577 (a.u.)^3
     number of atoms/cell      =           12
     number of atomic types    =            2
     number of electrons       =       156.00
     number of Kohn-Sham states=           94
     kinetic-energy cutoff     =      55.1240  Ry
     charge density cutoff     =     551.2396  Ry
     convergence threshold     =      1.0E-05
     mixing beta               =       0.1000
     number of iterations used =           10  plain     mixing
     Exchange-correlation= BEEF-VDW
                           (   1   4  43  14   2   0   0)

     celldm(1)=   1.889726  celldm(2)=   0.000000  celldm(3)=   0.000000
     celldm(4)=   0.000000  celldm(5)=   0.000000  celldm(6)=   0.000000

     crystal axes: (cart. coord. in units of alat)
               a(1) = (   5.554843   0.000000   0.000000 )
               a(2) = (   1.790410   5.258395   0.000000 )
               a(3) = (   0.000000   0.000000  24.515320 )

     reciprocal axes: (cart. coord. in units 2 pi/alat)
               b(1) = (  0.180023 -0.061295  0.000000 )
               b(2) = (  0.000000  0.190172  0.000000 )
               b(3) = (  0.000000  0.000000  0.040791 )

     PseudoPot. # 1 for Cr read from file:
     ../pseudo/Cr.pbe-spn-rrkjus_psl.1.0.0.UPF
     MD5 check sum: 793d051e4f89dd1e3290b85340a92c0a
     Pseudo is Ultrasoft + core correction, Zval = 14.0
     Generated using "atomic" code by A. Dal Corso v.6.2.2
     Using radial grid of 1183 points,  6 beta functions with:
                l(1) =   0
                l(2) =   0
                l(3) =   1
                l(4) =   1
                l(5) =   2
                l(6) =   2
     Q(r) pseudized with 0 coefficients

     PseudoPot. # 2 for Hf read from file:
     ../pseudo/Hf.pbe-spn-rrkjus_psl.1.0.0.UPF
     MD5 check sum: 9605440c6f839e558204c6a924125fd0
     Pseudo is Ultrasoft + core correction, Zval = 12.0
     Generated using "atomic" code by A. Dal Corso v.6.2.2
     Using radial grid of 1271 points,  6 beta functions with:
                l(1) =   0
                l(2) =   0
                l(3) =   1
                l(4) =   1
                l(5) =   2
                l(6) =   2
     Q(r) pseudized with 0 coefficients

     atomic species   valence    mass     pseudopotential
        Cr            14.00    51.99610     Cr( 1.00)
        Hf            12.00   178.49000     Hf( 1.00)

     No symmetry found

   Cartesian axes

     site n.     atom                  positions (alat units)
         1           Cr  tau(   1) = (   0.0000000   0.0000000  10.0000000  )
         2           Cr  tau(   2) = (   3.6726268   2.6291974  10.0000000  )
         3           Hf  tau(   3) = (   2.7774217   0.0000000  10.0000000  )
         4           Hf  tau(   4) = (   0.8952051   2.6291974  10.0000000  )
         5           Cr  tau(   5) = (   5.5548434   3.9766577  12.2576602  )
         6           Cr  tau(   6) = (   1.8822166   1.3474603  12.2576602  )
         7           Hf  tau(   7) = (   2.7774217   3.9766577  12.2576602  )
         8           Hf  tau(   8) = (   4.6596383   1.3474603  12.2576602  )
         9           Cr  tau(   9) = (   3.7440358   2.6803154  14.3788550  )
        10           Cr  tau(  10) = (   0.0716321   0.0512810  14.3789168  )
        11           Hf  tau(  11) = (   0.9535912   2.6707837  14.4986242  )
        12           Hf  tau(  12) = (   2.8356034   0.0418661  14.4986192  )

     number of k points=    74  Fermi-Dirac smearing, width (Ry)=  0.0100
                       cart. coord. in units 2pi/alat
        k(    1) = (   0.0000000   0.0000000   0.0000000), wk =   0.0138889
        k(    2) = (   0.0000000   0.0158477   0.0000000), wk =   0.0277778
        k(    3) = (   0.0000000   0.0316953   0.0000000), wk =   0.0277778
        k(    4) = (   0.0000000   0.0475430   0.0000000), wk =   0.0277778
        k(    5) = (   0.0000000   0.0633907   0.0000000), wk =   0.0277778
        k(    6) = (   0.0000000   0.0792384   0.0000000), wk =   0.0277778
        k(    7) = (   0.0000000  -0.0950860   0.0000000), wk =   0.0138889
        k(    8) = (   0.0150019  -0.0051079   0.0000000), wk =   0.0277778
        k(    9) = (   0.0150019   0.0107397   0.0000000), wk =   0.0277778
        k(   10) = (   0.0150019   0.0265874   0.0000000), wk =   0.0277778
        k(   11) = (   0.0150019   0.0424351   0.0000000), wk =   0.0277778
        k(   12) = (   0.0150019   0.0582828   0.0000000), wk =   0.0277778
        k(   13) = (   0.0150019   0.0741304   0.0000000), wk =   0.0277778
        k(   14) = (   0.0150019  -0.1001940   0.0000000), wk =   0.0277778
        k(   15) = (   0.0150019  -0.0843463   0.0000000), wk =   0.0277778
        k(   16) = (   0.0150019  -0.0684986   0.0000000), wk =   0.0277778
        k(   17) = (   0.0150019  -0.0526510   0.0000000), wk =   0.0277778
        k(   18) = (   0.0150019  -0.0368033   0.0000000), wk =   0.0277778
        k(   19) = (   0.0150019  -0.0209556   0.0000000), wk =   0.0277778
        k(   20) = (   0.0300038  -0.0102159   0.0000000), wk =   0.0277778
        k(   21) = (   0.0300038   0.0056318   0.0000000), wk =   0.0277778
        k(   22) = (   0.0300038   0.0214795   0.0000000), wk =   0.0277778
        k(   23) = (   0.0300038   0.0373271   0.0000000), wk =   0.0277778
        k(   24) = (   0.0300038   0.0531748   0.0000000), wk =   0.0277778
        k(   25) = (   0.0300038   0.0690225   0.0000000), wk =   0.0277778
        k(   26) = (   0.0300038  -0.1053019   0.0000000), wk =   0.0277778
        k(   27) = (   0.0300038  -0.0894543   0.0000000), wk =   0.0277778
        k(   28) = (   0.0300038  -0.0736066   0.0000000), wk =   0.0277778
        k(   29) = (   0.0300038  -0.0577589   0.0000000), wk =   0.0277778
        k(   30) = (   0.0300038  -0.0419112   0.0000000), wk =   0.0277778
        k(   31) = (   0.0300038  -0.0260636   0.0000000), wk =   0.0277778
        k(   32) = (   0.0450058  -0.0153238   0.0000000), wk =   0.0277778
        k(   33) = (   0.0450058   0.0005238   0.0000000), wk =   0.0277778
        k(   34) = (   0.0450058   0.0163715   0.0000000), wk =   0.0277778
        k(   35) = (   0.0450058   0.0322192   0.0000000), wk =   0.0277778
        k(   36) = (   0.0450058   0.0480669   0.0000000), wk =   0.0277778
        k(   37) = (   0.0450058   0.0639145   0.0000000), wk =   0.0277778
        k(   38) = (   0.0450058  -0.1104099   0.0000000), wk =   0.0277778
        k(   39) = (   0.0450058  -0.0945622   0.0000000), wk =   0.0277778
        k(   40) = (   0.0450058  -0.0787145   0.0000000), wk =   0.0277778
        k(   41) = (   0.0450058  -0.0628669   0.0000000), wk =   0.0277778
        k(   42) = (   0.0450058  -0.0470192   0.0000000), wk =   0.0277778
        k(   43) = (   0.0450058  -0.0311715   0.0000000), wk =   0.0277778
        k(   44) = (   0.0600077  -0.0204318   0.0000000), wk =   0.0277778
        k(   45) = (   0.0600077  -0.0045841   0.0000000), wk =   0.0277778
        k(   46) = (   0.0600077   0.0112636   0.0000000), wk =   0.0277778
        k(   47) = (   0.0600077   0.0271112   0.0000000), wk =   0.0277778
        k(   48) = (   0.0600077   0.0429589   0.0000000), wk =   0.0277778
        k(   49) = (   0.0600077   0.0588066   0.0000000), wk =   0.0277778
        k(   50) = (   0.0600077  -0.1155178   0.0000000), wk =   0.0277778
        k(   51) = (   0.0600077  -0.0996702   0.0000000), wk =   0.0277778
        k(   52) = (   0.0600077  -0.0838225   0.0000000), wk =   0.0277778
        k(   53) = (   0.0600077  -0.0679748   0.0000000), wk =   0.0277778
        k(   54) = (   0.0600077  -0.0521271   0.0000000), wk =   0.0277778
        k(   55) = (   0.0600077  -0.0362795   0.0000000), wk =   0.0277778
        k(   56) = (   0.0750096  -0.0255397   0.0000000), wk =   0.0277778
        k(   57) = (   0.0750096  -0.0096921   0.0000000), wk =   0.0277778
        k(   58) = (   0.0750096   0.0061556   0.0000000), wk =   0.0277778
        k(   59) = (   0.0750096   0.0220033   0.0000000), wk =   0.0277778
        k(   60) = (   0.0750096   0.0378510   0.0000000), wk =   0.0277778
        k(   61) = (   0.0750096   0.0536986   0.0000000), wk =   0.0277778
        k(   62) = (   0.0750096  -0.1206258   0.0000000), wk =   0.0277778
        k(   63) = (   0.0750096  -0.1047781   0.0000000), wk =   0.0277778
        k(   64) = (   0.0750096  -0.0889304   0.0000000), wk =   0.0277778
        k(   65) = (   0.0750096  -0.0730828   0.0000000), wk =   0.0277778
        k(   66) = (   0.0750096  -0.0572351   0.0000000), wk =   0.0277778
        k(   67) = (   0.0750096  -0.0413874   0.0000000), wk =   0.0277778
        k(   68) = (  -0.0900115   0.0306477   0.0000000), wk =   0.0138889
        k(   69) = (  -0.0900115   0.0464953   0.0000000), wk =   0.0277778
        k(   70) = (  -0.0900115   0.0623430   0.0000000), wk =   0.0277778
        k(   71) = (  -0.0900115   0.0781907   0.0000000), wk =   0.0277778
        k(   72) = (  -0.0900115   0.0940384   0.0000000), wk =   0.0277778
        k(   73) = (  -0.0900115   0.1098860   0.0000000), wk =   0.0277778
        k(   74) = (  -0.0900115  -0.0644384   0.0000000), wk =   0.0138889

     Initial potential from superposition of free atoms

     starting charge  155.98373, renormalised to  156.00000

     negative rho (up, down):  3.434E-03 0.000E+00

     %%%%%%%%%%%%%%%%%%%%%%%%%%%%%%%%%%%%%%%%%%%%%%%%%%%%%%%%%%%%%%%%%%%%%%%%
     %                                                                      %
     % You are using vdW-DF, which was implemented by the Thonhauser group. %
     % Please cite the following two papers that made this development      %
     % possible and the two reviews that describe the various versions:     %
     %                                                                      %
     %   T. Thonhauser et al., PRL 115, 136402 (2015).                      %
     %   T. Thonhauser et al., PRB 76, 125112 (2007).                       %
     %   K. Berland et al., Rep. Prog. Phys. 78, 066501 (2015).             %
     %   D.C. Langreth et al., J. Phys.: Condens. Matter 21, 084203 (2009). %
     %                                                                      %
     %                                                                      %
     % If you are calculating the stress with vdW-DF, please also cite:     %
     %                                                                      %
     %   R. Sabatini et al., J. Phys.: Condens. Matter 24, 424209 (2012).   %
     %                                                                      %
     %%%%%%%%%%%%%%%%%%%%%%%%%%%%%%%%%%%%%%%%%%%%%%%%%%%%%%%%%%%%%%%%%%%%%%%%

     Adding external electric field

     Computed dipole along edir(3) :
        Dipole                0.0003 Ry au,          0.0008 Debye
        Dipole field          0.0000 Ry au,

        Potential amp.       -0.0001 Ry
        Total length         45.1691 bohr

     Starting wfcs are  120 randomized atomic wfcs

     Self-consistent Calculation

     iteration #  1     ecut=    55.12 Ry     beta= 0.10
     Davidson diagonalization with overlap
     ethr =  1.00E-02,  avg # of iterations =  2.5

[...]

     total energy              =   -1810.18087702 Ry
     estimated scf accuracy    <      13.36024473 Ry

[...]

     iteration #  8     ecut=    55.12 Ry     beta= 0.10
     Davidson diagonalization with overlap
     c_bands:  3 eigenvalues not converged
     c_bands:  2 eigenvalues not converged
     c_bands:  1 eigenvalues not converged
     ethr =  6.24E-05,  avg # of iterations = 14.1

[...]

     iteration # 16     ecut=    55.12 Ry     beta= 0.10
     Davidson diagonalization with overlap
     c_bands:  1 eigenvalues not converged
     ethr =  1.27E-06,  avg # of iterations =  2.6

[...]

     total energy              =   -1811.43729270 Ry
     estimated scf accuracy    <       0.00002461 Ry

     iteration # 26     ecut=    55.12 Ry     beta= 0.10
     Davidson diagonalization with overlap
     ethr =  8.69E-09,  avg # of iterations =  1.1

[...]

     Adding external electric field

     Computed dipole along edir(3) :
        Dipole                0.0346 Ry au,          0.0879 Debye
        Dipole field          0.0001 Ry au,

        Potential amp.       -0.0081 Ry
        Total length         45.1691 bohr

     End of self-consistent calculation

          k = 0.0000 0.0000 0.0000 ( 33411 PWs)   bands (ev):

   -70.0409 -70.0376 -69.9915 -69.9885 -69.9612 -69.9581 -60.7775 -60.7717
   -60.7627 -60.7569 -60.0215 -60.0066 -41.3932 -41.3904 -41.3749 -41.3651
   -41.3601 -41.3583 -41.3264 -41.3228 -41.3210 -41.3074 -41.3038 -41.2788
   -41.2639 -41.2554 -41.2256 -41.2204 -41.2174 -41.2113 -29.4097 -29.4027
   -29.3873 -29.3723 -29.3624 -29.3363 -29.2683 -29.2511 -29.2446 -29.2198
   -29.0750 -29.0732 -28.7525 -28.6006 -28.5789 -28.5532 -28.5477 -28.4062
    -5.1620  -3.5620  -2.3095  -1.9377  -1.7910  -1.6425  -1.6118  -1.4391
    -1.3947  -1.2377  -1.0426  -0.9240  -0.7381   0.0270   0.0999   0.2013
     0.2120   0.2446   0.3194   0.3799   0.4092   0.4985   0.7151   0.8871
     1.0016   1.0714   1.1908   1.2751   1.4623   1.6385   1.6410   1.6970
     1.8196   1.9220   2.2808   2.2898   2.8398   2.8671   2.8854   2.9035
     2.9453   3.0905   3.2005   3.4090   3.5429   3.5870

[...]

          k = 0.0750-0.0414 0.0000 ( 33374 PWs)   bands (ev):

[...]

          k =-0.0900 0.0306 0.0000 ( 33362 PWs)   bands (ev):

[...]

          k =-0.0900-0.0644 0.0000 ( 33406 PWs)   bands (ev):

   -70.0406 -70.0378 -69.9915 -69.9885 -69.9612 -69.9580 -60.7778 -60.7721
   -60.7630 -60.7572 -60.0222 -60.0065 -41.3924 -41.3854 -41.3682 -41.3672
   -41.3611 -41.3570 -41.3256 -41.3236 -41.3195 -41.3054 -41.2989 -41.2777
   -41.2611 -41.2577 -41.2204 -41.2178 -41.2120 -41.2098 -29.4247 -29.4161
   -29.4087 -29.3632 -29.3599 -29.3331 -29.3066 -29.2700 -29.2516 -29.2270
   -29.0790 -29.0766 -28.7642 -28.5955 -28.5830 -28.5660 -28.5594 -28.4111
    -3.0992  -3.0002  -2.1845  -1.9480  -1.3100  -1.0643  -0.8085  -0.7655
    -0.7094  -0.5698  -0.1367   0.0299   0.1496   0.2064   0.2285   0.2707
     0.3648   0.3887   0.4746   0.4842   0.6206   0.6461   0.7331   0.9011
     0.9850   1.0777   1.1504   1.1643   1.2200   1.2367   1.2486   1.2582
     1.3194   1.4356   1.4676   1.5060   1.5895   1.7871   1.8685   1.9365
     2.0133   2.4213   2.8376   2.9405   3.0039   3.0526

     the Fermi energy is     1.2681 ev

!    total energy              =   -1811.43729552 Ry
     estimated scf accuracy    <       0.00000109 Ry
     smearing contrib. (-TS)   =      -0.11069723 Ry
     internal energy E=F+TS    =   -1811.32659829 Ry

     The total energy is F=E-TS. E is the sum of the following terms:
     one-electron contribution =  -12876.97719214 Ry
     hartree contribution      =    6428.19208815 Ry
     xc contribution           =    -395.57655308 Ry
     ewald contribution        =    5033.03505567 Ry
     electric field correction =       0.00000311 Ry

     convergence has been achieved in  26 iterations

     negative rho (up, down):  2.982E-03 0.000E+00

     Forces acting on atoms (cartesian axes, Ry/au):

     atom    1 type  1   force =     0.00016310    0.00011373    0.02032945
     atom    2 type  1   force =     0.00015117    0.00010855    0.02031186
     atom    3 type  2   force =     0.00491498    0.00353248   -0.00111291
     atom    4 type  2   force =     0.00492953    0.00351672   -0.00111321
     atom    5 type  1   force =    -0.00094266   -0.00067664    0.00163030
     atom    6 type  1   force =    -0.00098623   -0.00070494    0.00163421
     atom    7 type  2   force =    -0.00292633   -0.00203788   -0.01868487
     atom    8 type  2   force =    -0.00287085   -0.00211063   -0.01868347
     atom    9 type  1   force =    -0.00104080   -0.00074357    0.00050996
     atom   10 type  1   force =    -0.00108369   -0.00077679    0.00050314
     atom   11 type  2   force =    -0.00017596   -0.00007982   -0.00266333
     atom   12 type  2   force =    -0.00013226   -0.00014121   -0.00266113

     Total force =     0.040640     Total SCF correction =     0.003721

     Writing output data file ./Cr2Hf2/Cr2Hf2_beef.save/

     General routines

     Parallel routines

   This run was terminated on:   0:10: 0  24Jun2022

   JOB DONE.