     Program PWSCF v.6.6 starts on 23Jun2022 at 17:43:38

     R & G space division:  proc/nbgrp/npool/nimage =      37
     Fft bands division:     nmany     =       1
     Reading input from Cr2Ir2.in
Warning: card &CELL ignored
Warning: card / ignored

     Current dimensions of program PWSCF are:
     Max number of different atomic species (ntypx) = 10
     Max number of k-points (npk) =  40000
     Max angular momentum in pseudopotentials (lmaxx) =  3
     Presently stress not available with electric field and gates

     Message from routine cell_base_init:
     DEPRECATED: use true lattice parameter, not A to a.u. conversion factor
     file Cr.pbe-spn-rrkjus_psl.1.0.0.UPF: wavefunction(s)  3P renormalized
     file Ir.pbe-n-rrkjus_psl.0.2.3.UPF: wavefunction(s)  5D renormalized

     IMPORTANT: XC functional enforced from input :
     Exchange-correlation= BEEF-VDW
                           (   1   4  43  14   2   0   0)
     Any further DFT definition will be discarded
     Please, verify this is what you really want

     Subspace diagonalization in iterative solution of the eigenvalue problem:
     a serial algorithm will be used

     Found symmetry operation: I + (  0.5000 -0.5000  0.0000)
     This is a supercell, fractional translations are disabled

     bravais-lattice index     =            0
     lattice parameter (alat)  =       1.8897  a.u.
     unit-cell volume          =    4012.6418 (a.u.)^3
     number of atoms/cell      =           12
     number of atomic types    =            2
     number of electrons       =       138.00
     number of Kohn-Sham states=           83
     kinetic-energy cutoff     =      55.1240  Ry
     charge density cutoff     =     551.2396  Ry
     convergence threshold     =      1.0E-05
     mixing beta               =       0.1000
     number of iterations used =           10  plain     mixing
     Exchange-correlation= BEEF-VDW
                           (   1   4  43  14   2   0   0)

     celldm(1)=   1.889726  celldm(2)=   0.000000  celldm(3)=   0.000000
     celldm(4)=   0.000000  celldm(5)=   0.000000  celldm(6)=   0.000000

     crystal axes: (cart. coord. in units of alat)
               a(1) = (   5.292979   0.000000   0.000000 )
               a(2) = (   2.589738   4.616155   0.000000 )
               a(3) = (   0.000000   0.000000  24.336231 )

     reciprocal axes: (cart. coord. in units 2 pi/alat)
               b(1) = (  0.188930 -0.105993  0.000000 )
               b(2) = (  0.000000  0.216631  0.000000 )
               b(3) = (  0.000000  0.000000  0.041091 )

     PseudoPot. # 1 for Cr read from file:
     ../pseudo/Cr.pbe-spn-rrkjus_psl.1.0.0.UPF
     MD5 check sum: 793d051e4f89dd1e3290b85340a92c0a
     Pseudo is Ultrasoft + core correction, Zval = 14.0
     Generated using "atomic" code by A. Dal Corso v.6.2.2
     Using radial grid of 1183 points,  6 beta functions with:
                l(1) =   0
                l(2) =   0
                l(3) =   1
                l(4) =   1
                l(5) =   2
                l(6) =   2
     Q(r) pseudized with 0 coefficients

     PseudoPot. # 2 for Ir read from file:
     ../pseudo/Ir.pbe-n-rrkjus_psl.0.2.3.UPF
     MD5 check sum: a93e608e8ddc29ee62145620b5f41564
     Pseudo is Ultrasoft + core correction, Zval =  9.0
     Generated using "atomic" code by A. Dal Corso v.5.0.2 svn rev. 9415
     Using radial grid of 1277 points,  6 beta functions with:
                l(1) =   0
                l(2) =   0
                l(3) =   1
                l(4) =   1
                l(5) =   2
                l(6) =   2
     Q(r) pseudized with 0 coefficients

     atomic species   valence    mass     pseudopotential
        Cr            14.00    51.99610     Cr( 1.00)
        Ir             9.00   192.21700     Ir( 1.00)

     No symmetry found

   Cartesian axes

     site n.     atom                  positions (alat units)
         1           Cr  tau(   1) = (   0.0000000   0.0000000  10.0000000  )
         2           Cr  tau(   2) = (   3.9413585   2.3080776  10.0000000  )
         3           Ir  tau(   3) = (   2.6464897   0.0000000  10.0000000  )
         4           Ir  tau(   4) = (   1.2948688   2.3080776  10.0000000  )
         5           Cr  tau(   5) = (   5.2929793   3.0995930  12.1681157  )
         6           Cr  tau(   6) = (   1.3516208   0.7915153  12.1681157  )
         7           Ir  tau(   7) = (   2.6464897   3.0995930  12.1681157  )
         8           Ir  tau(   8) = (   3.9981105   0.7915153  12.1681157  )
         9           Cr  tau(   9) = (   2.6818579   1.5705081  14.2070767  )
        10           Cr  tau(  10) = (   6.6231822   3.8785660  14.2070425  )
        11           Ir  tau(  11) = (   5.3924954   1.6080875  14.2703767  )
        12           Ir  tau(  12) = (   4.0408866   3.9161452  14.2703779  )

     number of k points=    74  Fermi-Dirac smearing, width (Ry)=  0.0100
                       cart. coord. in units 2pi/alat
        k(    1) = (   0.0000000   0.0000000   0.0000000), wk =   0.0138889
        k(    2) = (   0.0000000   0.0180525   0.0000000), wk =   0.0277778
        k(    3) = (   0.0000000   0.0361051   0.0000000), wk =   0.0277778
        k(    4) = (   0.0000000   0.0541576   0.0000000), wk =   0.0277778
        k(    5) = (   0.0000000   0.0722102   0.0000000), wk =   0.0277778
        k(    6) = (   0.0000000   0.0902627   0.0000000), wk =   0.0277778
        k(    7) = (   0.0000000  -0.1083153   0.0000000), wk =   0.0138889
        k(    8) = (   0.0157441  -0.0088327   0.0000000), wk =   0.0277778
        k(    9) = (   0.0157441   0.0092198   0.0000000), wk =   0.0277778
        k(   10) = (   0.0157441   0.0272724   0.0000000), wk =   0.0277778
        k(   11) = (   0.0157441   0.0453249   0.0000000), wk =   0.0277778
        k(   12) = (   0.0157441   0.0633775   0.0000000), wk =   0.0277778
        k(   13) = (   0.0157441   0.0814300   0.0000000), wk =   0.0277778
        k(   14) = (   0.0157441  -0.1171480   0.0000000), wk =   0.0277778
        k(   15) = (   0.0157441  -0.0990954   0.0000000), wk =   0.0277778
        k(   16) = (   0.0157441  -0.0810429   0.0000000), wk =   0.0277778
        k(   17) = (   0.0157441  -0.0629903   0.0000000), wk =   0.0277778
        k(   18) = (   0.0157441  -0.0449378   0.0000000), wk =   0.0277778
        k(   19) = (   0.0157441  -0.0268853   0.0000000), wk =   0.0277778
        k(   20) = (   0.0314883  -0.0176654   0.0000000), wk =   0.0277778
        k(   21) = (   0.0314883   0.0003871   0.0000000), wk =   0.0277778
        k(   22) = (   0.0314883   0.0184397   0.0000000), wk =   0.0277778
        k(   23) = (   0.0314883   0.0364922   0.0000000), wk =   0.0277778
        k(   24) = (   0.0314883   0.0545447   0.0000000), wk =   0.0277778
        k(   25) = (   0.0314883   0.0725973   0.0000000), wk =   0.0277778
        k(   26) = (   0.0314883  -0.1259807   0.0000000), wk =   0.0277778
        k(   27) = (   0.0314883  -0.1079281   0.0000000), wk =   0.0277778
        k(   28) = (   0.0314883  -0.0898756   0.0000000), wk =   0.0277778
        k(   29) = (   0.0314883  -0.0718230   0.0000000), wk =   0.0277778
        k(   30) = (   0.0314883  -0.0537705   0.0000000), wk =   0.0277778
        k(   31) = (   0.0314883  -0.0357180   0.0000000), wk =   0.0277778
        k(   32) = (   0.0472324  -0.0264981   0.0000000), wk =   0.0277778
        k(   33) = (   0.0472324  -0.0084456   0.0000000), wk =   0.0277778
        k(   34) = (   0.0472324   0.0096070   0.0000000), wk =   0.0277778
        k(   35) = (   0.0472324   0.0276595   0.0000000), wk =   0.0277778
        k(   36) = (   0.0472324   0.0457120   0.0000000), wk =   0.0277778
        k(   37) = (   0.0472324   0.0637646   0.0000000), wk =   0.0277778
        k(   38) = (   0.0472324  -0.1348134   0.0000000), wk =   0.0277778
        k(   39) = (   0.0472324  -0.1167608   0.0000000), wk =   0.0277778
        k(   40) = (   0.0472324  -0.0987083   0.0000000), wk =   0.0277778
        k(   41) = (   0.0472324  -0.0806558   0.0000000), wk =   0.0277778
        k(   42) = (   0.0472324  -0.0626032   0.0000000), wk =   0.0277778
        k(   43) = (   0.0472324  -0.0445507   0.0000000), wk =   0.0277778
        k(   44) = (   0.0629765  -0.0353308   0.0000000), wk =   0.0277778
        k(   45) = (   0.0629765  -0.0172783   0.0000000), wk =   0.0277778
        k(   46) = (   0.0629765   0.0007742   0.0000000), wk =   0.0277778
        k(   47) = (   0.0629765   0.0188268   0.0000000), wk =   0.0277778
        k(   48) = (   0.0629765   0.0368793   0.0000000), wk =   0.0277778
        k(   49) = (   0.0629765   0.0549319   0.0000000), wk =   0.0277778
        k(   50) = (   0.0629765  -0.1436461   0.0000000), wk =   0.0277778
        k(   51) = (   0.0629765  -0.1255936   0.0000000), wk =   0.0277778
        k(   52) = (   0.0629765  -0.1075410   0.0000000), wk =   0.0277778
        k(   53) = (   0.0629765  -0.0894885   0.0000000), wk =   0.0277778
        k(   54) = (   0.0629765  -0.0714359   0.0000000), wk =   0.0277778
        k(   55) = (   0.0629765  -0.0533834   0.0000000), wk =   0.0277778
        k(   56) = (   0.0787206  -0.0441636   0.0000000), wk =   0.0277778
        k(   57) = (   0.0787206  -0.0261110   0.0000000), wk =   0.0277778
        k(   58) = (   0.0787206  -0.0080585   0.0000000), wk =   0.0277778
        k(   59) = (   0.0787206   0.0099941   0.0000000), wk =   0.0277778
        k(   60) = (   0.0787206   0.0280466   0.0000000), wk =   0.0277778
        k(   61) = (   0.0787206   0.0460992   0.0000000), wk =   0.0277778
        k(   62) = (   0.0787206  -0.1524788   0.0000000), wk =   0.0277778
        k(   63) = (   0.0787206  -0.1344263   0.0000000), wk =   0.0277778
        k(   64) = (   0.0787206  -0.1163737   0.0000000), wk =   0.0277778
        k(   65) = (   0.0787206  -0.0983212   0.0000000), wk =   0.0277778
        k(   66) = (   0.0787206  -0.0802686   0.0000000), wk =   0.0277778
        k(   67) = (   0.0787206  -0.0622161   0.0000000), wk =   0.0277778
        k(   68) = (  -0.0944648   0.0529963   0.0000000), wk =   0.0138889
        k(   69) = (  -0.0944648   0.0710488   0.0000000), wk =   0.0277778
        k(   70) = (  -0.0944648   0.0891014   0.0000000), wk =   0.0277778
        k(   71) = (  -0.0944648   0.1071539   0.0000000), wk =   0.0277778
        k(   72) = (  -0.0944648   0.1252064   0.0000000), wk =   0.0277778
        k(   73) = (  -0.0944648   0.1432590   0.0000000), wk =   0.0277778
        k(   74) = (  -0.0944648  -0.0553190   0.0000000), wk =   0.0138889

     Initial potential from superposition of free atoms

     starting charge  137.99447, renormalised to  138.00000

     negative rho (up, down):  3.287E-03 0.000E+00

     %%%%%%%%%%%%%%%%%%%%%%%%%%%%%%%%%%%%%%%%%%%%%%%%%%%%%%%%%%%%%%%%%%%%%%%%
     %                                                                      %
     % You are using vdW-DF, which was implemented by the Thonhauser group. %
     % Please cite the following two papers that made this development      %
     % possible and the two reviews that describe the various versions:     %
     %                                                                      %
     %   T. Thonhauser et al., PRL 115, 136402 (2015).                      %
     %   T. Thonhauser et al., PRB 76, 125112 (2007).                       %
     %   K. Berland et al., Rep. Prog. Phys. 78, 066501 (2015).             %
     %   D.C. Langreth et al., J. Phys.: Condens. Matter 21, 084203 (2009). %
     %                                                                      %
     %                                                                      %
     % If you are calculating the stress with vdW-DF, please also cite:     %
     %                                                                      %
     %   R. Sabatini et al., J. Phys.: Condens. Matter 24, 424209 (2012).   %
     %                                                                      %
     %%%%%%%%%%%%%%%%%%%%%%%%%%%%%%%%%%%%%%%%%%%%%%%%%%%%%%%%%%%%%%%%%%%%%%%%

     Adding external electric field

     Computed dipole along edir(3) :
        Dipole               -0.0001 Ry au,         -0.0001 Debye
        Dipole field         -0.0000 Ry au,

        Potential amp.        0.0000 Ry
        Total length         44.8391 bohr

     Starting wfcs are  114 randomized atomic wfcs

     Self-consistent Calculation

     iteration #  1     ecut=    55.12 Ry     beta= 0.10
     Davidson diagonalization with overlap
     ethr =  1.00E-02,  avg # of iterations =  2.0

[...]

     total energy              =   -1432.65364331 Ry
     estimated scf accuracy    <       3.28428527 Ry

[...]

     iteration #  7     ecut=    55.12 Ry     beta= 0.10
     Davidson diagonalization with overlap
     c_bands:  1 eigenvalues not converged
     ethr =  6.05E-05,  avg # of iterations =  9.0

[...]

     iteration # 13     ecut=    55.12 Ry     beta= 0.10
     Davidson diagonalization with overlap
     c_bands:  2 eigenvalues not converged
     c_bands:  1 eigenvalues not converged
     c_bands:  1 eigenvalues not converged
     c_bands:  1 eigenvalues not converged
     c_bands:  1 eigenvalues not converged
     c_bands:  1 eigenvalues not converged
     ethr =  2.16E-06,  avg # of iterations =  7.1

[...]

     total energy              =   -1433.04103922 Ry
     estimated scf accuracy    <       0.00001246 Ry

     iteration # 22     ecut=    55.12 Ry     beta= 0.10
     Davidson diagonalization with overlap
     ethr =  9.03E-09,  avg # of iterations =  5.1

[...]

     Adding external electric field

     Computed dipole along edir(3) :
        Dipole               -0.0053 Ry au,         -0.0134 Debye
        Dipole field         -0.0000 Ry au,

        Potential amp.        0.0015 Ry
        Total length         44.8391 bohr

     End of self-consistent calculation

          k = 0.0000 0.0000 0.0000 ( 27691 PWs)   bands (ev):

   -71.0053 -70.9714 -70.8470 -70.8236 -70.8139 -70.7903 -42.4227 -42.3521
   -42.3289 -42.3229 -42.2957 -42.2304 -42.2002 -42.1771 -42.1475 -42.1327
   -42.1310 -42.1285 -42.1282 -42.0993 -42.0403 -42.0138 -41.8446 -41.8423
    -7.5292  -5.6235  -5.2315  -5.1878  -4.7718  -4.7258  -4.4569  -4.4561
    -4.3260  -3.9728  -3.9442  -3.8676  -3.7282  -3.6791  -3.0205  -2.9535
    -2.4641  -1.9256  -1.8985  -1.7170  -1.6473  -1.6014  -1.3443  -1.1968
    -1.1193  -1.1009  -0.9576  -0.6364  -0.4886  -0.1625   0.0916   0.2098
     0.2534   0.3090   0.3411   0.3991   0.5970   0.8606   0.9125   0.9886
     1.0650   1.2005   1.3786   1.4744   1.6697   1.7956   1.8916   2.0481
     2.3004   2.3688   2.3927   2.4862   2.4914   2.5166   2.6435   2.6965
     2.7077   2.7387   2.7477

[...]

          k = 0.0787-0.0622 0.0000 ( 27758 PWs)   bands (ev):

[...]

          k =-0.0945 0.0530 0.0000 ( 27740 PWs)   bands (ev):

[...]

          k =-0.0945-0.0553 0.0000 ( 27712 PWs)   bands (ev):

   -71.0048 -70.9712 -70.8467 -70.8232 -70.8137 -70.7901 -42.4256 -42.3584
   -42.3326 -42.3247 -42.2982 -42.2278 -42.1987 -42.1809 -42.1509 -42.1338
   -42.1333 -42.1327 -42.1316 -42.1025 -42.0419 -42.0148 -41.8451 -41.8430
    -6.2862  -5.3964  -4.7841  -4.6166  -4.1613  -4.0923  -3.9197  -3.8554
    -3.6575  -3.6004  -3.1172  -3.0699  -3.0114  -2.9644  -2.7966  -2.7871
    -2.6651  -2.1445  -1.8555  -1.7480  -1.6578  -1.5755  -1.4663  -1.1547
    -1.1271  -1.0918  -0.8764  -0.8172  -0.4542  -0.4084  -0.3468  -0.3433
    -0.2458  -0.2060  -0.1867  -0.1734  -0.0123   0.0328   0.0561   0.1859
     0.2240   0.3428   0.4061   0.5478   0.5744   0.8011   1.1326   1.1475
     1.2153   1.3307   1.3576   1.5523   1.5717   1.7068   1.8507   1.8657
     1.9412   2.0634   2.2767

     the Fermi energy is     1.1004 ev

!    total energy              =   -1433.04103194 Ry
     estimated scf accuracy    <       0.00000446 Ry
     smearing contrib. (-TS)   =      -0.08218790 Ry
     internal energy E=F+TS    =   -1432.95884404 Ry

     The total energy is F=E-TS. E is the sum of the following terms:
     one-electron contribution =  -12081.35224073 Ry
     hartree contribution      =    6068.36363200 Ry
     xc contribution           =    -333.68450276 Ry
     ewald contribution        =    4913.71426735 Ry
     electric field correction =       0.00000009 Ry

     convergence has been achieved in  22 iterations

     negative rho (up, down):  3.092E-03 0.000E+00

     Forces acting on atoms (cartesian axes, Ry/au):

     atom    1 type  1   force =     0.01020349    0.00597442    0.02092872
     atom    2 type  1   force =     0.01022013    0.00598315    0.02093320
     atom    3 type  2   force =    -0.01602849   -0.00937795    0.00902860
     atom    4 type  2   force =    -0.01601803   -0.00939203    0.00901664
     atom    5 type  1   force =     0.00657698    0.00385048   -0.01152999
     atom    6 type  1   force =     0.00662513    0.00387948   -0.01152511
     atom    7 type  2   force =    -0.00161996   -0.00092521   -0.02178227
     atom    8 type  2   force =    -0.00160445   -0.00095817   -0.02178619
     atom    9 type  1   force =     0.00031820    0.00018662    0.00041515
     atom   10 type  1   force =     0.00029818    0.00017340    0.00045576
     atom   11 type  2   force =     0.00052814    0.00028211    0.00292182
     atom   12 type  2   force =     0.00050068    0.00032369    0.00292367

     Total force =     0.058018     Total SCF correction =     0.008536
     SCF correction compared to forces is large: reduce conv_thr to get better values

     Writing output data file ./Cr2Ir2/Cr2Ir2_beef.save/

     General routines

     Parallel routines

   This run was terminated on:  18:57: 9  23Jun2022

   JOB DONE.