     Program PWSCF v.6.6 starts on 23Jun2022 at 16:38:52

     R & G space division:  proc/nbgrp/npool/nimage =      37
     Fft bands division:     nmany     =       1
     Reading input from Cr2La2.in
Warning: card &CELL ignored
Warning: card / ignored

     Current dimensions of program PWSCF are:
     Max number of different atomic species (ntypx) = 10
     Max number of k-points (npk) =  40000
     Max angular momentum in pseudopotentials (lmaxx) =  3
     Presently stress not available with electric field and gates

     Message from routine cell_base_init:
     DEPRECATED: use true lattice parameter, not A to a.u. conversion factor
     file Cr.pbe-spn-rrkjus_psl.1.0.0.UPF: wavefunction(s)  3P renormalized
     file La.pbe-spfn-rrkjus_psl.1.0.0.UPF: wavefunction(s)  4F renormalized

     IMPORTANT: XC functional enforced from input :
     Exchange-correlation= BEEF-VDW
                           (   1   4  43  14   2   0   0)
     Any further DFT definition will be discarded
     Please, verify this is what you really want

     Subspace diagonalization in iterative solution of the eigenvalue problem:
     a serial algorithm will be used

     bravais-lattice index     =            0
     lattice parameter (alat)  =       1.8897  a.u.
     unit-cell volume          =    6051.0583 (a.u.)^3
     number of atoms/cell      =           12
     number of atomic types    =            2
     number of electrons       =       150.00
     number of Kohn-Sham states=           90
     kinetic-energy cutoff     =      55.1240  Ry
     charge density cutoff     =     551.2396  Ry
     convergence threshold     =      1.0E-05
     mixing beta               =       0.1000
     number of iterations used =           10  plain     mixing
     Exchange-correlation= BEEF-VDW
                           (   1   4  43  14   2   0   0)

     celldm(1)=   1.889726  celldm(2)=   0.000000  celldm(3)=   0.000000
     celldm(4)=   0.000000  celldm(5)=   0.000000  celldm(6)=   0.000000

     crystal axes: (cart. coord. in units of alat)
               a(1) = (   6.163705   0.000000   0.000000 )
               a(2) = (   2.053589   5.811543   0.000000 )
               a(3) = (   0.000000   0.000000  25.032344 )

     reciprocal axes: (cart. coord. in units 2 pi/alat)
               b(1) = (  0.162240 -0.057330  0.000000 )
               b(2) = (  0.000000  0.172071  0.000000 )
               b(3) = (  0.000000  0.000000  0.039948 )

     PseudoPot. # 1 for Cr read from file:
     ../pseudo/Cr.pbe-spn-rrkjus_psl.1.0.0.UPF
     MD5 check sum: 793d051e4f89dd1e3290b85340a92c0a
     Pseudo is Ultrasoft + core correction, Zval = 14.0
     Generated using "atomic" code by A. Dal Corso v.6.2.2
     Using radial grid of 1183 points,  6 beta functions with:
                l(1) =   0
                l(2) =   0
                l(3) =   1
                l(4) =   1
                l(5) =   2
                l(6) =   2
     Q(r) pseudized with 0 coefficients

     PseudoPot. # 2 for La read from file:
     ../pseudo/La.pbe-spfn-rrkjus_psl.1.0.0.UPF
     MD5 check sum: e3bc141c2ecb461b8d0a035ce9ac970e
     Pseudo is Ultrasoft + core correction, Zval = 11.0
     Generated using "atomic" code by A. Dal Corso v.6.2.2
     Using radial grid of 1253 points,  8 beta functions with:
                l(1) =   0
                l(2) =   0
                l(3) =   1
                l(4) =   1
                l(5) =   2
                l(6) =   2
                l(7) =   3
                l(8) =   3
     Q(r) pseudized with 0 coefficients

     atomic species   valence    mass     pseudopotential
        Cr            14.00    51.99610     Cr( 1.00)
        La            11.00   138.90547     La( 1.00)

     No symmetry found

   Cartesian axes

     site n.     atom                  positions (alat units)
         1           Cr  tau(   1) = (   0.0000000   0.0000000  10.0000000  )
         2           Cr  tau(   2) = (   4.1086472   2.9057717  10.0000000  )
         3           La  tau(   3) = (   3.0818527   0.0000000  10.0000000  )
         4           La  tau(   4) = (   1.0267945   2.9057717  10.0000000  )
         5           Cr  tau(   5) = (   6.1637054   4.3591772  12.5161721  )
         6           Cr  tau(   6) = (   2.0550583   1.4534054  12.5161721  )
         7           La  tau(   7) = (   3.0818527   4.3591772  12.5161721  )
         8           La  tau(   8) = (   5.1369110   1.4534054  12.5161721  )
         9           Cr  tau(   9) = (   4.1105717   2.9070987  14.3911568  )
        10           Cr  tau(  10) = (   0.0019480   0.0014162  14.3910611  )
        11           La  tau(  11) = (   1.0278922   2.9065875  15.0937928  )
        12           La  tau(  12) = (   3.0829513   0.0007270  15.0938137  )

     number of k points=    74  Fermi-Dirac smearing, width (Ry)=  0.0100
                       cart. coord. in units 2pi/alat
        k(    1) = (   0.0000000   0.0000000   0.0000000), wk =   0.0138889
        k(    2) = (   0.0000000   0.0143393   0.0000000), wk =   0.0277778
        k(    3) = (   0.0000000   0.0286786   0.0000000), wk =   0.0277778
        k(    4) = (   0.0000000   0.0430178   0.0000000), wk =   0.0277778
        k(    5) = (   0.0000000   0.0573571   0.0000000), wk =   0.0277778
        k(    6) = (   0.0000000   0.0716964   0.0000000), wk =   0.0277778
        k(    7) = (   0.0000000  -0.0860357   0.0000000), wk =   0.0138889
        k(    8) = (   0.0135200  -0.0047775   0.0000000), wk =   0.0277778
        k(    9) = (   0.0135200   0.0095618   0.0000000), wk =   0.0277778
        k(   10) = (   0.0135200   0.0239011   0.0000000), wk =   0.0277778
        k(   11) = (   0.0135200   0.0382404   0.0000000), wk =   0.0277778
        k(   12) = (   0.0135200   0.0525796   0.0000000), wk =   0.0277778
        k(   13) = (   0.0135200   0.0669189   0.0000000), wk =   0.0277778
        k(   14) = (   0.0135200  -0.0908132   0.0000000), wk =   0.0277778
        k(   15) = (   0.0135200  -0.0764739   0.0000000), wk =   0.0277778
        k(   16) = (   0.0135200  -0.0621346   0.0000000), wk =   0.0277778
        k(   17) = (   0.0135200  -0.0477953   0.0000000), wk =   0.0277778
        k(   18) = (   0.0135200  -0.0334560   0.0000000), wk =   0.0277778
        k(   19) = (   0.0135200  -0.0191168   0.0000000), wk =   0.0277778
        k(   20) = (   0.0270400  -0.0095550   0.0000000), wk =   0.0277778
        k(   21) = (   0.0270400   0.0047843   0.0000000), wk =   0.0277778
        k(   22) = (   0.0270400   0.0191236   0.0000000), wk =   0.0277778
        k(   23) = (   0.0270400   0.0334629   0.0000000), wk =   0.0277778
        k(   24) = (   0.0270400   0.0478022   0.0000000), wk =   0.0277778
        k(   25) = (   0.0270400   0.0621414   0.0000000), wk =   0.0277778
        k(   26) = (   0.0270400  -0.0955906   0.0000000), wk =   0.0277778
        k(   27) = (   0.0270400  -0.0812514   0.0000000), wk =   0.0277778
        k(   28) = (   0.0270400  -0.0669121   0.0000000), wk =   0.0277778
        k(   29) = (   0.0270400  -0.0525728   0.0000000), wk =   0.0277778
        k(   30) = (   0.0270400  -0.0382335   0.0000000), wk =   0.0277778
        k(   31) = (   0.0270400  -0.0238942   0.0000000), wk =   0.0277778
        k(   32) = (   0.0405600  -0.0143324   0.0000000), wk =   0.0277778
        k(   33) = (   0.0405600   0.0000068   0.0000000), wk =   0.0277778
        k(   34) = (   0.0405600   0.0143461   0.0000000), wk =   0.0277778
        k(   35) = (   0.0405600   0.0286854   0.0000000), wk =   0.0277778
        k(   36) = (   0.0405600   0.0430247   0.0000000), wk =   0.0277778
        k(   37) = (   0.0405600   0.0573639   0.0000000), wk =   0.0277778
        k(   38) = (   0.0405600  -0.1003681   0.0000000), wk =   0.0277778
        k(   39) = (   0.0405600  -0.0860288   0.0000000), wk =   0.0277778
        k(   40) = (   0.0405600  -0.0716896   0.0000000), wk =   0.0277778
        k(   41) = (   0.0405600  -0.0573503   0.0000000), wk =   0.0277778
        k(   42) = (   0.0405600  -0.0430110   0.0000000), wk =   0.0277778
        k(   43) = (   0.0405600  -0.0286717   0.0000000), wk =   0.0277778
        k(   44) = (   0.0540800  -0.0191099   0.0000000), wk =   0.0277778
        k(   45) = (   0.0540800  -0.0047706   0.0000000), wk =   0.0277778
        k(   46) = (   0.0540800   0.0095686   0.0000000), wk =   0.0277778
        k(   47) = (   0.0540800   0.0239079   0.0000000), wk =   0.0277778
        k(   48) = (   0.0540800   0.0382472   0.0000000), wk =   0.0277778
        k(   49) = (   0.0540800   0.0525865   0.0000000), wk =   0.0277778
        k(   50) = (   0.0540800  -0.1051456   0.0000000), wk =   0.0277778
        k(   51) = (   0.0540800  -0.0908063   0.0000000), wk =   0.0277778
        k(   52) = (   0.0540800  -0.0764670   0.0000000), wk =   0.0277778
        k(   53) = (   0.0540800  -0.0621278   0.0000000), wk =   0.0277778
        k(   54) = (   0.0540800  -0.0477885   0.0000000), wk =   0.0277778
        k(   55) = (   0.0540800  -0.0334492   0.0000000), wk =   0.0277778
        k(   56) = (   0.0676000  -0.0238874   0.0000000), wk =   0.0277778
        k(   57) = (   0.0676000  -0.0095481   0.0000000), wk =   0.0277778
        k(   58) = (   0.0676000   0.0047912   0.0000000), wk =   0.0277778
        k(   59) = (   0.0676000   0.0191304   0.0000000), wk =   0.0277778
        k(   60) = (   0.0676000   0.0334697   0.0000000), wk =   0.0277778
        k(   61) = (   0.0676000   0.0478090   0.0000000), wk =   0.0277778
        k(   62) = (   0.0676000  -0.1099231   0.0000000), wk =   0.0277778
        k(   63) = (   0.0676000  -0.0955838   0.0000000), wk =   0.0277778
        k(   64) = (   0.0676000  -0.0812445   0.0000000), wk =   0.0277778
        k(   65) = (   0.0676000  -0.0669052   0.0000000), wk =   0.0277778
        k(   66) = (   0.0676000  -0.0525660   0.0000000), wk =   0.0277778
        k(   67) = (   0.0676000  -0.0382267   0.0000000), wk =   0.0277778
        k(   68) = (  -0.0811200   0.0286649   0.0000000), wk =   0.0138889
        k(   69) = (  -0.0811200   0.0430042   0.0000000), wk =   0.0277778
        k(   70) = (  -0.0811200   0.0573434   0.0000000), wk =   0.0277778
        k(   71) = (  -0.0811200   0.0716827   0.0000000), wk =   0.0277778
        k(   72) = (  -0.0811200   0.0860220   0.0000000), wk =   0.0277778
        k(   73) = (  -0.0811200   0.1003613   0.0000000), wk =   0.0277778
        k(   74) = (  -0.0811200  -0.0573708   0.0000000), wk =   0.0138889

     Check: negative core charge=   -0.000001

     Initial potential from superposition of free atoms

     starting charge  149.81663, renormalised to  150.00000

     negative rho (up, down):  3.630E-03 0.000E+00

     %%%%%%%%%%%%%%%%%%%%%%%%%%%%%%%%%%%%%%%%%%%%%%%%%%%%%%%%%%%%%%%%%%%%%%%%
     %                                                                      %
     % You are using vdW-DF, which was implemented by the Thonhauser group. %
     % Please cite the following two papers that made this development      %
     % possible and the two reviews that describe the various versions:     %
     %                                                                      %
     %   T. Thonhauser et al., PRL 115, 136402 (2015).                      %
     %   T. Thonhauser et al., PRB 76, 125112 (2007).                       %
     %   K. Berland et al., Rep. Prog. Phys. 78, 066501 (2015).             %
     %   D.C. Langreth et al., J. Phys.: Condens. Matter 21, 084203 (2009). %
     %                                                                      %
     %                                                                      %
     % If you are calculating the stress with vdW-DF, please also cite:     %
     %                                                                      %
     %   R. Sabatini et al., J. Phys.: Condens. Matter 24, 424209 (2012).   %
     %                                                                      %
     %%%%%%%%%%%%%%%%%%%%%%%%%%%%%%%%%%%%%%%%%%%%%%%%%%%%%%%%%%%%%%%%%%%%%%%%

     Adding external electric field

     Computed dipole along edir(3) :
        Dipole                0.0435 Ry au,          0.1104 Debye
        Dipole field          0.0001 Ry au,

        Potential amp.       -0.0083 Ry
        Total length         46.1217 bohr

     Starting wfcs are  180 randomized atomic wfcs

     Self-consistent Calculation

     iteration #  1     ecut=    55.12 Ry     beta= 0.10
     Davidson diagonalization with overlap
     ethr =  1.00E-02,  avg # of iterations =  2.0

[...]

     total energy              =   -1811.87226609 Ry
     estimated scf accuracy    <      41.16381360 Ry

[...]

     iteration #  6     ecut=    55.12 Ry     beta= 0.10
     Davidson diagonalization with overlap
     c_bands:  1 eigenvalues not converged
     ethr =  1.45E-03,  avg # of iterations = 11.7

[...]

     iteration # 28     ecut=    55.12 Ry     beta= 0.10
     Davidson diagonalization with overlap
     c_bands:  1 eigenvalues not converged
     ethr =  6.72E-07,  avg # of iterations =  1.5

[...]

     total energy              =   -1817.88367863 Ry
     estimated scf accuracy    <       0.00005272 Ry

     iteration # 34     ecut=    55.12 Ry     beta= 0.10
     Davidson diagonalization with overlap
     ethr =  3.51E-08,  avg # of iterations =  5.1

[...]

     Adding external electric field

     Computed dipole along edir(3) :
        Dipole                0.2334 Ry au,          0.5933 Debye
        Dipole field          0.0005 Ry au,

        Potential amp.       -0.0447 Ry
        Total length         46.1217 bohr

     End of self-consistent calculation

          k = 0.0000 0.0000 0.0000 ( 41899 PWs)   bands (ev):

   -69.6003 -69.5995 -69.5077 -69.5071 -69.4273 -69.4265 -40.9942 -40.9929
   -40.8738 -40.8706 -40.8681 -40.8603 -40.8599 -40.8599 -40.8593 -40.8466
   -40.8103 -40.7893 -40.7751 -40.7706 -40.7692 -40.7691 -40.7451 -40.7430
   -30.8929 -30.7757 -30.6187 -30.4979 -29.7125 -29.5976 -15.1438 -14.9209
   -14.7501 -14.6262 -14.6240 -14.5665 -14.5162 -14.4013 -14.3650 -14.3167
   -14.2959 -14.0447 -13.8039 -13.6788 -13.4862 -13.4652 -13.3071 -13.1090
    -1.8562  -1.1274  -1.0501  -0.8793  -0.6746  -0.3544  -0.0911  -0.0229
     0.1949   0.3975   0.4339   0.6515   0.7234   0.9230   0.9900   1.1260
     1.1537   1.1783   1.1845   1.3075   1.4162   1.4456   1.4814   1.7072
     1.7329   1.9259   1.9654   1.9915   2.1228   2.1342   2.2934   2.3364
     2.4306   2.4951   2.7323   2.7448   2.7494   2.7955   2.9653   3.0563
     3.0836   3.2987

[...]

          k = 0.0676-0.0382 0.0000 ( 41861 PWs)   bands (ev):

[...]

          k =-0.0811 0.0287 0.0000 ( 41832 PWs)   bands (ev):

[...]

          k =-0.0811-0.0574 0.0000 ( 41834 PWs)   bands (ev):

   -69.6003 -69.5996 -69.5077 -69.5071 -69.4273 -69.4265 -40.9950 -40.9927
   -40.8744 -40.8696 -40.8690 -40.8616 -40.8605 -40.8596 -40.8576 -40.8466
   -40.8101 -40.7894 -40.7745 -40.7711 -40.7695 -40.7691 -40.7447 -40.7436
   -30.8869 -30.7771 -30.6094 -30.4998 -29.7134 -29.5908 -15.1721 -14.9641
   -14.8052 -14.7830 -14.6004 -14.5122 -14.5084 -14.4983 -14.3569 -14.3058
   -14.2783 -14.0469 -13.8087 -13.5811 -13.5343 -13.4899 -13.3591 -13.1272
    -0.1019  -0.0754  -0.0600   0.0159   0.3268   0.3493   0.4743   0.5559
     0.6649   0.6763   0.8406   0.8612   0.9048   0.9739   1.0612   1.1594
     1.2388   1.3040   1.3373   1.3503   1.3972   1.4313   1.4799   1.5635
     1.6061   1.6477   1.8143   1.8264   1.8674   1.9092   1.9198   1.9270
     1.9291   1.9943   2.0239   2.1101   2.2039   2.4329   2.4961   2.7654
     2.8251   2.9092

     the Fermi energy is     1.8128 ev

!    total energy              =   -1817.88368139 Ry
     estimated scf accuracy    <       0.00000872 Ry
     smearing contrib. (-TS)   =      -0.13914774 Ry
     internal energy E=F+TS    =   -1817.74453366 Ry

     The total energy is F=E-TS. E is the sum of the following terms:
     one-electron contribution =   -9754.88529876 Ry
     hartree contribution      =    4885.42609340 Ry
     xc contribution           =    -587.07086238 Ry
     ewald contribution        =    3638.78542092 Ry
     electric field correction =       0.00011315 Ry

     convergence has been achieved in  34 iterations

     negative rho (up, down):  2.911E-03 0.000E+00

     Forces acting on atoms (cartesian axes, Ry/au):

     atom    1 type  1   force =    -0.00002093   -0.00000454    0.03465272
     atom    2 type  1   force =    -0.00004294   -0.00004024    0.03488256
     atom    3 type  2   force =     0.00000734    0.00006866   -0.02894687
     atom    4 type  2   force =     0.00006395   -0.00001605   -0.02894944
     atom    5 type  1   force =    -0.00004164   -0.00001679    0.02532731
     atom    6 type  1   force =    -0.00002184   -0.00001426    0.02533626
     atom    7 type  2   force =    -0.00004979    0.00003142   -0.02881673
     atom    8 type  2   force =     0.00000029   -0.00006611   -0.02882787
     atom    9 type  1   force =     0.00001183   -0.00000308   -0.00157150
     atom   10 type  1   force =     0.00005222    0.00003555   -0.00158717
     atom   11 type  2   force =     0.00004870   -0.00003053   -0.00074899
     atom   12 type  2   force =    -0.00000718    0.00005597   -0.00075027

     Total force =     0.083932     Total SCF correction =     0.010608
     SCF correction compared to forces is large: reduce conv_thr to get better values

     Writing output data file ./Cr2La2/Cr2La2_beef.save/

     General routines

     Parallel routines

   This run was terminated on:  21:14:54  23Jun2022

   JOB DONE.