     Program PWSCF v.6.6 starts on 27Jun2022 at  7:15:10

     R & G space division:  proc/nbgrp/npool/nimage =      37
     Fft bands division:     nmany     =       1
     Reading input from Cr2Mn2.in
Warning: card &CELL ignored
Warning: card / ignored

     Current dimensions of program PWSCF are:
     Max number of different atomic species (ntypx) = 10
     Max number of k-points (npk) =  40000
     Max angular momentum in pseudopotentials (lmaxx) =  3
     Presently stress not available with electric field and gates

     Message from routine cell_base_init:
     DEPRECATED: use true lattice parameter, not A to a.u. conversion factor
     file Cr.pbe-spn-rrkjus_psl.1.0.0.UPF: wavefunction(s)  3P renormalized
     file Mn.pbe-spn-rrkjus_psl.0.3.1.UPF: wavefunction(s)  3D renormalized

     IMPORTANT: XC functional enforced from input :
     Exchange-correlation= BEEF-VDW
                           (   1   4  43  14   2   0   0)
     Any further DFT definition will be discarded
     Please, verify this is what you really want

     Subspace diagonalization in iterative solution of the eigenvalue problem:
     a serial algorithm will be used

     bravais-lattice index     =            0
     lattice parameter (alat)  =       1.8897  a.u.
     unit-cell volume          =    3642.5004 (a.u.)^3
     number of atoms/cell      =           12
     number of atomic types    =            2
     number of electrons       =       174.00
     number of Kohn-Sham states=          104
     kinetic-energy cutoff     =      55.1240  Ry
     charge density cutoff     =     551.2396  Ry
     convergence threshold     =      1.0E-05
     mixing beta               =       0.1000
     number of iterations used =           10  plain     mixing
     Exchange-correlation= BEEF-VDW
                           (   1   4  43  14   2   0   0)

     celldm(1)=   1.889726  celldm(2)=   0.000000  celldm(3)=   0.000000
     celldm(4)=   0.000000  celldm(5)=   0.000000  celldm(6)=   0.000000

     crystal axes: (cart. coord. in units of alat)
               a(1) = (   4.885183   0.000000   0.000000 )
               a(2) = (   1.628024   4.605926   0.000000 )
               a(3) = (   0.000000   0.000000  23.988622 )

     reciprocal axes: (cart. coord. in units 2 pi/alat)
               b(1) = (  0.204701 -0.072354  0.000000 )
               b(2) = (  0.000000  0.217112  0.000000 )
               b(3) = (  0.000000  0.000000  0.041686 )

     PseudoPot. # 1 for Cr read from file:
     ../pseudo/Cr.pbe-spn-rrkjus_psl.1.0.0.UPF
     MD5 check sum: 793d051e4f89dd1e3290b85340a92c0a
     Pseudo is Ultrasoft + core correction, Zval = 14.0
     Generated using "atomic" code by A. Dal Corso v.6.2.2
     Using radial grid of 1183 points,  6 beta functions with:
                l(1) =   0
                l(2) =   0
                l(3) =   1
                l(4) =   1
                l(5) =   2
                l(6) =   2
     Q(r) pseudized with 0 coefficients

     PseudoPot. # 2 for Mn read from file:
     ../pseudo/Mn.pbe-spn-rrkjus_psl.0.3.1.UPF
     MD5 check sum: e1cac159bdd2ba70c18e85765a5d4279
     Pseudo is Ultrasoft + core correction, Zval = 15.0
     Generated using "atomic" code by A. Dal Corso v.6.2.2
     Using radial grid of 1187 points,  6 beta functions with:
                l(1) =   0
                l(2) =   0
                l(3) =   1
                l(4) =   1
                l(5) =   2
                l(6) =   2
     Q(r) pseudized with 0 coefficients

     atomic species   valence    mass     pseudopotential
        Cr            14.00    51.99610     Cr( 1.00)
        Mn            15.00    54.93804     Mn( 1.00)

     Starting magnetic structure
     atomic species   magnetization
        Cr           0.000
        Mn           0.667

     No symmetry found

   Cartesian axes

     site n.     atom                  positions (alat units)
         1           Cr  tau(   1) = (   0.0000000   0.0000000  10.0000000  )
         2           Cr  tau(   2) = (   3.2566036   2.3029631  10.0000000  )
         3           Mn  tau(   3) = (   2.4425917   0.0000000  10.0000000  )
         4           Mn  tau(   4) = (   0.8140119   2.3029631  10.0000000  )
         5           Cr  tau(   5) = (   4.8851834   3.4546412  11.9943110  )
         6           Cr  tau(   6) = (   1.6285798   1.1516782  11.9943110  )
         7           Mn  tau(   7) = (   2.4425917   3.4546412  11.9943110  )
         8           Mn  tau(   8) = (   4.0711715   1.1516782  11.9943110  )
         9           Cr  tau(   9) = (   3.2570339   2.3032413  13.9894551  )
        10           Cr  tau(  10) = (   0.0003672   0.0002855  13.9894305  )
        11           Mn  tau(  11) = (   0.8144909   2.3032437  13.8671358  )
        12           Mn  tau(  12) = (   2.4429455   0.0003138  13.8671746  )

     number of k points=    74  Fermi-Dirac smearing, width (Ry)=  0.0100
                       cart. coord. in units 2pi/alat
        k(    1) = (   0.0000000   0.0000000   0.0000000), wk =   0.0069444
        k(    2) = (   0.0000000   0.0180926   0.0000000), wk =   0.0138889
        k(    3) = (   0.0000000   0.0361853   0.0000000), wk =   0.0138889
        k(    4) = (   0.0000000   0.0542779   0.0000000), wk =   0.0138889
        k(    5) = (   0.0000000   0.0723705   0.0000000), wk =   0.0138889
        k(    6) = (   0.0000000   0.0904632   0.0000000), wk =   0.0138889
        k(    7) = (   0.0000000  -0.1085558   0.0000000), wk =   0.0069444
        k(    8) = (   0.0170584  -0.0060295   0.0000000), wk =   0.0138889
        k(    9) = (   0.0170584   0.0120631   0.0000000), wk =   0.0138889
        k(   10) = (   0.0170584   0.0301558   0.0000000), wk =   0.0138889
        k(   11) = (   0.0170584   0.0482484   0.0000000), wk =   0.0138889
        k(   12) = (   0.0170584   0.0663410   0.0000000), wk =   0.0138889
        k(   13) = (   0.0170584   0.0844337   0.0000000), wk =   0.0138889
        k(   14) = (   0.0170584  -0.1145853   0.0000000), wk =   0.0138889
        k(   15) = (   0.0170584  -0.0964927   0.0000000), wk =   0.0138889
        k(   16) = (   0.0170584  -0.0784000   0.0000000), wk =   0.0138889
        k(   17) = (   0.0170584  -0.0603074   0.0000000), wk =   0.0138889
        k(   18) = (   0.0170584  -0.0422148   0.0000000), wk =   0.0138889
        k(   19) = (   0.0170584  -0.0241221   0.0000000), wk =   0.0138889
        k(   20) = (   0.0341168  -0.0120590   0.0000000), wk =   0.0138889
        k(   21) = (   0.0341168   0.0060336   0.0000000), wk =   0.0138889
        k(   22) = (   0.0341168   0.0241263   0.0000000), wk =   0.0138889
        k(   23) = (   0.0341168   0.0422189   0.0000000), wk =   0.0138889
        k(   24) = (   0.0341168   0.0603115   0.0000000), wk =   0.0138889
        k(   25) = (   0.0341168   0.0784042   0.0000000), wk =   0.0138889
        k(   26) = (   0.0341168  -0.1206148   0.0000000), wk =   0.0138889
        k(   27) = (   0.0341168  -0.1025222   0.0000000), wk =   0.0138889
        k(   28) = (   0.0341168  -0.0844295   0.0000000), wk =   0.0138889
        k(   29) = (   0.0341168  -0.0663369   0.0000000), wk =   0.0138889
        k(   30) = (   0.0341168  -0.0482443   0.0000000), wk =   0.0138889
        k(   31) = (   0.0341168  -0.0301516   0.0000000), wk =   0.0138889
        k(   32) = (   0.0511752  -0.0180885   0.0000000), wk =   0.0138889
        k(   33) = (   0.0511752   0.0000041   0.0000000), wk =   0.0138889
        k(   34) = (   0.0511752   0.0180967   0.0000000), wk =   0.0138889
        k(   35) = (   0.0511752   0.0361894   0.0000000), wk =   0.0138889
        k(   36) = (   0.0511752   0.0542820   0.0000000), wk =   0.0138889
        k(   37) = (   0.0511752   0.0723747   0.0000000), wk =   0.0138889
        k(   38) = (   0.0511752  -0.1266443   0.0000000), wk =   0.0138889
        k(   39) = (   0.0511752  -0.1085517   0.0000000), wk =   0.0138889
        k(   40) = (   0.0511752  -0.0904591   0.0000000), wk =   0.0138889
        k(   41) = (   0.0511752  -0.0723664   0.0000000), wk =   0.0138889
        k(   42) = (   0.0511752  -0.0542738   0.0000000), wk =   0.0138889
        k(   43) = (   0.0511752  -0.0361812   0.0000000), wk =   0.0138889
        k(   44) = (   0.0682335  -0.0241180   0.0000000), wk =   0.0138889
        k(   45) = (   0.0682335  -0.0060254   0.0000000), wk =   0.0138889
        k(   46) = (   0.0682335   0.0120672   0.0000000), wk =   0.0138889
        k(   47) = (   0.0682335   0.0301599   0.0000000), wk =   0.0138889
        k(   48) = (   0.0682335   0.0482525   0.0000000), wk =   0.0138889
        k(   49) = (   0.0682335   0.0663451   0.0000000), wk =   0.0138889
        k(   50) = (   0.0682335  -0.1326738   0.0000000), wk =   0.0138889
        k(   51) = (   0.0682335  -0.1145812   0.0000000), wk =   0.0138889
        k(   52) = (   0.0682335  -0.0964886   0.0000000), wk =   0.0138889
        k(   53) = (   0.0682335  -0.0783959   0.0000000), wk =   0.0138889
        k(   54) = (   0.0682335  -0.0603033   0.0000000), wk =   0.0138889
        k(   55) = (   0.0682335  -0.0422107   0.0000000), wk =   0.0138889
        k(   56) = (   0.0852919  -0.0301475   0.0000000), wk =   0.0138889
        k(   57) = (   0.0852919  -0.0120549   0.0000000), wk =   0.0138889
        k(   58) = (   0.0852919   0.0060377   0.0000000), wk =   0.0138889
        k(   59) = (   0.0852919   0.0241304   0.0000000), wk =   0.0138889
        k(   60) = (   0.0852919   0.0422230   0.0000000), wk =   0.0138889
        k(   61) = (   0.0852919   0.0603156   0.0000000), wk =   0.0138889
        k(   62) = (   0.0852919  -0.1387033   0.0000000), wk =   0.0138889
        k(   63) = (   0.0852919  -0.1206107   0.0000000), wk =   0.0138889
        k(   64) = (   0.0852919  -0.1025181   0.0000000), wk =   0.0138889
        k(   65) = (   0.0852919  -0.0844254   0.0000000), wk =   0.0138889
        k(   66) = (   0.0852919  -0.0663328   0.0000000), wk =   0.0138889
        k(   67) = (   0.0852919  -0.0482402   0.0000000), wk =   0.0138889
        k(   68) = (  -0.1023503   0.0361770   0.0000000), wk =   0.0069444
        k(   69) = (  -0.1023503   0.0542697   0.0000000), wk =   0.0138889
        k(   70) = (  -0.1023503   0.0723623   0.0000000), wk =   0.0138889
        k(   71) = (  -0.1023503   0.0904549   0.0000000), wk =   0.0138889
        k(   72) = (  -0.1023503   0.1085476   0.0000000), wk =   0.0138889
        k(   73) = (  -0.1023503   0.1266402   0.0000000), wk =   0.0138889
        k(   74) = (  -0.1023503  -0.0723788   0.0000000), wk =   0.0069444

     Check: negative core charge=   -0.000005
     Generating pointlists ...
     new r_m :   0.9671 (alat units)  1.8275 (a.u.) for type    1
     new r_m :   0.9671 (alat units)  1.8275 (a.u.) for type    2

     Initial potential from superposition of free atoms

     starting charge  173.99237, renormalised to  174.00000

     %%%%%%%%%%%%%%%%%%%%%%%%%%%%%%%%%%%%%%%%%%%%%%%%%%%%%%%%%%%%%%%%%%%%%%%%
     %                                                                      %
     % You are using vdW-DF, which was implemented by the Thonhauser group. %
     % Please cite the following two papers that made this development      %
     % possible and the two reviews that describe the various versions:     %
     %                                                                      %
     %   T. Thonhauser et al., PRL 115, 136402 (2015).                      %
     %   T. Thonhauser et al., PRB 76, 125112 (2007).                       %
     %   K. Berland et al., Rep. Prog. Phys. 78, 066501 (2015).             %
     %   D.C. Langreth et al., J. Phys.: Condens. Matter 21, 084203 (2009). %
     %                                                                      %
     %                                                                      %
     % If you are calculating the stress with vdW-DF, please also cite:     %
     %                                                                      %
     %   R. Sabatini et al., J. Phys.: Condens. Matter 24, 424209 (2012).   %
     %                                                                      %
     %%%%%%%%%%%%%%%%%%%%%%%%%%%%%%%%%%%%%%%%%%%%%%%%%%%%%%%%%%%%%%%%%%%%%%%%

     Adding external electric field

     Computed dipole along edir(3) :
        Dipole                0.0001 Ry au,          0.0002 Debye
        Dipole field          0.0000 Ry au,

        Potential amp.       -0.0000 Ry
        Total length         44.1986 bohr

[...]

     Starting wfcs are  120 randomized atomic wfcs

     Self-consistent Calculation

     iteration #  1     ecut=    55.12 Ry     beta= 0.10
     Davidson diagonalization with overlap
     ethr =  1.00E-02,  avg # of iterations =  3.5

[...]

     total energy              =   -2338.52721277 Ry
     estimated scf accuracy    <      15.59971952 Ry

     total magnetization       =    24.65 Bohr mag/cell
     absolute magnetization    =    28.57 Bohr mag/cell

[...]

     iteration # 13     ecut=    55.12 Ry     beta= 0.10
     Davidson diagonalization with overlap
     c_bands:  1 eigenvalues not converged
     ethr =  1.27E-04,  avg # of iterations =  6.0

[...]

     iteration # 28     ecut=    55.12 Ry     beta= 0.10
     Davidson diagonalization with overlap
     c_bands:  1 eigenvalues not converged
     ethr =  7.87E-08,  avg # of iterations =  4.9

[...]

     total energy              =   -2345.50785245 Ry
     estimated scf accuracy    <       0.00001216 Ry

[...]

     iteration # 36     ecut=    55.12 Ry     beta= 0.10
     Davidson diagonalization with overlap
     ethr =  6.99E-09,  avg # of iterations =  6.3

[...]

     Adding external electric field

     Computed dipole along edir(3) :
        Dipole                0.0128 Ry au,          0.0325 Debye
        Dipole field          0.0000 Ry au,

        Potential amp.       -0.0039 Ry
        Total length         44.1986 bohr

     Magnetic moment per site:
     atom:    1    charge:   11.9029    magn:   -2.3188    constr:    0.0000
     atom:    2    charge:   11.9033    magn:   -2.3189    constr:    0.0000
     atom:    3    charge:   13.0438    magn:    2.5586    constr:    0.0000
     atom:    4    charge:   13.0438    magn:    2.5586    constr:    0.0000
     atom:    5    charge:   11.9816    magn:   -1.1768    constr:    0.0000
     atom:    6    charge:   11.9815    magn:   -1.1764    constr:    0.0000
     atom:    7    charge:   13.1214    magn:    1.7085    constr:    0.0000
     atom:    8    charge:   13.1220    magn:    1.7085    constr:    0.0000
     atom:    9    charge:   11.8993    magn:   -2.2606    constr:    0.0000
     atom:   10    charge:   11.8990    magn:   -2.2605    constr:    0.0000
     atom:   11    charge:   13.0808    magn:    2.3351    constr:    0.0000
     atom:   12    charge:   13.0808    magn:    2.3352    constr:    0.0000

     End of self-consistent calculation

     Number of k-points >= 100: set verbosity='high' to print the bands.

     the Fermi energy is     1.2930 ev

!    total energy              =   -2343.86825978 Ry
     estimated scf accuracy    <       0.00000830 Ry
     smearing contrib. (-TS)   =      -0.06298839 Ry
     internal energy E=F+TS    =   -2343.80527139 Ry

     The total energy is F=E-TS. E is the sum of the following terms:
     one-electron contribution =  -21689.73014966 Ry
     hartree contribution      =   10837.97370459 Ry
     xc contribution           =    -314.12737756 Ry
     ewald contribution        =    8822.07855067 Ry
     electric field correction =       0.00000056 Ry

     total magnetization       =     0.69 Bohr mag/cell
     absolute magnetization    =    27.52 Bohr mag/cell

     convergence has been achieved in  36 iterations

     Forces acting on atoms (cartesian axes, Ry/au):

     atom    1 type  1   force =    -0.00001347    0.00005045   -0.02656184
     atom    2 type  1   force =     0.00004901   -0.00002483   -0.02652080
     atom    3 type  2   force =    -0.00006888   -0.00003003   -0.02244330
     atom    4 type  2   force =     0.00010057    0.00005085   -0.02244230
     atom    5 type  1   force =    -0.00003705   -0.00002100   -0.01743366
     atom    6 type  1   force =     0.00001011    0.00000262   -0.01743953
     atom    7 type  2   force =    -0.00010276    0.00013023   -0.00513910
     atom    8 type  2   force =     0.00009444   -0.00013305   -0.00513398
     atom    9 type  1   force =     0.00002983   -0.00003702    0.02702239
     atom   10 type  1   force =    -0.00003119    0.00003397    0.02703276
     atom   11 type  2   force =     0.00006481    0.00004269    0.04454795
     atom   12 type  2   force =    -0.00009542   -0.00006487    0.04451141

     Total force =     0.092217     Total SCF correction =     0.012362
     SCF correction compared to forces is large: reduce conv_thr to get better values

     Writing output data file ./Cr2Mn2/Cr2Mn2_beef.save/

     General routines

     Parallel routines

   This run was terminated on:  10:35:51  27Jun2022

   JOB DONE.