     Program PWSCF v.6.6 starts on 10Jul2022 at 17: 2:39

     R & G space division:  proc/nbgrp/npool/nimage =      37
     Fft bands division:     nmany     =       1
     Reading input from Cr2Mo2.in
Warning: card &CELL ignored
Warning: card / ignored

     Current dimensions of program PWSCF are:
     Max number of different atomic species (ntypx) = 10
     Max number of k-points (npk) =  40000
     Max angular momentum in pseudopotentials (lmaxx) =  3
     Presently stress not available with electric field and gates

     Message from routine cell_base_init:
     DEPRECATED: use true lattice parameter, not A to a.u. conversion factor
     file Cr.pbe-spn-rrkjus_psl.1.0.0.UPF: wavefunction(s)  3P renormalized
     file Mo.pbe-spn-rrkjus_psl.1.0.0.UPF: wavefunction(s)  4S renormalized

     IMPORTANT: XC functional enforced from input :
     Exchange-correlation= BEEF-VDW
                           (   1   4  43  14   2   0   0)
     Any further DFT definition will be discarded
     Please, verify this is what you really want

     Subspace diagonalization in iterative solution of the eigenvalue problem:
     a serial algorithm will be used

     Found symmetry operation: I + (  0.5000  0.0000  0.0000)
     This is a supercell, fractional translations are disabled

     bravais-lattice index     =            0
     lattice parameter (alat)  =       1.8897  a.u.
     unit-cell volume          =    4255.2482 (a.u.)^3
     number of atoms/cell      =           12
     number of atomic types    =            2
     number of electrons       =       168.00
     number of Kohn-Sham states=          101
     kinetic-energy cutoff     =      55.1240  Ry
     charge density cutoff     =     551.2396  Ry
     convergence threshold     =      1.0E-05
     mixing beta               =       0.1000
     number of iterations used =           10  plain     mixing
     Exchange-correlation= BEEF-VDW
                           (   1   4  43  14   2   0   0)

     celldm(1)=   1.889726  celldm(2)=   0.000000  celldm(3)=   0.000000
     celldm(4)=   0.000000  celldm(5)=   0.000000  celldm(6)=   0.000000

     crystal axes: (cart. coord. in units of alat)
               a(1) = (   5.092956   0.000000   0.000000 )
               a(2) = (  -2.546478   5.073196   0.000000 )
               a(3) = (   0.000000   0.000000  24.404888 )

     reciprocal axes: (cart. coord. in units 2 pi/alat)
               b(1) = (  0.196350  0.098557 -0.000000 )
               b(2) = (  0.000000  0.197114  0.000000 )
               b(3) = (  0.000000 -0.000000  0.040975 )

     PseudoPot. # 1 for Cr read from file:
     ../pseudo/Cr.pbe-spn-rrkjus_psl.1.0.0.UPF
     MD5 check sum: 793d051e4f89dd1e3290b85340a92c0a
     Pseudo is Ultrasoft + core correction, Zval = 14.0
     Generated using "atomic" code by A. Dal Corso v.6.2.2
     Using radial grid of 1183 points,  6 beta functions with:
                l(1) =   0
                l(2) =   0
                l(3) =   1
                l(4) =   1
                l(5) =   2
                l(6) =   2
     Q(r) pseudized with 0 coefficients

     PseudoPot. # 2 for Mo read from file:
     ../pseudo/Mo.pbe-spn-rrkjus_psl.1.0.0.UPF
     MD5 check sum: 03f09b12e49601d1a456a78ce8b2d514
     Pseudo is Ultrasoft + core correction, Zval = 14.0
     Generated using "atomic" code by A. Dal Corso v.6.3
     Using radial grid of 1229 points,  6 beta functions with:
                l(1) =   0
                l(2) =   0
                l(3) =   1
                l(4) =   1
                l(5) =   2
                l(6) =   2
     Q(r) pseudized with 0 coefficients

     atomic species   valence    mass     pseudopotential
        Cr            14.00    51.99610     Cr( 1.00)
        Mo            14.00    95.95000     Mo( 1.00)

     No symmetry found

   Cartesian axes

     site n.     atom                  positions (alat units)
         1           Cr  tau(   1) = (   0.0000000   0.0000000  10.0000000  )
         2           Cr  tau(   2) = (   2.5464778   0.0000000  10.0000000  )
         3           Mo  tau(   3) = (   1.2732389   2.5365980  10.0000000  )
         4           Mo  tau(   4) = (  -1.2732389   2.5365980  10.0000000  )
         5           Cr  tau(   5) = (   2.5464778   1.2781980  12.2024438  )
         6           Cr  tau(   6) = (  -0.0000000   1.2781980  12.2024438  )
         7           Mo  tau(   7) = (  -1.2732389   3.8147960  12.2024438  )
         8           Mo  tau(   8) = (   1.2732389   3.8147960  12.2024438  )
         9           Cr  tau(   9) = (   0.0004959   2.4263227  14.2132523  )
        10           Cr  tau(  10) = (   2.5469737   2.4263155  14.2132151  )
        11           Mo  tau(  11) = (   1.2735585   5.0691457  14.4394402  )
        12           Mo  tau(  12) = (  -1.2729322   5.0691449  14.4394406  )

     number of k points=    74  Fermi-Dirac smearing, width (Ry)=  0.0100
                       cart. coord. in units 2pi/alat
        k(    1) = (   0.0000000   0.0000000   0.0000000), wk =   0.0138889
        k(    2) = (   0.0000000   0.0164262   0.0000000), wk =   0.0277778
        k(    3) = (   0.0000000   0.0328524   0.0000000), wk =   0.0277778
        k(    4) = (   0.0000000   0.0492786   0.0000000), wk =   0.0277778
        k(    5) = (   0.0000000   0.0657048   0.0000000), wk =   0.0277778
        k(    6) = (   0.0000000   0.0821310   0.0000000), wk =   0.0277778
        k(    7) = (   0.0000000  -0.0985572   0.0000000), wk =   0.0138889
        k(    8) = (   0.0163625   0.0082131   0.0000000), wk =   0.0277778
        k(    9) = (   0.0163625   0.0246393   0.0000000), wk =   0.0277778
        k(   10) = (   0.0163625   0.0410655   0.0000000), wk =   0.0277778
        k(   11) = (   0.0163625   0.0574917   0.0000000), wk =   0.0277778
        k(   12) = (   0.0163625   0.0739179   0.0000000), wk =   0.0277778
        k(   13) = (   0.0163625   0.0903441   0.0000000), wk =   0.0277778
        k(   14) = (   0.0163625  -0.0903441   0.0000000), wk =   0.0277778
        k(   15) = (   0.0163625  -0.0739179   0.0000000), wk =   0.0277778
        k(   16) = (   0.0163625  -0.0574917   0.0000000), wk =   0.0277778
        k(   17) = (   0.0163625  -0.0410655   0.0000000), wk =   0.0277778
        k(   18) = (   0.0163625  -0.0246393   0.0000000), wk =   0.0277778
        k(   19) = (   0.0163625  -0.0082131   0.0000000), wk =   0.0277778
        k(   20) = (   0.0327249   0.0164262   0.0000000), wk =   0.0277778
        k(   21) = (   0.0327249   0.0328524   0.0000000), wk =   0.0277778
        k(   22) = (   0.0327249   0.0492786   0.0000000), wk =   0.0277778
        k(   23) = (   0.0327249   0.0657048   0.0000000), wk =   0.0277778
        k(   24) = (   0.0327249   0.0821310   0.0000000), wk =   0.0277778
        k(   25) = (   0.0327249   0.0985572   0.0000000), wk =   0.0277778
        k(   26) = (   0.0327249  -0.0821310   0.0000000), wk =   0.0277778
        k(   27) = (   0.0327249  -0.0657048   0.0000000), wk =   0.0277778
        k(   28) = (   0.0327249  -0.0492786   0.0000000), wk =   0.0277778
        k(   29) = (   0.0327249  -0.0328524   0.0000000), wk =   0.0277778
        k(   30) = (   0.0327249  -0.0164262   0.0000000), wk =   0.0277778
        k(   31) = (   0.0327249  -0.0000000   0.0000000), wk =   0.0277778
        k(   32) = (   0.0490874   0.0246393   0.0000000), wk =   0.0277778
        k(   33) = (   0.0490874   0.0410655   0.0000000), wk =   0.0277778
        k(   34) = (   0.0490874   0.0574917   0.0000000), wk =   0.0277778
        k(   35) = (   0.0490874   0.0739179   0.0000000), wk =   0.0277778
        k(   36) = (   0.0490874   0.0903441   0.0000000), wk =   0.0277778
        k(   37) = (   0.0490874   0.1067703   0.0000000), wk =   0.0277778
        k(   38) = (   0.0490874  -0.0739179   0.0000000), wk =   0.0277778
        k(   39) = (   0.0490874  -0.0574917   0.0000000), wk =   0.0277778
        k(   40) = (   0.0490874  -0.0410655   0.0000000), wk =   0.0277778
        k(   41) = (   0.0490874  -0.0246393   0.0000000), wk =   0.0277778
        k(   42) = (   0.0490874  -0.0082131   0.0000000), wk =   0.0277778
        k(   43) = (   0.0490874   0.0082131   0.0000000), wk =   0.0277778
        k(   44) = (   0.0654499   0.0328524   0.0000000), wk =   0.0277778
        k(   45) = (   0.0654499   0.0492786   0.0000000), wk =   0.0277778
        k(   46) = (   0.0654499   0.0657048   0.0000000), wk =   0.0277778
        k(   47) = (   0.0654499   0.0821310   0.0000000), wk =   0.0277778
        k(   48) = (   0.0654499   0.0985572   0.0000000), wk =   0.0277778
        k(   49) = (   0.0654499   0.1149834   0.0000000), wk =   0.0277778
        k(   50) = (   0.0654499  -0.0657048   0.0000000), wk =   0.0277778
        k(   51) = (   0.0654499  -0.0492786   0.0000000), wk =   0.0277778
        k(   52) = (   0.0654499  -0.0328524   0.0000000), wk =   0.0277778
        k(   53) = (   0.0654499  -0.0164262   0.0000000), wk =   0.0277778
        k(   54) = (   0.0654499   0.0000000   0.0000000), wk =   0.0277778
        k(   55) = (   0.0654499   0.0164262   0.0000000), wk =   0.0277778
        k(   56) = (   0.0818123   0.0410655   0.0000000), wk =   0.0277778
        k(   57) = (   0.0818123   0.0574917   0.0000000), wk =   0.0277778
        k(   58) = (   0.0818123   0.0739179   0.0000000), wk =   0.0277778
        k(   59) = (   0.0818123   0.0903441   0.0000000), wk =   0.0277778
        k(   60) = (   0.0818123   0.1067703   0.0000000), wk =   0.0277778
        k(   61) = (   0.0818123   0.1231965   0.0000000), wk =   0.0277778
        k(   62) = (   0.0818123  -0.0574917   0.0000000), wk =   0.0277778
        k(   63) = (   0.0818123  -0.0410655   0.0000000), wk =   0.0277778
        k(   64) = (   0.0818123  -0.0246393   0.0000000), wk =   0.0277778
        k(   65) = (   0.0818123  -0.0082131   0.0000000), wk =   0.0277778
        k(   66) = (   0.0818123   0.0082131   0.0000000), wk =   0.0277778
        k(   67) = (   0.0818123   0.0246393   0.0000000), wk =   0.0277778
        k(   68) = (  -0.0981748  -0.0492786   0.0000000), wk =   0.0138889
        k(   69) = (  -0.0981748  -0.0328524   0.0000000), wk =   0.0277778
        k(   70) = (  -0.0981748  -0.0164262   0.0000000), wk =   0.0277778
        k(   71) = (  -0.0981748   0.0000000   0.0000000), wk =   0.0277778
        k(   72) = (  -0.0981748   0.0164262   0.0000000), wk =   0.0277778
        k(   73) = (  -0.0981748   0.0328524   0.0000000), wk =   0.0277778
        k(   74) = (  -0.0981748  -0.1478358   0.0000000), wk =   0.0138889

     Initial potential from superposition of free atoms

     starting charge  167.99008, renormalised to  168.00000

     negative rho (up, down):  3.305E-03 0.000E+00

     %%%%%%%%%%%%%%%%%%%%%%%%%%%%%%%%%%%%%%%%%%%%%%%%%%%%%%%%%%%%%%%%%%%%%%%%
     %                                                                      %
     % You are using vdW-DF, which was implemented by the Thonhauser group. %
     % Please cite the following two papers that made this development      %
     % possible and the two reviews that describe the various versions:     %
     %                                                                      %
     %   T. Thonhauser et al., PRL 115, 136402 (2015).                      %
     %   T. Thonhauser et al., PRB 76, 125112 (2007).                       %
     %   K. Berland et al., Rep. Prog. Phys. 78, 066501 (2015).             %
     %   D.C. Langreth et al., J. Phys.: Condens. Matter 21, 084203 (2009). %
     %                                                                      %
     %                                                                      %
     % If you are calculating the stress with vdW-DF, please also cite:     %
     %                                                                      %
     %   R. Sabatini et al., J. Phys.: Condens. Matter 24, 424209 (2012).   %
     %                                                                      %
     %%%%%%%%%%%%%%%%%%%%%%%%%%%%%%%%%%%%%%%%%%%%%%%%%%%%%%%%%%%%%%%%%%%%%%%%

     Adding external electric field

     Computed dipole along edir(3) :
        Dipole                0.0000 Ry au,          0.0001 Debye
        Dipole field          0.0000 Ry au,

        Potential amp.       -0.0000 Ry
        Total length         44.9656 bohr

     Starting wfcs are  120 randomized atomic wfcs

     Self-consistent Calculation

     iteration #  1     ecut=    55.12 Ry     beta= 0.10
     Davidson diagonalization with overlap
     ethr =  1.00E-02,  avg # of iterations =  2.2

[...]

     total energy              =   -1894.01518359 Ry
     estimated scf accuracy    <       8.80491837 Ry

[...]

     iteration # 11     ecut=    55.12 Ry     beta= 0.10
     Davidson diagonalization with overlap
     c_bands:  1 eigenvalues not converged
     c_bands:  1 eigenvalues not converged
     c_bands:  1 eigenvalues not converged
     c_bands:  1 eigenvalues not converged
     c_bands:  1 eigenvalues not converged
     c_bands:  3 eigenvalues not converged
     c_bands:  1 eigenvalues not converged
     c_bands:  1 eigenvalues not converged
     c_bands:  3 eigenvalues not converged
     c_bands:  3 eigenvalues not converged
     c_bands:  1 eigenvalues not converged
     c_bands:  1 eigenvalues not converged
     c_bands:  3 eigenvalues not converged
     c_bands:  1 eigenvalues not converged
     c_bands:  1 eigenvalues not converged
     c_bands:  2 eigenvalues not converged
     c_bands:  2 eigenvalues not converged
     ethr =  7.14E-06,  avg # of iterations = 13.4

[...]

     iteration # 16     ecut=    55.12 Ry     beta= 0.10
     Davidson diagonalization with overlap
     c_bands:  1 eigenvalues not converged
     ethr =  7.30E-07,  avg # of iterations =  2.9

[...]

     total energy              =   -1895.05814699 Ry
     estimated scf accuracy    <       0.00002462 Ry

     iteration # 21     ecut=    55.12 Ry     beta= 0.10
     Davidson diagonalization with overlap
     ethr =  1.47E-08,  avg # of iterations =  4.9

[...]

     Adding external electric field

     Computed dipole along edir(3) :
        Dipole                0.0271 Ry au,          0.0689 Debye
        Dipole field          0.0001 Ry au,

        Potential amp.       -0.0072 Ry
        Total length         44.9656 bohr

     End of self-consistent calculation

          k = 0.0000 0.0000 0.0000 ( 29481 PWs)   bands (ev):

   -70.3139 -70.2536 -70.0924 -70.0742 -70.0330 -70.0148 -59.5924 -59.4445
   -59.3990 -59.3559 -59.2123 -59.1679 -41.7919 -41.7796 -41.7311 -41.6221
   -41.5665 -41.4939 -41.4820 -41.4592 -41.4097 -41.3839 -41.3633 -41.3293
   -41.3243 -41.3090 -41.1966 -41.1548 -41.0421 -41.0295 -34.4032 -34.1850
   -34.1525 -34.1452 -33.9180 -33.6012 -33.5584 -33.4418 -33.4195 -33.4014
   -33.3586 -33.2462 -33.2254 -32.9899 -32.8198 -32.7535 -32.5637 -32.5483
    -4.7639  -3.3280  -3.1166  -2.8649  -2.8405  -2.6139  -2.1495  -1.9854
    -1.9725  -1.9021  -1.8774  -1.8010  -1.6479  -1.5314  -1.2102  -0.9981
    -0.6945  -0.3921  -0.2910  -0.0692   0.1047   0.2763   0.2975   0.3717
     0.5849   0.7415   1.0276   1.2291   1.4851   1.4894   1.7555   1.7717
     1.7769   1.9093   1.9158   2.0176   2.0302   2.1426   2.3633   2.3820
     2.4656   2.5104   2.7446   2.7897   2.7931   2.8133   3.1928   3.3063
     3.3718   3.3974   3.4400   3.8042   3.8314

[...]

          k = 0.0818 0.0246 0.0000 ( 29363 PWs)   bands (ev):

[...]

          k =-0.0982-0.0493 0.0000 ( 29392 PWs)   bands (ev):

[...]

          k =-0.0982-0.1478 0.0000 ( 29392 PWs)   bands (ev):

   -70.2840 -70.2837 -70.0629 -70.0627 -70.0446 -70.0446 -59.4756 -59.4756
   -59.3298 -59.3298 -59.2848 -59.2848 -41.7608 -41.7606 -41.5926 -41.5923
   -41.5539 -41.5537 -41.4349 -41.4349 -41.3553 -41.3553 -41.3346 -41.3343
   -41.2701 -41.2698 -41.2579 -41.2579 -41.1755 -41.1754 -34.0359 -34.0359
   -33.6144 -33.6144 -33.5079 -33.5079 -33.4572 -33.4572 -33.4067 -33.4066
   -33.3827 -33.3827 -33.3476 -33.3476 -33.3261 -33.3261 -32.9053 -32.9053
    -3.0068  -3.0067  -1.9335  -1.9334  -1.8507  -1.8507  -1.4648  -1.4647
    -1.3104  -1.3104  -1.0365  -1.0364  -0.6461  -0.6461  -0.4382  -0.4382
    -0.3875  -0.3875  -0.0530  -0.0529   0.1693   0.1693   0.3933   0.3934
     0.7165   0.7166   0.8315   0.8316   0.9463   0.9463   1.0097   1.0098
     1.1413   1.1414   1.2668   1.2668   1.3979   1.3980   1.9050   1.9051
     2.0958   2.0958   2.1782   2.1783   2.3161   2.3161   2.4748   2.4749
     2.6237   2.6240   2.6610   2.6612   2.8016

     the Fermi energy is     1.6523 ev

!    total energy              =   -1895.05814811 Ry
     estimated scf accuracy    <       0.00000630 Ry
     smearing contrib. (-TS)   =      -0.08510134 Ry
     internal energy E=F+TS    =   -1894.97304676 Ry

     The total energy is F=E-TS. E is the sum of the following terms:
     one-electron contribution =  -16840.10656991 Ry
     hartree contribution      =    8410.83971125 Ry
     xc contribution           =    -259.31423356 Ry
     ewald contribution        =    6793.60804328 Ry
     electric field correction =       0.00000217 Ry

     convergence has been achieved in  21 iterations

     negative rho (up, down):  3.109E-03 0.000E+00

     Forces acting on atoms (cartesian axes, Ry/au):

     atom    1 type  1   force =    -0.00003206    0.00992404    0.02011247
     atom    2 type  1   force =    -0.00002819    0.00990655    0.02008392
     atom    3 type  2   force =    -0.00004082   -0.02016596   -0.01333697
     atom    4 type  2   force =    -0.00001302   -0.02016531   -0.01333585
     atom    5 type  1   force =     0.00005203   -0.00577275   -0.00338689
     atom    6 type  1   force =     0.00005627   -0.00577602   -0.00338782
     atom    7 type  2   force =    -0.00004476    0.01627223   -0.00525820
     atom    8 type  2   force =    -0.00005657    0.01626878   -0.00525377
     atom    9 type  1   force =     0.00004781    0.00024399   -0.00014123
     atom   10 type  1   force =     0.00005659    0.00027351   -0.00003686
     atom   11 type  2   force =     0.00001497   -0.00050718    0.00197103
     atom   12 type  2   force =    -0.00001226   -0.00050187    0.00197018

     Total force =     0.053445     Total SCF correction =     0.007025
     SCF correction compared to forces is large: reduce conv_thr to get better values

     Writing output data file ./Cr2Mo2/Cr2Mo2_beef.save/

     General routines

     Parallel routines

   This run was terminated on:  18: 8:44  10Jul2022

   JOB DONE.