     Program PWSCF v.6.6 starts on 23Jun2022 at 17:10:42

     R & G space division:  proc/nbgrp/npool/nimage =      37
     Fft bands division:     nmany     =       1
     Reading input from Cr2Pd2.in
Warning: card &CELL ignored
Warning: card / ignored

     Current dimensions of program PWSCF are:
     Max number of different atomic species (ntypx) = 10
     Max number of k-points (npk) =  40000
     Max angular momentum in pseudopotentials (lmaxx) =  3
     Presently stress not available with electric field and gates

     Message from routine cell_base_init:
     DEPRECATED: use true lattice parameter, not A to a.u. conversion factor
     file Cr.pbe-spn-rrkjus_psl.1.0.0.UPF: wavefunction(s)  3P renormalized
     file Pd.pbe-n-rrkjus_psl.1.0.0.UPF: wavefunction(s)  4D renormalized

     IMPORTANT: XC functional enforced from input :
     Exchange-correlation= BEEF-VDW
                           (   1   4  43  14   2   0   0)
     Any further DFT definition will be discarded
     Please, verify this is what you really want

     Subspace diagonalization in iterative solution of the eigenvalue problem:
     a serial algorithm will be used

     bravais-lattice index     =            0
     lattice parameter (alat)  =       1.8897  a.u.
     unit-cell volume          =    4110.1105 (a.u.)^3
     number of atoms/cell      =           12
     number of atomic types    =            2
     number of electrons       =       144.00
     number of Kohn-Sham states=           86
     kinetic-energy cutoff     =      55.1240  Ry
     charge density cutoff     =     551.2396  Ry
     convergence threshold     =      1.0E-05
     mixing beta               =       0.1000
     number of iterations used =           10  plain     mixing
     Exchange-correlation= BEEF-VDW
                           (   1   4  43  14   2   0   0)

     celldm(1)=   1.889726  celldm(2)=   0.000000  celldm(3)=   0.000000
     celldm(4)=   0.000000  celldm(5)=   0.000000  celldm(6)=   0.000000

     crystal axes: (cart. coord. in units of alat)
               a(1) = (   5.279715   0.000000   0.000000 )
               a(2) = (  -2.639858   4.731360   0.000000 )
               a(3) = (   0.000000   0.000000  24.381505 )

     reciprocal axes: (cart. coord. in units 2 pi/alat)
               b(1) = (  0.189404  0.105678 -0.000000 )
               b(2) = (  0.000000  0.211356  0.000000 )
               b(3) = (  0.000000 -0.000000  0.041015 )

     PseudoPot. # 1 for Cr read from file:
     ../pseudo/Cr.pbe-spn-rrkjus_psl.1.0.0.UPF
     MD5 check sum: 793d051e4f89dd1e3290b85340a92c0a
     Pseudo is Ultrasoft + core correction, Zval = 14.0
     Generated using "atomic" code by A. Dal Corso v.6.2.2
     Using radial grid of 1183 points,  6 beta functions with:
                l(1) =   0
                l(2) =   0
                l(3) =   1
                l(4) =   1
                l(5) =   2
                l(6) =   2
     Q(r) pseudized with 0 coefficients

     PseudoPot. # 2 for Pd read from file:
     ../pseudo/Pd.pbe-n-rrkjus_psl.1.0.0.UPF
     MD5 check sum: d9f693bf1c5b493397a6bd6f2231cfc3
     Pseudo is Ultrasoft + core correction, Zval = 10.0
     Generated using "atomic" code by A. Dal Corso v.6.3
     Using radial grid of 1235 points,  6 beta functions with:
                l(1) =   0
                l(2) =   0
                l(3) =   1
                l(4) =   1
                l(5) =   2
                l(6) =   2
     Q(r) pseudized with 0 coefficients

     atomic species   valence    mass     pseudopotential
        Cr            14.00    51.99610     Cr( 1.00)
        Pd            10.00   106.42000     Pd( 1.00)

     No symmetry found

   Cartesian axes

     site n.     atom                  positions (alat units)
         1           Cr  tau(   1) = (   0.0000000   0.0000000  10.0000000  )
         2           Cr  tau(   2) = (   2.6398577   0.0000000  10.0000000  )
         3           Pd  tau(   3) = (   1.3199289   2.3656802  10.0000000  )
         4           Pd  tau(   4) = (  -1.3199289   2.3656802  10.0000000  )
         5           Cr  tau(   5) = (   2.6398577   1.4729059  12.1907526  )
         6           Cr  tau(   6) = (  -0.0000000   1.4729059  12.1907526  )
         7           Pd  tau(   7) = (  -1.3199289   3.8385861  12.1907526  )
         8           Pd  tau(   8) = (   1.3199289   3.8385861  12.1907526  )
         9           Cr  tau(   9) = (  -0.0000013   2.8470234  14.1672086  )
        10           Cr  tau(  10) = (   2.6398592   2.8467489  14.1672692  )
        11           Pd  tau(  11) = (   3.9586326   0.6201095  14.4218620  )
        12           Pd  tau(  12) = (   1.3210822   0.6201099  14.4218617  )

     number of k points=    74  Fermi-Dirac smearing, width (Ry)=  0.0100
                       cart. coord. in units 2pi/alat
        k(    1) = (   0.0000000   0.0000000   0.0000000), wk =   0.0138889
        k(    2) = (   0.0000000   0.0176130   0.0000000), wk =   0.0277778
        k(    3) = (   0.0000000   0.0352260   0.0000000), wk =   0.0277778
        k(    4) = (   0.0000000   0.0528389   0.0000000), wk =   0.0277778
        k(    5) = (   0.0000000   0.0704519   0.0000000), wk =   0.0277778
        k(    6) = (   0.0000000   0.0880649   0.0000000), wk =   0.0277778
        k(    7) = (   0.0000000  -0.1056779   0.0000000), wk =   0.0138889
        k(    8) = (   0.0157837   0.0088065   0.0000000), wk =   0.0277778
        k(    9) = (   0.0157837   0.0264195   0.0000000), wk =   0.0277778
        k(   10) = (   0.0157837   0.0440324   0.0000000), wk =   0.0277778
        k(   11) = (   0.0157837   0.0616454   0.0000000), wk =   0.0277778
        k(   12) = (   0.0157837   0.0792584   0.0000000), wk =   0.0277778
        k(   13) = (   0.0157837   0.0968714   0.0000000), wk =   0.0277778
        k(   14) = (   0.0157837  -0.0968714   0.0000000), wk =   0.0277778
        k(   15) = (   0.0157837  -0.0792584   0.0000000), wk =   0.0277778
        k(   16) = (   0.0157837  -0.0616454   0.0000000), wk =   0.0277778
        k(   17) = (   0.0157837  -0.0440324   0.0000000), wk =   0.0277778
        k(   18) = (   0.0157837  -0.0264195   0.0000000), wk =   0.0277778
        k(   19) = (   0.0157837  -0.0088065   0.0000000), wk =   0.0277778
        k(   20) = (   0.0315674   0.0176130   0.0000000), wk =   0.0277778
        k(   21) = (   0.0315674   0.0352260   0.0000000), wk =   0.0277778
        k(   22) = (   0.0315674   0.0528389   0.0000000), wk =   0.0277778
        k(   23) = (   0.0315674   0.0704519   0.0000000), wk =   0.0277778
        k(   24) = (   0.0315674   0.0880649   0.0000000), wk =   0.0277778
        k(   25) = (   0.0315674   0.1056779   0.0000000), wk =   0.0277778
        k(   26) = (   0.0315674  -0.0880649   0.0000000), wk =   0.0277778
        k(   27) = (   0.0315674  -0.0704519   0.0000000), wk =   0.0277778
        k(   28) = (   0.0315674  -0.0528389   0.0000000), wk =   0.0277778
        k(   29) = (   0.0315674  -0.0352260   0.0000000), wk =   0.0277778
        k(   30) = (   0.0315674  -0.0176130   0.0000000), wk =   0.0277778
        k(   31) = (   0.0315674   0.0000000   0.0000000), wk =   0.0277778
        k(   32) = (   0.0473510   0.0264195   0.0000000), wk =   0.0277778
        k(   33) = (   0.0473510   0.0440324   0.0000000), wk =   0.0277778
        k(   34) = (   0.0473510   0.0616454   0.0000000), wk =   0.0277778
        k(   35) = (   0.0473510   0.0792584   0.0000000), wk =   0.0277778
        k(   36) = (   0.0473510   0.0968714   0.0000000), wk =   0.0277778
        k(   37) = (   0.0473510   0.1144844   0.0000000), wk =   0.0277778
        k(   38) = (   0.0473510  -0.0792584   0.0000000), wk =   0.0277778
        k(   39) = (   0.0473510  -0.0616454   0.0000000), wk =   0.0277778
        k(   40) = (   0.0473510  -0.0440324   0.0000000), wk =   0.0277778
        k(   41) = (   0.0473510  -0.0264195   0.0000000), wk =   0.0277778
        k(   42) = (   0.0473510  -0.0088065   0.0000000), wk =   0.0277778
        k(   43) = (   0.0473510   0.0088065   0.0000000), wk =   0.0277778
        k(   44) = (   0.0631347   0.0352260   0.0000000), wk =   0.0277778
        k(   45) = (   0.0631347   0.0528389   0.0000000), wk =   0.0277778
        k(   46) = (   0.0631347   0.0704519   0.0000000), wk =   0.0277778
        k(   47) = (   0.0631347   0.0880649   0.0000000), wk =   0.0277778
        k(   48) = (   0.0631347   0.1056779   0.0000000), wk =   0.0277778
        k(   49) = (   0.0631347   0.1232908   0.0000000), wk =   0.0277778
        k(   50) = (   0.0631347  -0.0704519   0.0000000), wk =   0.0277778
        k(   51) = (   0.0631347  -0.0528389   0.0000000), wk =   0.0277778
        k(   52) = (   0.0631347  -0.0352259   0.0000000), wk =   0.0277778
        k(   53) = (   0.0631347  -0.0176130   0.0000000), wk =   0.0277778
        k(   54) = (   0.0631347   0.0000000   0.0000000), wk =   0.0277778
        k(   55) = (   0.0631347   0.0176130   0.0000000), wk =   0.0277778
        k(   56) = (   0.0789184   0.0440325   0.0000000), wk =   0.0277778
        k(   57) = (   0.0789184   0.0616454   0.0000000), wk =   0.0277778
        k(   58) = (   0.0789184   0.0792584   0.0000000), wk =   0.0277778
        k(   59) = (   0.0789184   0.0968714   0.0000000), wk =   0.0277778
        k(   60) = (   0.0789184   0.1144844   0.0000000), wk =   0.0277778
        k(   61) = (   0.0789184   0.1320973   0.0000000), wk =   0.0277778
        k(   62) = (   0.0789184  -0.0616454   0.0000000), wk =   0.0277778
        k(   63) = (   0.0789184  -0.0440324   0.0000000), wk =   0.0277778
        k(   64) = (   0.0789184  -0.0264195   0.0000000), wk =   0.0277778
        k(   65) = (   0.0789184  -0.0088065   0.0000000), wk =   0.0277778
        k(   66) = (   0.0789184   0.0088065   0.0000000), wk =   0.0277778
        k(   67) = (   0.0789184   0.0264195   0.0000000), wk =   0.0277778
        k(   68) = (  -0.0947021  -0.0528389   0.0000000), wk =   0.0138889
        k(   69) = (  -0.0947021  -0.0352260   0.0000000), wk =   0.0277778
        k(   70) = (  -0.0947021  -0.0176130   0.0000000), wk =   0.0277778
        k(   71) = (  -0.0947021  -0.0000000   0.0000000), wk =   0.0277778
        k(   72) = (  -0.0947021   0.0176130   0.0000000), wk =   0.0277778
        k(   73) = (  -0.0947021   0.0352259   0.0000000), wk =   0.0277778
        k(   74) = (  -0.0947021  -0.1585168   0.0000000), wk =   0.0138889

     Initial potential from superposition of free atoms

     starting charge  143.99193, renormalised to  144.00000

     negative rho (up, down):  3.537E-03 0.000E+00

     %%%%%%%%%%%%%%%%%%%%%%%%%%%%%%%%%%%%%%%%%%%%%%%%%%%%%%%%%%%%%%%%%%%%%%%%
     %                                                                      %
     % You are using vdW-DF, which was implemented by the Thonhauser group. %
     % Please cite the following two papers that made this development      %
     % possible and the two reviews that describe the various versions:     %
     %                                                                      %
     %   T. Thonhauser et al., PRL 115, 136402 (2015).                      %
     %   T. Thonhauser et al., PRB 76, 125112 (2007).                       %
     %   K. Berland et al., Rep. Prog. Phys. 78, 066501 (2015).             %
     %   D.C. Langreth et al., J. Phys.: Condens. Matter 21, 084203 (2009). %
     %                                                                      %
     %                                                                      %
     % If you are calculating the stress with vdW-DF, please also cite:     %
     %                                                                      %
     %   R. Sabatini et al., J. Phys.: Condens. Matter 24, 424209 (2012).   %
     %                                                                      %
     %%%%%%%%%%%%%%%%%%%%%%%%%%%%%%%%%%%%%%%%%%%%%%%%%%%%%%%%%%%%%%%%%%%%%%%%

     Adding external electric field

     Computed dipole along edir(3) :
        Dipole                0.0000 Ry au,          0.0000 Debye
        Dipole field          0.0000 Ry au,

        Potential amp.       -0.0000 Ry
        Total length         44.9225 bohr

     Starting wfcs are  114 randomized atomic wfcs

     Self-consistent Calculation

     iteration #  1     ecut=    55.12 Ry     beta= 0.10
     Davidson diagonalization with overlap
     ethr =  1.00E-02,  avg # of iterations =  2.0

[...]

     total energy              =   -1463.54963546 Ry
     estimated scf accuracy    <      13.95628755 Ry

[...]

     total energy              =   -1465.38152986 Ry
     estimated scf accuracy    <       0.00002517 Ry

     iteration # 22     ecut=    55.12 Ry     beta= 0.10
     Davidson diagonalization with overlap
     ethr =  1.75E-08,  avg # of iterations =  2.3

[...]

     Adding external electric field

     Computed dipole along edir(3) :
        Dipole               -0.0119 Ry au,         -0.0303 Debye
        Dipole field         -0.0000 Ry au,

        Potential amp.        0.0033 Ry
        Total length         44.9225 bohr

     End of self-consistent calculation

          k = 0.0000 0.0000 0.0000 ( 28371 PWs)   bands (ev):

   -71.3778 -71.3383 -71.2132 -71.2052 -71.1743 -71.1663 -42.7990 -42.7783
   -42.7388 -42.7066 -42.6727 -42.5826 -42.5711 -42.5498 -42.5484 -42.5371
   -42.5314 -42.5164 -42.4826 -42.4745 -42.3589 -42.3301 -42.2257 -42.2088
    -6.2971  -4.9131  -4.7773  -4.7660  -4.7071  -4.6270  -4.3284  -4.1033
    -4.0498  -4.0168  -3.9601  -3.9034  -3.8456  -3.7332  -3.2539  -3.0676
    -2.7682  -2.7301  -2.5992  -2.4575  -2.3657  -2.1651  -2.0145  -2.0139
    -1.9255  -1.7023  -1.5595  -1.3999  -1.3893  -0.9471  -0.8179  -0.6478
    -0.6064  -0.5915  -0.4721  -0.2219  -0.1344  -0.1298  -0.0863   0.1264
     0.2147   0.5019   0.5424   0.5694   0.7643   0.7967   0.8316   1.0439
     1.2304   1.2442   1.3664   1.4362   1.5056   1.5110   1.5425   1.7192
     1.7563   1.7708   1.9713   2.0117   2.0358   2.1380

[...]

          k = 0.0789 0.0264 0.0000 ( 28403 PWs)   bands (ev):

[...]

          k =-0.0947-0.0528 0.0000 ( 28410 PWs)   bands (ev):

[...]

          k =-0.0947-0.1585 0.0000 ( 28410 PWs)   bands (ev):

   -71.3582 -71.3579 -71.1939 -71.1937 -71.1859 -71.1855 -42.7594 -42.7592
   -42.6907 -42.6904 -42.6386 -42.6384 -42.5655 -42.5654 -42.5552 -42.5546
   -42.5003 -42.4999 -42.3895 -42.3893 -42.3719 -42.3718 -42.3446 -42.3445
    -4.7045  -4.7039  -4.0423  -4.0419  -3.8775  -3.8765  -3.8083  -3.8081
    -3.5194  -3.5190  -3.3445  -3.3431  -3.2320  -3.2301  -2.8783  -2.8758
    -2.7097  -2.7082  -2.5876  -2.5863  -2.3675  -2.3659  -2.2578  -2.2555
    -2.1473  -2.1443  -2.0324  -2.0276  -1.8466  -1.8460  -1.7716  -1.7677
    -1.4664  -1.4656  -0.7744  -0.7741  -0.4931  -0.4927  -0.2117  -0.2112
    -0.0951  -0.0947   0.2224   0.2228   0.5156   0.5159   0.6392   0.6398
     0.6885   0.6894   0.7293   0.7294   0.8302   0.8315   0.8815   0.8822
     1.2222   1.2223   1.5192   1.5194   1.7003   1.7005

     the Fermi energy is     0.6580 ev

!    total energy              =   -1465.38153077 Ry
     estimated scf accuracy    <       0.00000518 Ry
     smearing contrib. (-TS)   =      -0.09981921 Ry
     internal energy E=F+TS    =   -1465.28171156 Ry

     The total energy is F=E-TS. E is the sum of the following terms:
     one-electron contribution =  -12871.62527948 Ry
     hartree contribution      =    6470.18577961 Ry
     xc contribution           =    -273.02916634 Ry
     ewald contribution        =    5209.18695422 Ry
     electric field correction =       0.00000043 Ry

     convergence has been achieved in  22 iterations

     negative rho (up, down):  3.393E-03 0.000E+00

     Forces acting on atoms (cartesian axes, Ry/au):

     atom    1 type  1   force =    -0.00000805    0.01702024    0.02589258
     atom    2 type  1   force =    -0.00000185    0.01705581    0.02585308
     atom    3 type  2   force =    -0.00000231   -0.03024595   -0.02010903
     atom    4 type  2   force =    -0.00000256   -0.03025150   -0.02011001
     atom    5 type  1   force =    -0.00010960    0.00105873    0.00082058
     atom    6 type  1   force =     0.00010526    0.00087669    0.00077908
     atom    7 type  2   force =     0.00000064    0.01322172   -0.01007389
     atom    8 type  2   force =    -0.00000229    0.01321670   -0.01007595
     atom    9 type  1   force =    -0.00001650   -0.00014447    0.00040769
     atom   10 type  1   force =     0.00003970    0.00006601    0.00029953
     atom   11 type  2   force =     0.00104083   -0.00093881    0.00315881
     atom   12 type  2   force =    -0.00104329   -0.00093516    0.00315753

     Total force =     0.071680     Total SCF correction =     0.008495
     SCF correction compared to forces is large: reduce conv_thr to get better values

     Writing output data file ./Cr2Pd2/Cr2Pd2_beef.save/

     General routines

     Parallel routines

   This run was terminated on:  17:45:26  23Jun2022

   JOB DONE.