     Program PWSCF v.6.6 starts on 23Jun2022 at 19:12:34

     R & G space division:  proc/nbgrp/npool/nimage =      37
     Fft bands division:     nmany     =       1
     Reading input from Cr2Pt2.in
Warning: card &CELL ignored
Warning: card / ignored

     Current dimensions of program PWSCF are:
     Max number of different atomic species (ntypx) = 10
     Max number of k-points (npk) =  40000
     Max angular momentum in pseudopotentials (lmaxx) =  3
     Presently stress not available with electric field and gates

     Message from routine cell_base_init:
     DEPRECATED: use true lattice parameter, not A to a.u. conversion factor
     file Cr.pbe-spn-rrkjus_psl.1.0.0.UPF: wavefunction(s)  3P renormalized
     file Pt.pbe-n-rrkjus_psl.1.0.0.UPF: wavefunction(s)  6S renormalized

     IMPORTANT: XC functional enforced from input :
     Exchange-correlation= BEEF-VDW
                           (   1   4  43  14   2   0   0)
     Any further DFT definition will be discarded
     Please, verify this is what you really want

     Subspace diagonalization in iterative solution of the eigenvalue problem:
     a serial algorithm will be used

     bravais-lattice index     =            0
     lattice parameter (alat)  =       1.8897  a.u.
     unit-cell volume          =    4116.6815 (a.u.)^3
     number of atoms/cell      =           12
     number of atomic types    =            2
     number of electrons       =       144.00
     number of Kohn-Sham states=           86
     kinetic-energy cutoff     =      55.1240  Ry
     charge density cutoff     =     551.2396  Ry
     convergence threshold     =      1.0E-05
     mixing beta               =       0.1000
     number of iterations used =           10  plain     mixing
     Exchange-correlation= BEEF-VDW
                           (   1   4  43  14   2   0   0)

     celldm(1)=   1.889726  celldm(2)=   0.000000  celldm(3)=   0.000000
     celldm(4)=   0.000000  celldm(5)=   0.000000  celldm(6)=   0.000000

     crystal axes: (cart. coord. in units of alat)
               a(1) = (   5.312033   0.000000   0.000000 )
               a(2) = (  -2.656017   4.709130   0.000000 )
               a(3) = (   0.000000   0.000000  24.386491 )

     reciprocal axes: (cart. coord. in units 2 pi/alat)
               b(1) = (  0.188252  0.106177 -0.000000 )
               b(2) = (  0.000000  0.212353  0.000000 )
               b(3) = (  0.000000 -0.000000  0.041006 )

     PseudoPot. # 1 for Cr read from file:
     ../pseudo/Cr.pbe-spn-rrkjus_psl.1.0.0.UPF
     MD5 check sum: 793d051e4f89dd1e3290b85340a92c0a
     Pseudo is Ultrasoft + core correction, Zval = 14.0
     Generated using "atomic" code by A. Dal Corso v.6.2.2
     Using radial grid of 1183 points,  6 beta functions with:
                l(1) =   0
                l(2) =   0
                l(3) =   1
                l(4) =   1
                l(5) =   2
                l(6) =   2
     Q(r) pseudized with 0 coefficients

     PseudoPot. # 2 for Pt read from file:
     ../pseudo/Pt.pbe-n-rrkjus_psl.1.0.0.UPF
     MD5 check sum: 6bc887cfe28d63a5fc1f72d35a7d3ef7
     Pseudo is Ultrasoft + core correction, Zval = 10.0
     Generated using "atomic" code by A. Dal Corso v.6.3
     Using radial grid of 1277 points,  6 beta functions with:
                l(1) =   0
                l(2) =   0
                l(3) =   1
                l(4) =   1
                l(5) =   2
                l(6) =   2
     Q(r) pseudized with 0 coefficients

     atomic species   valence    mass     pseudopotential
        Cr            14.00    51.99610     Cr( 1.00)
        Pt            10.00   195.08400     Pt( 1.00)

     No symmetry found

   Cartesian axes

     site n.     atom                  positions (alat units)
         1           Cr  tau(   1) = (   0.0000000   0.0000000  10.0000000  )
         2           Cr  tau(   2) = (   2.6560167   0.0000000  10.0000000  )
         3           Pt  tau(   3) = (   1.3280083   2.3545648  10.0000000  )
         4           Pt  tau(   4) = (  -1.3280083   2.3545648  10.0000000  )
         5           Cr  tau(   5) = (   2.6560167   1.4980315  12.1932455  )
         6           Cr  tau(   6) = (   0.0000000   1.4980315  12.1932455  )
         7           Pt  tau(   7) = (  -1.3280083   3.8525963  12.1932455  )
         8           Pt  tau(   8) = (   1.3280083   3.8525963  12.1932455  )
         9           Cr  tau(   9) = (  -0.0000008   3.0132692  14.2626629  )
        10           Cr  tau(  10) = (   2.6560176   3.0133070  14.2626032  )
        11           Pt  tau(  11) = (   3.9842974   0.7973783  14.3603595  )
        12           Pt  tau(  12) = (   1.3277350   0.7973794  14.3603591  )

     number of k points=    74  Fermi-Dirac smearing, width (Ry)=  0.0100
                       cart. coord. in units 2pi/alat
        k(    1) = (   0.0000000   0.0000000   0.0000000), wk =   0.0138889
        k(    2) = (   0.0000000   0.0176961   0.0000000), wk =   0.0277778
        k(    3) = (   0.0000000   0.0353922   0.0000000), wk =   0.0277778
        k(    4) = (   0.0000000   0.0530884   0.0000000), wk =   0.0277778
        k(    5) = (   0.0000000   0.0707845   0.0000000), wk =   0.0277778
        k(    6) = (   0.0000000   0.0884806   0.0000000), wk =   0.0277778
        k(    7) = (   0.0000000  -0.1061767   0.0000000), wk =   0.0138889
        k(    8) = (   0.0156877   0.0088481   0.0000000), wk =   0.0277778
        k(    9) = (   0.0156877   0.0265442   0.0000000), wk =   0.0277778
        k(   10) = (   0.0156877   0.0442403   0.0000000), wk =   0.0277778
        k(   11) = (   0.0156877   0.0619364   0.0000000), wk =   0.0277778
        k(   12) = (   0.0156877   0.0796325   0.0000000), wk =   0.0277778
        k(   13) = (   0.0156877   0.0973287   0.0000000), wk =   0.0277778
        k(   14) = (   0.0156877  -0.0973287   0.0000000), wk =   0.0277778
        k(   15) = (   0.0156877  -0.0796325   0.0000000), wk =   0.0277778
        k(   16) = (   0.0156877  -0.0619364   0.0000000), wk =   0.0277778
        k(   17) = (   0.0156877  -0.0442403   0.0000000), wk =   0.0277778
        k(   18) = (   0.0156877  -0.0265442   0.0000000), wk =   0.0277778
        k(   19) = (   0.0156877  -0.0088481   0.0000000), wk =   0.0277778
        k(   20) = (   0.0313753   0.0176961   0.0000000), wk =   0.0277778
        k(   21) = (   0.0313753   0.0353922   0.0000000), wk =   0.0277778
        k(   22) = (   0.0313753   0.0530884   0.0000000), wk =   0.0277778
        k(   23) = (   0.0313753   0.0707845   0.0000000), wk =   0.0277778
        k(   24) = (   0.0313753   0.0884806   0.0000000), wk =   0.0277778
        k(   25) = (   0.0313753   0.1061767   0.0000000), wk =   0.0277778
        k(   26) = (   0.0313753  -0.0884806   0.0000000), wk =   0.0277778
        k(   27) = (   0.0313753  -0.0707845   0.0000000), wk =   0.0277778
        k(   28) = (   0.0313753  -0.0530884   0.0000000), wk =   0.0277778
        k(   29) = (   0.0313753  -0.0353922   0.0000000), wk =   0.0277778
        k(   30) = (   0.0313753  -0.0176961   0.0000000), wk =   0.0277778
        k(   31) = (   0.0313753   0.0000000   0.0000000), wk =   0.0277778
        k(   32) = (   0.0470630   0.0265442   0.0000000), wk =   0.0277778
        k(   33) = (   0.0470630   0.0442403   0.0000000), wk =   0.0277778
        k(   34) = (   0.0470630   0.0619364   0.0000000), wk =   0.0277778
        k(   35) = (   0.0470630   0.0796325   0.0000000), wk =   0.0277778
        k(   36) = (   0.0470630   0.0973287   0.0000000), wk =   0.0277778
        k(   37) = (   0.0470630   0.1150248   0.0000000), wk =   0.0277778
        k(   38) = (   0.0470630  -0.0796325   0.0000000), wk =   0.0277778
        k(   39) = (   0.0470630  -0.0619364   0.0000000), wk =   0.0277778
        k(   40) = (   0.0470630  -0.0442403   0.0000000), wk =   0.0277778
        k(   41) = (   0.0470630  -0.0265442   0.0000000), wk =   0.0277778
        k(   42) = (   0.0470630  -0.0088481   0.0000000), wk =   0.0277778
        k(   43) = (   0.0470630   0.0088481   0.0000000), wk =   0.0277778
        k(   44) = (   0.0627506   0.0353922   0.0000000), wk =   0.0277778
        k(   45) = (   0.0627506   0.0530884   0.0000000), wk =   0.0277778
        k(   46) = (   0.0627506   0.0707845   0.0000000), wk =   0.0277778
        k(   47) = (   0.0627506   0.0884806   0.0000000), wk =   0.0277778
        k(   48) = (   0.0627506   0.1061767   0.0000000), wk =   0.0277778
        k(   49) = (   0.0627506   0.1238729   0.0000000), wk =   0.0277778
        k(   50) = (   0.0627506  -0.0707845   0.0000000), wk =   0.0277778
        k(   51) = (   0.0627506  -0.0530884   0.0000000), wk =   0.0277778
        k(   52) = (   0.0627506  -0.0353922   0.0000000), wk =   0.0277778
        k(   53) = (   0.0627506  -0.0176961   0.0000000), wk =   0.0277778
        k(   54) = (   0.0627506   0.0000000   0.0000000), wk =   0.0277778
        k(   55) = (   0.0627506   0.0176961   0.0000000), wk =   0.0277778
        k(   56) = (   0.0784383   0.0442403   0.0000000), wk =   0.0277778
        k(   57) = (   0.0784383   0.0619364   0.0000000), wk =   0.0277778
        k(   58) = (   0.0784383   0.0796326   0.0000000), wk =   0.0277778
        k(   59) = (   0.0784383   0.0973287   0.0000000), wk =   0.0277778
        k(   60) = (   0.0784383   0.1150248   0.0000000), wk =   0.0277778
        k(   61) = (   0.0784383   0.1327209   0.0000000), wk =   0.0277778
        k(   62) = (   0.0784383  -0.0619364   0.0000000), wk =   0.0277778
        k(   63) = (   0.0784383  -0.0442403   0.0000000), wk =   0.0277778
        k(   64) = (   0.0784383  -0.0265442   0.0000000), wk =   0.0277778
        k(   65) = (   0.0784383  -0.0088481   0.0000000), wk =   0.0277778
        k(   66) = (   0.0784383   0.0088481   0.0000000), wk =   0.0277778
        k(   67) = (   0.0784383   0.0265442   0.0000000), wk =   0.0277778
        k(   68) = (  -0.0941259  -0.0530884   0.0000000), wk =   0.0138889
        k(   69) = (  -0.0941259  -0.0353923   0.0000000), wk =   0.0277778
        k(   70) = (  -0.0941259  -0.0176961   0.0000000), wk =   0.0277778
        k(   71) = (  -0.0941259  -0.0000000   0.0000000), wk =   0.0277778
        k(   72) = (  -0.0941259   0.0176961   0.0000000), wk =   0.0277778
        k(   73) = (  -0.0941259   0.0353922   0.0000000), wk =   0.0277778
        k(   74) = (  -0.0941259  -0.1592651   0.0000000), wk =   0.0138889

     Initial potential from superposition of free atoms

     starting charge  143.99434, renormalised to  144.00000

     negative rho (up, down):  3.458E-03 0.000E+00

     %%%%%%%%%%%%%%%%%%%%%%%%%%%%%%%%%%%%%%%%%%%%%%%%%%%%%%%%%%%%%%%%%%%%%%%%
     %                                                                      %
     % You are using vdW-DF, which was implemented by the Thonhauser group. %
     % Please cite the following two papers that made this development      %
     % possible and the two reviews that describe the various versions:     %
     %                                                                      %
     %   T. Thonhauser et al., PRL 115, 136402 (2015).                      %
     %   T. Thonhauser et al., PRB 76, 125112 (2007).                       %
     %   K. Berland et al., Rep. Prog. Phys. 78, 066501 (2015).             %
     %   D.C. Langreth et al., J. Phys.: Condens. Matter 21, 084203 (2009). %
     %                                                                      %
     %                                                                      %
     % If you are calculating the stress with vdW-DF, please also cite:     %
     %                                                                      %
     %   R. Sabatini et al., J. Phys.: Condens. Matter 24, 424209 (2012).   %
     %                                                                      %
     %%%%%%%%%%%%%%%%%%%%%%%%%%%%%%%%%%%%%%%%%%%%%%%%%%%%%%%%%%%%%%%%%%%%%%%%

     Adding external electric field

     Computed dipole along edir(3) :
        Dipole               -0.0001 Ry au,         -0.0002 Debye
        Dipole field         -0.0000 Ry au,

        Potential amp.        0.0000 Ry
        Total length         44.9317 bohr

     Starting wfcs are  114 randomized atomic wfcs

     Self-consistent Calculation

     iteration #  1     ecut=    55.12 Ry     beta= 0.10
     Davidson diagonalization with overlap
     ethr =  1.00E-02,  avg # of iterations =  2.0

[...]

     total energy              =   -1449.07056410 Ry
     estimated scf accuracy    <      18.50378501 Ry

[...]

     iteration #  7     ecut=    55.12 Ry     beta= 0.10
     Davidson diagonalization with overlap
     c_bands:  1 eigenvalues not converged
     c_bands:  1 eigenvalues not converged
     c_bands:  3 eigenvalues not converged
     ethr =  3.33E-04,  avg # of iterations = 13.5

[...]

     iteration # 18     ecut=    55.12 Ry     beta= 0.10
     Davidson diagonalization with overlap
     c_bands:  1 eigenvalues not converged
     c_bands:  1 eigenvalues not converged
     c_bands:  5 eigenvalues not converged
     c_bands:  3 eigenvalues not converged
     c_bands:  2 eigenvalues not converged
     ethr =  2.47E-06,  avg # of iterations =  7.0

[...]

     total energy              =   -1451.47172920 Ry
     estimated scf accuracy    <       0.00001066 Ry

     iteration # 25     ecut=    55.12 Ry     beta= 0.10
     Davidson diagonalization with overlap
     ethr =  7.40E-09,  avg # of iterations =  2.1

[...]

     Adding external electric field

     Computed dipole along edir(3) :
        Dipole                0.0178 Ry au,          0.0452 Debye
        Dipole field          0.0001 Ry au,

        Potential amp.       -0.0049 Ry
        Total length         44.9317 bohr

     End of self-consistent calculation

          k = 0.0000 0.0000 0.0000 ( 28391 PWs)   bands (ev):

   -71.1306 -71.0939 -70.9549 -70.9317 -70.9187 -70.8956 -42.5508 -42.4751
   -42.4446 -42.4403 -42.4109 -42.3291 -42.3025 -42.2964 -42.2704 -42.2676
   -42.2424 -42.2423 -42.2393 -42.2074 -42.1657 -42.1374 -41.9610 -41.9378
    -7.6908  -5.9214  -5.6336  -5.5531  -5.2199  -5.1605  -4.8725  -4.7324
    -4.6914  -4.4464  -4.3570  -4.2561  -4.2175  -4.0620  -3.5884  -3.3450
    -2.9828  -2.7090  -2.6395  -2.4901  -2.4061  -2.3971  -1.9706  -1.8958
    -1.7932  -1.7849  -1.6512  -1.2441  -1.1087  -0.5619  -0.4433  -0.3631
    -0.2712  -0.1318  -0.0996  -0.0110   0.0609   0.2021   0.3048   0.3371
     0.6659   0.7996   0.9311   1.1157   1.1323   1.2550   1.3973   1.4835
     1.7287   1.7718   1.7720   1.9442   1.9643   1.9894   2.1171   2.1185
     2.1848   2.2322   2.2460   2.2713   2.3666   2.4034

[...]

          k = 0.0784 0.0265 0.0000 ( 28474 PWs)   bands (ev):

[...]

          k =-0.0941-0.0531 0.0000 ( 28500 PWs)   bands (ev):

[...]

          k =-0.0941-0.1593 0.0000 ( 28500 PWs)   bands (ev):

   -71.1123 -71.1121 -70.9371 -70.9365 -70.9138 -70.9135 -42.4583 -42.4580
   -42.4297 -42.4295 -42.3985 -42.3983 -42.3129 -42.3125 -42.2874 -42.2872
   -42.2246 -42.2243 -42.1522 -42.1519 -42.1162 -42.1157 -42.0919 -42.0916
    -5.8208  -5.8206  -4.6286  -4.6282  -4.2467  -4.2464  -4.2278  -4.2278
    -3.8525  -3.8522  -3.7451  -3.7449  -3.5056  -3.5050  -3.1990  -3.1982
    -2.8671  -2.8661  -2.7217  -2.7214  -2.5220  -2.5217  -2.3855  -2.3850
    -2.3624  -2.3603  -2.1766  -2.1753  -2.0803  -2.0801  -1.7311  -1.7308
    -1.4230  -1.4226  -0.4438  -0.4437  -0.0620  -0.0619  -0.0003  -0.0001
     0.1157   0.1158   0.5045   0.5047   0.7372   0.7374   0.9798   0.9798
     1.0475   1.0478   1.1001   1.1005   1.1479   1.1480   1.3319   1.3320
     1.6422   1.6423   1.7622   1.7623   2.1000   2.1002

     the Fermi energy is     1.0158 ev

!    total energy              =   -1451.47171840 Ry
     estimated scf accuracy    <       0.00000856 Ry
     smearing contrib. (-TS)   =      -0.08918163 Ry
     internal energy E=F+TS    =   -1451.38253676 Ry

     The total energy is F=E-TS. E is the sum of the following terms:
     one-electron contribution =  -12746.15734637 Ry
     hartree contribution      =    6404.09232818 Ry
     xc contribution           =    -286.78791070 Ry
     ewald contribution        =    5177.47039116 Ry
     electric field correction =       0.00000097 Ry

     convergence has been achieved in  25 iterations

     negative rho (up, down):  3.272E-03 0.000E+00

     Forces acting on atoms (cartesian axes, Ry/au):

     atom    1 type  1   force =     0.00000274    0.02151961    0.01779385
     atom    2 type  1   force =     0.00000690    0.02150644    0.01778727
     atom    3 type  2   force =     0.00001833   -0.04123411   -0.01156795
     atom    4 type  2   force =    -0.00001663   -0.04122625   -0.01156208
     atom    5 type  1   force =     0.00000238    0.00619850   -0.01214687
     atom    6 type  1   force =    -0.00000317    0.00629314   -0.01211778
     atom    7 type  2   force =    -0.00003994    0.01334029   -0.00155886
     atom    8 type  2   force =     0.00003631    0.01333867   -0.00155780
     atom    9 type  1   force =     0.00005082   -0.00070151    0.00175185
     atom   10 type  1   force =    -0.00004690   -0.00068304    0.00173479
     atom   11 type  2   force =    -0.00033838    0.00081936    0.00572474
     atom   12 type  2   force =     0.00032754    0.00082889    0.00571884

     Total force =     0.077674     Total SCF correction =     0.022217
     SCF correction compared to forces is large: reduce conv_thr to get better values

     Writing output data file ./Cr2Pt2/Cr2Pt2_beef.save/

     General routines

     Parallel routines

   This run was terminated on:  20:17:26  23Jun2022

   JOB DONE.