     Program PWSCF v.6.6 starts on 10Jul2022 at 18: 8:58

     R & G space division:  proc/nbgrp/npool/nimage =      37
     Fft bands division:     nmany     =       1
     Reading input from Cr2Rh2.in
Warning: card &CELL ignored
Warning: card / ignored

     Current dimensions of program PWSCF are:
     Max number of different atomic species (ntypx) = 10
     Max number of k-points (npk) =  40000
     Max angular momentum in pseudopotentials (lmaxx) =  3
     Presently stress not available with electric field and gates

     Message from routine cell_base_init:
     DEPRECATED: use true lattice parameter, not A to a.u. conversion factor
     file Cr.pbe-spn-rrkjus_psl.1.0.0.UPF: wavefunction(s)  3P renormalized
     file Rh.pbe-spn-rrkjus_psl.1.0.0.UPF: wavefunction(s)  4S 5S renormalized

     IMPORTANT: XC functional enforced from input :
     Exchange-correlation= BEEF-VDW
                           (   1   4  43  14   2   0   0)
     Any further DFT definition will be discarded
     Please, verify this is what you really want

     Subspace diagonalization in iterative solution of the eigenvalue problem:
     a serial algorithm will be used

     Found symmetry operation: I + ( -0.5000  0.5000  0.0000)
     This is a supercell, fractional translations are disabled

     bravais-lattice index     =            0
     lattice parameter (alat)  =       1.8897  a.u.
     unit-cell volume          =    3968.3136 (a.u.)^3
     number of atoms/cell      =           12
     number of atomic types    =            2
     number of electrons       =       186.00
     number of Kohn-Sham states=          112
     kinetic-energy cutoff     =      55.1240  Ry
     charge density cutoff     =     551.2396  Ry
     convergence threshold     =      1.0E-05
     mixing beta               =       0.1000
     number of iterations used =           10  plain     mixing
     Exchange-correlation= BEEF-VDW
                           (   1   4  43  14   2   0   0)

     celldm(1)=   1.889726  celldm(2)=   0.000000  celldm(3)=   0.000000
     celldm(4)=   0.000000  celldm(5)=   0.000000  celldm(6)=   0.000000

     crystal axes: (cart. coord. in units of alat)
               a(1) = (   5.273061   0.000000   0.000000 )
               a(2) = (   2.601785   4.586490   0.000000 )
               a(3) = (   0.000000   0.000000  24.314549 )

     reciprocal axes: (cart. coord. in units 2 pi/alat)
               b(1) = (  0.189643 -0.107579  0.000000 )
               b(2) = (  0.000000  0.218032  0.000000 )
               b(3) = (  0.000000  0.000000  0.041128 )

     PseudoPot. # 1 for Cr read from file:
     ../pseudo/Cr.pbe-spn-rrkjus_psl.1.0.0.UPF
     MD5 check sum: 793d051e4f89dd1e3290b85340a92c0a
     Pseudo is Ultrasoft + core correction, Zval = 14.0
     Generated using "atomic" code by A. Dal Corso v.6.2.2
     Using radial grid of 1183 points,  6 beta functions with:
                l(1) =   0
                l(2) =   0
                l(3) =   1
                l(4) =   1
                l(5) =   2
                l(6) =   2
     Q(r) pseudized with 0 coefficients

     PseudoPot. # 2 for Rh read from file:
     ../pseudo/Rh.pbe-spn-rrkjus_psl.1.0.0.UPF
     MD5 check sum: 912a852783f0c9b7bd5e9eb06cc0cc10
     Pseudo is Ultrasoft + core correction, Zval = 17.0
     Generated using "atomic" code by A. Dal Corso v.6.3
     Using radial grid of 1233 points,  6 beta functions with:
                l(1) =   0
                l(2) =   0
                l(3) =   1
                l(4) =   1
                l(5) =   2
                l(6) =   2
     Q(r) pseudized with 0 coefficients

     atomic species   valence    mass     pseudopotential
        Cr            14.00    51.99610     Cr( 1.00)
        Rh            17.00   102.90550     Rh( 1.00)

     No symmetry found

   Cartesian axes

     site n.     atom                  positions (alat units)
         1           Cr  tau(   1) = (   0.0000000   0.0000000  10.0000000  )
         2           Cr  tau(   2) = (   3.9374232   2.2932448  10.0000000  )
         3           Rh  tau(   3) = (   2.6365305   0.0000000  10.0000000  )
         4           Rh  tau(   4) = (   1.3008927   2.2932448  10.0000000  )
         5           Cr  tau(   5) = (   5.2730611   3.0711506  12.1572747  )
         6           Cr  tau(   6) = (   1.3356379   0.7779059  12.1572747  )
         7           Rh  tau(   7) = (   2.6365305   3.0711506  12.1572747  )
         8           Rh  tau(   8) = (   3.9721684   0.7779059  12.1572747  )
         9           Cr  tau(   9) = (   2.6382412   1.5365716  14.1597522  )
        10           Cr  tau(  10) = (   6.5756740   3.8298226  14.1597681  )
        11           Rh  tau(  11) = (   5.3535627   1.5824822  14.2750137  )
        12           Rh  tau(  12) = (   4.0179435   3.8756957  14.2750137  )

     number of k points=    74  Fermi-Dirac smearing, width (Ry)=  0.0100
                       cart. coord. in units 2pi/alat
        k(    1) = (   0.0000000   0.0000000   0.0000000), wk =   0.0138889
        k(    2) = (   0.0000000   0.0181693   0.0000000), wk =   0.0277778
        k(    3) = (   0.0000000   0.0363386   0.0000000), wk =   0.0277778
        k(    4) = (   0.0000000   0.0545079   0.0000000), wk =   0.0277778
        k(    5) = (   0.0000000   0.0726772   0.0000000), wk =   0.0277778
        k(    6) = (   0.0000000   0.0908465   0.0000000), wk =   0.0277778
        k(    7) = (   0.0000000  -0.1090158   0.0000000), wk =   0.0138889
        k(    8) = (   0.0158036  -0.0089649   0.0000000), wk =   0.0277778
        k(    9) = (   0.0158036   0.0092044   0.0000000), wk =   0.0277778
        k(   10) = (   0.0158036   0.0273737   0.0000000), wk =   0.0277778
        k(   11) = (   0.0158036   0.0455430   0.0000000), wk =   0.0277778
        k(   12) = (   0.0158036   0.0637123   0.0000000), wk =   0.0277778
        k(   13) = (   0.0158036   0.0818816   0.0000000), wk =   0.0277778
        k(   14) = (   0.0158036  -0.1179808   0.0000000), wk =   0.0277778
        k(   15) = (   0.0158036  -0.0998115   0.0000000), wk =   0.0277778
        k(   16) = (   0.0158036  -0.0816421   0.0000000), wk =   0.0277778
        k(   17) = (   0.0158036  -0.0634728   0.0000000), wk =   0.0277778
        k(   18) = (   0.0158036  -0.0453035   0.0000000), wk =   0.0277778
        k(   19) = (   0.0158036  -0.0271342   0.0000000), wk =   0.0277778
        k(   20) = (   0.0316072  -0.0179299   0.0000000), wk =   0.0277778
        k(   21) = (   0.0316072   0.0002394   0.0000000), wk =   0.0277778
        k(   22) = (   0.0316072   0.0184087   0.0000000), wk =   0.0277778
        k(   23) = (   0.0316072   0.0365781   0.0000000), wk =   0.0277778
        k(   24) = (   0.0316072   0.0547474   0.0000000), wk =   0.0277778
        k(   25) = (   0.0316072   0.0729167   0.0000000), wk =   0.0277778
        k(   26) = (   0.0316072  -0.1269457   0.0000000), wk =   0.0277778
        k(   27) = (   0.0316072  -0.1087764   0.0000000), wk =   0.0277778
        k(   28) = (   0.0316072  -0.0906071   0.0000000), wk =   0.0277778
        k(   29) = (   0.0316072  -0.0724378   0.0000000), wk =   0.0277778
        k(   30) = (   0.0316072  -0.0542685   0.0000000), wk =   0.0277778
        k(   31) = (   0.0316072  -0.0360992   0.0000000), wk =   0.0277778
        k(   32) = (   0.0474108  -0.0268948   0.0000000), wk =   0.0277778
        k(   33) = (   0.0474108  -0.0087255   0.0000000), wk =   0.0277778
        k(   34) = (   0.0474108   0.0094438   0.0000000), wk =   0.0277778
        k(   35) = (   0.0474108   0.0276131   0.0000000), wk =   0.0277778
        k(   36) = (   0.0474108   0.0457824   0.0000000), wk =   0.0277778
        k(   37) = (   0.0474108   0.0639517   0.0000000), wk =   0.0277778
        k(   38) = (   0.0474108  -0.1359106   0.0000000), wk =   0.0277778
        k(   39) = (   0.0474108  -0.1177413   0.0000000), wk =   0.0277778
        k(   40) = (   0.0474108  -0.0995720   0.0000000), wk =   0.0277778
        k(   41) = (   0.0474108  -0.0814027   0.0000000), wk =   0.0277778
        k(   42) = (   0.0474108  -0.0632334   0.0000000), wk =   0.0277778
        k(   43) = (   0.0474108  -0.0450641   0.0000000), wk =   0.0277778
        k(   44) = (   0.0632144  -0.0358597   0.0000000), wk =   0.0277778
        k(   45) = (   0.0632144  -0.0176904   0.0000000), wk =   0.0277778
        k(   46) = (   0.0632144   0.0004789   0.0000000), wk =   0.0277778
        k(   47) = (   0.0632144   0.0186482   0.0000000), wk =   0.0277778
        k(   48) = (   0.0632144   0.0368175   0.0000000), wk =   0.0277778
        k(   49) = (   0.0632144   0.0549868   0.0000000), wk =   0.0277778
        k(   50) = (   0.0632144  -0.1448755   0.0000000), wk =   0.0277778
        k(   51) = (   0.0632144  -0.1267062   0.0000000), wk =   0.0277778
        k(   52) = (   0.0632144  -0.1085369   0.0000000), wk =   0.0277778
        k(   53) = (   0.0632144  -0.0903676   0.0000000), wk =   0.0277778
        k(   54) = (   0.0632144  -0.0721983   0.0000000), wk =   0.0277778
        k(   55) = (   0.0632144  -0.0540290   0.0000000), wk =   0.0277778
        k(   56) = (   0.0790180  -0.0448247   0.0000000), wk =   0.0277778
        k(   57) = (   0.0790180  -0.0266553   0.0000000), wk =   0.0277778
        k(   58) = (   0.0790180  -0.0084860   0.0000000), wk =   0.0277778
        k(   59) = (   0.0790180   0.0096833   0.0000000), wk =   0.0277778
        k(   60) = (   0.0790180   0.0278526   0.0000000), wk =   0.0277778
        k(   61) = (   0.0790180   0.0460219   0.0000000), wk =   0.0277778
        k(   62) = (   0.0790180  -0.1538405   0.0000000), wk =   0.0277778
        k(   63) = (   0.0790180  -0.1356712   0.0000000), wk =   0.0277778
        k(   64) = (   0.0790180  -0.1175019   0.0000000), wk =   0.0277778
        k(   65) = (   0.0790180  -0.0993326   0.0000000), wk =   0.0277778
        k(   66) = (   0.0790180  -0.0811633   0.0000000), wk =   0.0277778
        k(   67) = (   0.0790180  -0.0629940   0.0000000), wk =   0.0277778
        k(   68) = (  -0.0948216   0.0537896   0.0000000), wk =   0.0138889
        k(   69) = (  -0.0948216   0.0719589   0.0000000), wk =   0.0277778
        k(   70) = (  -0.0948216   0.0901282   0.0000000), wk =   0.0277778
        k(   71) = (  -0.0948216   0.1082975   0.0000000), wk =   0.0277778
        k(   72) = (  -0.0948216   0.1264668   0.0000000), wk =   0.0277778
        k(   73) = (  -0.0948216   0.1446361   0.0000000), wk =   0.0277778
        k(   74) = (  -0.0948216  -0.0552262   0.0000000), wk =   0.0138889

     Check: negative core charge=   -0.000001

     Initial potential from superposition of free atoms

     starting charge  185.99242, renormalised to  186.00000

     negative rho (up, down):  3.421E-03 0.000E+00

     %%%%%%%%%%%%%%%%%%%%%%%%%%%%%%%%%%%%%%%%%%%%%%%%%%%%%%%%%%%%%%%%%%%%%%%%
     %                                                                      %
     % You are using vdW-DF, which was implemented by the Thonhauser group. %
     % Please cite the following two papers that made this development      %
     % possible and the two reviews that describe the various versions:     %
     %                                                                      %
     %   T. Thonhauser et al., PRL 115, 136402 (2015).                      %
     %   T. Thonhauser et al., PRB 76, 125112 (2007).                       %
     %   K. Berland et al., Rep. Prog. Phys. 78, 066501 (2015).             %
     %   D.C. Langreth et al., J. Phys.: Condens. Matter 21, 084203 (2009). %
     %                                                                      %
     %                                                                      %
     % If you are calculating the stress with vdW-DF, please also cite:     %
     %                                                                      %
     %   R. Sabatini et al., J. Phys.: Condens. Matter 24, 424209 (2012).   %
     %                                                                      %
     %%%%%%%%%%%%%%%%%%%%%%%%%%%%%%%%%%%%%%%%%%%%%%%%%%%%%%%%%%%%%%%%%%%%%%%%

     Adding external electric field

     Computed dipole along edir(3) :
        Dipole               -0.0001 Ry au,         -0.0002 Debye
        Dipole field         -0.0000 Ry au,

        Potential amp.        0.0000 Ry
        Total length         44.7991 bohr

     Starting wfcs are  120 randomized atomic wfcs

     Self-consistent Calculation

     iteration #  1     ecut=    55.12 Ry     beta= 0.10
     Davidson diagonalization with overlap
     ethr =  1.00E-02,  avg # of iterations =  2.2

[...]

     total energy              =   -2418.36331104 Ry
     estimated scf accuracy    <       8.46317870 Ry

[...]

     total energy              =   -2419.31619973 Ry
     estimated scf accuracy    <       0.00001726 Ry

     iteration # 20     ecut=    55.12 Ry     beta= 0.10
     Davidson diagonalization with overlap
     ethr =  9.28E-09,  avg # of iterations =  5.4

[...]

     Adding external electric field

     Computed dipole along edir(3) :
        Dipole                0.0044 Ry au,          0.0111 Debye
        Dipole field          0.0000 Ry au,

        Potential amp.       -0.0012 Ry
        Total length         44.7991 bohr

     End of self-consistent calculation

          k = 0.0000 0.0000 0.0000 ( 27443 PWs)   bands (ev):

   -77.4537 -77.4095 -76.8886 -76.8586 -76.8445 -76.8148 -70.3633 -70.3266
   -70.1985 -70.1817 -70.1623 -70.1454 -45.5099 -45.3764 -45.3397 -45.3232
   -45.2832 -45.0647 -44.9798 -44.9325 -44.8110 -44.7851 -44.7538 -44.7277
   -44.6854 -44.6461 -44.6400 -44.5993 -44.5379 -44.4934 -41.7729 -41.6807
   -41.6653 -41.6559 -41.6468 -41.5677 -41.5369 -41.5089 -41.4933 -41.4917
   -41.4840 -41.4786 -41.4732 -41.4547 -41.3742 -41.3517 -41.1957 -41.1909
    -5.2739  -3.8328  -3.6060  -3.5566  -3.5174  -3.5134  -3.1641  -2.8985
    -2.8919  -2.8023  -2.7483  -2.6732  -2.6304  -2.5597  -1.8732  -1.8314
    -1.4463  -1.0503  -0.9761  -0.8958  -0.7994  -0.5907  -0.5239  -0.4542
    -0.4309  -0.2320  -0.0296   0.0535   0.1596   0.4307   0.7173   0.8212
     0.8594   1.0472   1.0553   1.2215   1.2411   1.2773   1.4283   1.4844
     1.7335   1.9077   1.9782   2.0222   2.2664   2.3171   2.5399   2.5532
     2.5774   2.7903   2.8444   2.9029   2.9699   2.9833   3.0685   3.0985
     3.2071   3.2285   3.3412   3.3644   3.5168   3.5697   3.5986   3.6823

[...]

          k = 0.0790-0.0630 0.0000 ( 27448 PWs)   bands (ev):

[...]

          k =-0.0948 0.0538 0.0000 ( 27446 PWs)   bands (ev):

[...]

          k =-0.0948-0.0552 0.0000 ( 27404 PWs)   bands (ev):

   -77.4535 -77.4095 -76.8884 -76.8585 -76.8445 -76.8148 -70.3639 -70.3267
   -70.1990 -70.1822 -70.1623 -70.1454 -45.5018 -45.3730 -45.3207 -45.3206
   -45.2743 -45.0636 -44.9719 -44.9240 -44.7926 -44.7635 -44.7463 -44.7192
   -44.6935 -44.6443 -44.6410 -44.5980 -44.5369 -44.4923 -41.7850 -41.7056
   -41.6790 -41.6690 -41.6531 -41.5584 -41.5317 -41.5285 -41.5045 -41.5013
   -41.4983 -41.4965 -41.4805 -41.4663 -41.3804 -41.3531 -41.1972 -41.1928
    -3.8818  -3.4436  -3.2499  -2.9083  -2.8462  -2.7689  -2.6716  -2.4689
    -2.3717  -2.3158  -1.9865  -1.9847  -1.9056  -1.8691  -1.7491  -1.7079
    -1.5647  -1.2210  -0.9932  -0.7951  -0.7915  -0.6992  -0.4350  -0.3496
    -0.2751  -0.2204  -0.2063  -0.0156   0.1501   0.2599   0.3302   0.3334
     0.4091   0.5078   0.5114   0.6110   0.6724   0.7717   0.8586   0.8625
     0.9437   0.9844   1.0420   1.0527   1.0783   1.4134   1.4228   1.7175
     1.8489   1.8519   1.9784   2.1364   2.2708   2.4093   2.5245   2.5584
     2.5999   2.6058   2.7111   2.7146   3.0052   3.1153   3.1923   3.5511

     the Fermi energy is     1.7149 ev

!    total energy              =   -2419.31619787 Ry
     estimated scf accuracy    <       0.00000790 Ry
     smearing contrib. (-TS)   =      -0.08837014 Ry
     internal energy E=F+TS    =   -2419.22782773 Ry

     The total energy is F=E-TS. E is the sum of the following terms:
     one-electron contribution =  -22308.54660496 Ry
     hartree contribution      =   11150.22494152 Ry
     xc contribution           =    -322.94706574 Ry
     ewald contribution        =    9062.04090139 Ry
     electric field correction =       0.00000006 Ry

     convergence has been achieved in  20 iterations

     negative rho (up, down):  3.299E-03 0.000E+00

     Forces acting on atoms (cartesian axes, Ry/au):

     atom    1 type  1   force =     0.01138545    0.00663597    0.02403012
     atom    2 type  1   force =     0.01139985    0.00663940    0.02400009
     atom    3 type  2   force =    -0.01574199   -0.00915258    0.00271051
     atom    4 type  2   force =    -0.01572866   -0.00917802    0.00271008
     atom    5 type  1   force =     0.00484160    0.00282046   -0.00768110
     atom    6 type  1   force =     0.00491246    0.00286053   -0.00767960
     atom    7 type  2   force =     0.00076231    0.00048805   -0.01649447
     atom    8 type  2   force =     0.00080179    0.00042343   -0.01649552
     atom    9 type  1   force =    -0.00089885   -0.00052896   -0.00179268
     atom   10 type  1   force =    -0.00084233   -0.00049244   -0.00184152
     atom   11 type  2   force =    -0.00043675   -0.00027380   -0.00073359
     atom   12 type  2   force =    -0.00045488   -0.00024204   -0.00073233

     Total force =     0.054007     Total SCF correction =     0.012625
     SCF correction compared to forces is large: reduce conv_thr to get better values

     Writing output data file ./Cr2Rh2/Cr2Rh2_beef.save/

     General routines

     Parallel routines

   This run was terminated on:  19:10:22  10Jul2022

   JOB DONE.