     Program PWSCF v.6.6 starts on 23Jun2022 at 20:19: 7

     R & G space division:  proc/nbgrp/npool/nimage =      37
     Fft bands division:     nmany     =       1
     Reading input from Cr2Re2.in
Warning: card &CELL ignored
Warning: card / ignored

     Current dimensions of program PWSCF are:
     Max number of different atomic species (ntypx) = 10
     Max number of k-points (npk) =  40000
     Max angular momentum in pseudopotentials (lmaxx) =  3
     Presently stress not available with electric field and gates

     Message from routine cell_base_init:
     DEPRECATED: use true lattice parameter, not A to a.u. conversion factor
     file Cr.pbe-spn-rrkjus_psl.1.0.0.UPF: wavefunction(s)  3P renormalized

     IMPORTANT: XC functional enforced from input :
     Exchange-correlation= BEEF-VDW
                           (   1   4  43  14   2   0   0)
     Any further DFT definition will be discarded
     Please, verify this is what you really want

     Subspace diagonalization in iterative solution of the eigenvalue problem:
     a serial algorithm will be used

     bravais-lattice index     =            0
     lattice parameter (alat)  =       1.8897  a.u.
     unit-cell volume          =    4126.6531 (a.u.)^3
     number of atoms/cell      =           12
     number of atomic types    =            2
     number of electrons       =       174.00
     number of Kohn-Sham states=          104
     kinetic-energy cutoff     =      55.1240  Ry
     charge density cutoff     =     551.2396  Ry
     convergence threshold     =      1.0E-05
     mixing beta               =       0.1000
     number of iterations used =           10  plain     mixing
     Exchange-correlation= BEEF-VDW
                           (   1   4  43  14   2   0   0)

     celldm(1)=   1.889726  celldm(2)=   0.000000  celldm(3)=   0.000000
     celldm(4)=   0.000000  celldm(5)=   0.000000  celldm(6)=   0.000000

     crystal axes: (cart. coord. in units of alat)
               a(1) = (   5.173948   0.000000   0.000000 )
               a(2) = (   1.721620   4.879115   0.000000 )
               a(3) = (   0.000000   0.000000  24.223580 )

     reciprocal axes: (cart. coord. in units 2 pi/alat)
               b(1) = (  0.193276 -0.068198  0.000000 )
               b(2) = (  0.000000  0.204955  0.000000 )
               b(3) = (  0.000000  0.000000  0.041282 )

     PseudoPot. # 1 for Cr read from file:
     ../pseudo/Cr.pbe-spn-rrkjus_psl.1.0.0.UPF
     MD5 check sum: 793d051e4f89dd1e3290b85340a92c0a
     Pseudo is Ultrasoft + core correction, Zval = 14.0
     Generated using "atomic" code by A. Dal Corso v.6.2.2
     Using radial grid of 1183 points,  6 beta functions with:
                l(1) =   0
                l(2) =   0
                l(3) =   1
                l(4) =   1
                l(5) =   2
                l(6) =   2
     Q(r) pseudized with 0 coefficients

     PseudoPot. # 2 for Re read from file:
     ../pseudo/Re.pbe-spn-rrkjus_psl.1.0.0.UPF
     MD5 check sum: 1282f1ec51ad523723a04c61ae80a9e6
     Pseudo is Ultrasoft + core correction, Zval = 15.0
     Generated using "atomic" code by A. Dal Corso v.6.2.2
     Using radial grid of 1275 points,  6 beta functions with:
                l(1) =   0
                l(2) =   0
                l(3) =   1
                l(4) =   1
                l(5) =   2
                l(6) =   2
     Q(r) pseudized with 0 coefficients

     atomic species   valence    mass     pseudopotential
        Cr            14.00    51.99610     Cr( 1.00)
        Re            15.00   186.20700     Re( 1.00)

     No symmetry found

   Cartesian axes

     site n.     atom                  positions (alat units)
         1           Cr  tau(   1) = (   0.0000000   0.0000000  10.0000000  )
         2           Cr  tau(   2) = (   3.4477841   2.4395577  10.0000000  )
         3           Re  tau(   3) = (   2.5869742   0.0000000  10.0000000  )
         4           Re  tau(   4) = (   0.8608099   2.4395577  10.0000000  )
         5           Cr  tau(   5) = (   5.1739484   3.6609444  12.1117899  )
         6           Cr  tau(   6) = (   1.7261644   1.2213867  12.1117899  )
         7           Re  tau(   7) = (   2.5869742   3.6609444  12.1117899  )
         8           Re  tau(   8) = (   4.3131386   1.2213867  12.1117899  )
         9           Cr  tau(   9) = (   3.4517230   2.4423509  14.1630745  )
        10           Cr  tau(  10) = (   0.0038840   0.0027419  14.1630849  )
        11           Re  tau(  11) = (   0.8644436   2.4420199  14.1344631  )
        12           Re  tau(  12) = (   2.5905481   0.0026328  14.1344404  )

     number of k points=    74  Fermi-Dirac smearing, width (Ry)=  0.0100
                       cart. coord. in units 2pi/alat
        k(    1) = (   0.0000000   0.0000000   0.0000000), wk =   0.0138889
        k(    2) = (   0.0000000   0.0170796   0.0000000), wk =   0.0277778
        k(    3) = (   0.0000000   0.0341592   0.0000000), wk =   0.0277778
        k(    4) = (   0.0000000   0.0512388   0.0000000), wk =   0.0277778
        k(    5) = (   0.0000000   0.0683184   0.0000000), wk =   0.0277778
        k(    6) = (   0.0000000   0.0853980   0.0000000), wk =   0.0277778
        k(    7) = (   0.0000000  -0.1024776   0.0000000), wk =   0.0138889
        k(    8) = (   0.0161063  -0.0056832   0.0000000), wk =   0.0277778
        k(    9) = (   0.0161063   0.0113964   0.0000000), wk =   0.0277778
        k(   10) = (   0.0161063   0.0284760   0.0000000), wk =   0.0277778
        k(   11) = (   0.0161063   0.0455556   0.0000000), wk =   0.0277778
        k(   12) = (   0.0161063   0.0626352   0.0000000), wk =   0.0277778
        k(   13) = (   0.0161063   0.0797148   0.0000000), wk =   0.0277778
        k(   14) = (   0.0161063  -0.1081608   0.0000000), wk =   0.0277778
        k(   15) = (   0.0161063  -0.0910812   0.0000000), wk =   0.0277778
        k(   16) = (   0.0161063  -0.0740016   0.0000000), wk =   0.0277778
        k(   17) = (   0.0161063  -0.0569220   0.0000000), wk =   0.0277778
        k(   18) = (   0.0161063  -0.0398424   0.0000000), wk =   0.0277778
        k(   19) = (   0.0161063  -0.0227628   0.0000000), wk =   0.0277778
        k(   20) = (   0.0322127  -0.0113664   0.0000000), wk =   0.0277778
        k(   21) = (   0.0322127   0.0057132   0.0000000), wk =   0.0277778
        k(   22) = (   0.0322127   0.0227928   0.0000000), wk =   0.0277778
        k(   23) = (   0.0322127   0.0398724   0.0000000), wk =   0.0277778
        k(   24) = (   0.0322127   0.0569520   0.0000000), wk =   0.0277778
        k(   25) = (   0.0322127   0.0740316   0.0000000), wk =   0.0277778
        k(   26) = (   0.0322127  -0.1138440   0.0000000), wk =   0.0277778
        k(   27) = (   0.0322127  -0.0967644   0.0000000), wk =   0.0277778
        k(   28) = (   0.0322127  -0.0796848   0.0000000), wk =   0.0277778
        k(   29) = (   0.0322127  -0.0626052   0.0000000), wk =   0.0277778
        k(   30) = (   0.0322127  -0.0455256   0.0000000), wk =   0.0277778
        k(   31) = (   0.0322127  -0.0284460   0.0000000), wk =   0.0277778
        k(   32) = (   0.0483190  -0.0170496   0.0000000), wk =   0.0277778
        k(   33) = (   0.0483190   0.0000300   0.0000000), wk =   0.0277778
        k(   34) = (   0.0483190   0.0171096   0.0000000), wk =   0.0277778
        k(   35) = (   0.0483190   0.0341892   0.0000000), wk =   0.0277778
        k(   36) = (   0.0483190   0.0512688   0.0000000), wk =   0.0277778
        k(   37) = (   0.0483190   0.0683484   0.0000000), wk =   0.0277778
        k(   38) = (   0.0483190  -0.1195272   0.0000000), wk =   0.0277778
        k(   39) = (   0.0483190  -0.1024476   0.0000000), wk =   0.0277778
        k(   40) = (   0.0483190  -0.0853680   0.0000000), wk =   0.0277778
        k(   41) = (   0.0483190  -0.0682884   0.0000000), wk =   0.0277778
        k(   42) = (   0.0483190  -0.0512088   0.0000000), wk =   0.0277778
        k(   43) = (   0.0483190  -0.0341292   0.0000000), wk =   0.0277778
        k(   44) = (   0.0644253  -0.0227328   0.0000000), wk =   0.0277778
        k(   45) = (   0.0644253  -0.0056532   0.0000000), wk =   0.0277778
        k(   46) = (   0.0644253   0.0114264   0.0000000), wk =   0.0277778
        k(   47) = (   0.0644253   0.0285060   0.0000000), wk =   0.0277778
        k(   48) = (   0.0644253   0.0455856   0.0000000), wk =   0.0277778
        k(   49) = (   0.0644253   0.0626652   0.0000000), wk =   0.0277778
        k(   50) = (   0.0644253  -0.1252104   0.0000000), wk =   0.0277778
        k(   51) = (   0.0644253  -0.1081308   0.0000000), wk =   0.0277778
        k(   52) = (   0.0644253  -0.0910512   0.0000000), wk =   0.0277778
        k(   53) = (   0.0644253  -0.0739716   0.0000000), wk =   0.0277778
        k(   54) = (   0.0644253  -0.0568920   0.0000000), wk =   0.0277778
        k(   55) = (   0.0644253  -0.0398124   0.0000000), wk =   0.0277778
        k(   56) = (   0.0805317  -0.0284160   0.0000000), wk =   0.0277778
        k(   57) = (   0.0805317  -0.0113364   0.0000000), wk =   0.0277778
        k(   58) = (   0.0805317   0.0057432   0.0000000), wk =   0.0277778
        k(   59) = (   0.0805317   0.0228228   0.0000000), wk =   0.0277778
        k(   60) = (   0.0805317   0.0399024   0.0000000), wk =   0.0277778
        k(   61) = (   0.0805317   0.0569820   0.0000000), wk =   0.0277778
        k(   62) = (   0.0805317  -0.1308936   0.0000000), wk =   0.0277778
        k(   63) = (   0.0805317  -0.1138140   0.0000000), wk =   0.0277778
        k(   64) = (   0.0805317  -0.0967344   0.0000000), wk =   0.0277778
        k(   65) = (   0.0805317  -0.0796548   0.0000000), wk =   0.0277778
        k(   66) = (   0.0805317  -0.0625752   0.0000000), wk =   0.0277778
        k(   67) = (   0.0805317  -0.0454956   0.0000000), wk =   0.0277778
        k(   68) = (  -0.0966380   0.0340992   0.0000000), wk =   0.0138889
        k(   69) = (  -0.0966380   0.0511788   0.0000000), wk =   0.0277778
        k(   70) = (  -0.0966380   0.0682584   0.0000000), wk =   0.0277778
        k(   71) = (  -0.0966380   0.0853380   0.0000000), wk =   0.0277778
        k(   72) = (  -0.0966380   0.1024176   0.0000000), wk =   0.0277778
        k(   73) = (  -0.0966380   0.1194972   0.0000000), wk =   0.0277778
        k(   74) = (  -0.0966380  -0.0683784   0.0000000), wk =   0.0138889

     Initial potential from superposition of free atoms

     starting charge  173.99356, renormalised to  174.00000

     negative rho (up, down):  3.299E-03 0.000E+00

     %%%%%%%%%%%%%%%%%%%%%%%%%%%%%%%%%%%%%%%%%%%%%%%%%%%%%%%%%%%%%%%%%%%%%%%%
     %                                                                      %
     % You are using vdW-DF, which was implemented by the Thonhauser group. %
     % Please cite the following two papers that made this development      %
     % possible and the two reviews that describe the various versions:     %
     %                                                                      %
     %   T. Thonhauser et al., PRL 115, 136402 (2015).                      %
     %   T. Thonhauser et al., PRB 76, 125112 (2007).                       %
     %   K. Berland et al., Rep. Prog. Phys. 78, 066501 (2015).             %
     %   D.C. Langreth et al., J. Phys.: Condens. Matter 21, 084203 (2009). %
     %                                                                      %
     %                                                                      %
     % If you are calculating the stress with vdW-DF, please also cite:     %
     %                                                                      %
     %   R. Sabatini et al., J. Phys.: Condens. Matter 24, 424209 (2012).   %
     %                                                                      %
     %%%%%%%%%%%%%%%%%%%%%%%%%%%%%%%%%%%%%%%%%%%%%%%%%%%%%%%%%%%%%%%%%%%%%%%%

     Adding external electric field

     Computed dipole along edir(3) :
        Dipole                0.0000 Ry au,          0.0001 Debye
        Dipole field          0.0000 Ry au,

        Potential amp.       -0.0000 Ry
        Total length         44.6315 bohr

     Starting wfcs are  120 randomized atomic wfcs

     Self-consistent Calculation

     iteration #  1     ecut=    55.12 Ry     beta= 0.10
     Davidson diagonalization with overlap
     ethr =  1.00E-02,  avg # of iterations =  2.2

[...]

     total energy              =   -2129.48807314 Ry
     estimated scf accuracy    <       6.35250496 Ry

[...]

     iteration # 10     ecut=    55.12 Ry     beta= 0.10
     Davidson diagonalization with overlap
     c_bands:  1 eigenvalues not converged
     c_bands:  1 eigenvalues not converged
     ethr =  1.10E-05,  avg # of iterations =  9.6

[...]

     iteration # 15     ecut=    55.12 Ry     beta= 0.10
     Davidson diagonalization with overlap
     c_bands:  1 eigenvalues not converged
     ethr =  8.31E-07,  avg # of iterations =  8.6

[...]

     total energy              =   -2130.21216735 Ry
     estimated scf accuracy    <       0.00002237 Ry

     iteration # 21     ecut=    55.12 Ry     beta= 0.10
     Davidson diagonalization with overlap
     ethr =  1.18E-08,  avg # of iterations =  2.0

[...]

     Adding external electric field

     Computed dipole along edir(3) :
        Dipole                0.0249 Ry au,          0.0634 Debye
        Dipole field          0.0001 Ry au,

        Potential amp.       -0.0068 Ry
        Total length         44.6315 bohr

     End of self-consistent calculation

          k = 0.0000 0.0000 0.0000 ( 28539 PWs)   bands (ev):

   -78.9148 -78.9014 -78.4779 -78.4764 -78.4654 -78.4638 -70.3916 -70.3837
   -69.9769 -69.9750 -69.9692 -69.9674 -41.9520 -41.8260 -41.8087 -41.7471
   -41.7236 -41.7009 -41.4529 -41.4364 -41.3711 -41.3695 -41.3602 -41.3568
   -41.3422 -41.3342 -41.3285 -41.2932 -41.2138 -41.1901 -40.5878 -40.5590
   -40.5239 -40.4964 -40.4930 -40.4679 -40.2450 -40.2235 -40.1840 -40.1648
   -40.1561 -40.1381 -40.0543 -40.0464 -40.0303 -40.0196 -40.0058 -39.9885
    -6.4630  -4.3096  -3.7221  -3.5925  -3.5547  -3.3671  -3.3479  -3.1066
    -3.0345  -2.9823  -2.2467  -2.1557  -1.7337  -1.4260  -1.3012  -1.2822
    -1.2029  -1.0973  -1.0785  -1.0189  -0.8710  -0.5721  -0.2604  -0.2340
     0.2148   0.3088   0.5021   0.7526   0.9203   1.3197   1.4356   1.6130
     1.7272   1.7894   2.2492   2.4411   2.4566   2.6118   2.6954   2.7136
     2.7194   2.8916   2.9251   2.9312   2.9326   2.9966   3.0799   3.1458
     3.1567   3.3520   3.3596   3.3807   3.3857   3.4329   3.5914   3.6243

[...]

          k = 0.0805-0.0455 0.0000 ( 28505 PWs)   bands (ev):

[...]

          k =-0.0966 0.0341 0.0000 ( 28538 PWs)   bands (ev):

[...]

          k =-0.0966-0.0684 0.0000 ( 28440 PWs)   bands (ev):

   -78.9142 -78.9018 -78.4777 -78.4763 -78.4653 -78.4637 -70.3924 -70.3839
   -69.9779 -69.9759 -69.9693 -69.9674 -41.8595 -41.7225 -41.7014 -41.6772
   -41.6763 -41.6624 -41.4556 -41.4395 -41.3613 -41.3324 -41.3256 -41.2667
   -41.2445 -41.2346 -41.2297 -41.2266 -41.1979 -41.1677 -40.7076 -40.6813
   -40.6750 -40.5276 -40.5208 -40.4899 -40.2991 -40.2408 -40.2174 -40.1945
   -40.1763 -40.1731 -40.1694 -40.1522 -40.1415 -40.1317 -40.0326 -40.0151
    -4.5373  -4.0193  -3.3860  -3.3365  -2.4291  -2.3184  -2.2797  -2.2461
    -2.0815  -1.7929  -1.7547  -1.6058  -1.3877  -1.3538  -1.2175  -0.9310
    -0.8123  -0.4730  -0.4723  -0.3722  -0.1591  -0.0933  -0.0848   0.0492
     0.2539   0.3660   0.4830   0.5973   0.7711   0.8077   0.8622   0.9153
     0.9237   0.9349   0.9588   1.0777   1.1259   1.1301   1.1351   1.5285
     1.7868   1.9363   1.9536   2.0983   2.1440   2.1457   2.1546   2.3015
     2.3045   2.4095   2.4193   2.4577   2.7829   2.8690   2.9303   2.9873

     the Fermi energy is     1.9682 ev

!    total energy              =   -2130.21215766 Ry
     estimated scf accuracy    <       0.00000366 Ry
     smearing contrib. (-TS)   =      -0.07273634 Ry
     internal energy E=F+TS    =   -2130.13942132 Ry

     The total energy is F=E-TS. E is the sum of the following terms:
     one-electron contribution =  -18660.86351266 Ry
     hartree contribution      =    9315.04222572 Ry
     xc contribution           =    -384.20835471 Ry
     ewald contribution        =    7599.89021845 Ry
     electric field correction =       0.00000189 Ry

     convergence has been achieved in  21 iterations

     negative rho (up, down):  3.058E-03 0.000E+00

     Forces acting on atoms (cartesian axes, Ry/au):

     atom    1 type  1   force =     0.00007886    0.00005953    0.01146630
     atom    2 type  1   force =     0.00005878    0.00003909    0.01157368
     atom    3 type  2   force =     0.00011792    0.00011069    0.02108696
     atom    4 type  2   force =     0.00014048    0.00007289    0.02109477
     atom    5 type  1   force =     0.00020287    0.00013742   -0.01473678
     atom    6 type  1   force =    -0.00012049   -0.00008082   -0.01478992
     atom    7 type  2   force =    -0.00002927    0.00000106   -0.01830375
     atom    8 type  2   force =    -0.00000237   -0.00002418   -0.01830357
     atom    9 type  1   force =    -0.00017030   -0.00012648   -0.00103794
     atom   10 type  1   force =    -0.00009009   -0.00005916   -0.00107306
     atom   11 type  2   force =    -0.00009713   -0.00005568    0.00150493
     atom   12 type  2   force =    -0.00008924   -0.00007435    0.00151839

     Total force =     0.047624     Total SCF correction =     0.007220
     SCF correction compared to forces is large: reduce conv_thr to get better values

     Writing output data file ./Cr2Re2/Cr2Re2_beef.save/

     General routines

     Parallel routines

   This run was terminated on:  21:27:23  23Jun2022

   JOB DONE.