     Program PWSCF v.6.6 starts on 10Jul2022 at 19:15:40

     R & G space division:  proc/nbgrp/npool/nimage =      37
     Fft bands division:     nmany     =       1
     Reading input from Cr2Ru2.in
Warning: card &CELL ignored
Warning: card / ignored

     Current dimensions of program PWSCF are:
     Max number of different atomic species (ntypx) = 10
     Max number of k-points (npk) =  40000
     Max angular momentum in pseudopotentials (lmaxx) =  3
     Presently stress not available with electric field and gates

     Message from routine cell_base_init:
     DEPRECATED: use true lattice parameter, not A to a.u. conversion factor
     file Cr.pbe-spn-rrkjus_psl.1.0.0.UPF: wavefunction(s)  3P renormalized

     IMPORTANT: XC functional enforced from input :
     Exchange-correlation= BEEF-VDW
                           (   1   4  43  14   2   0   0)
     Any further DFT definition will be discarded
     Please, verify this is what you really want

     Subspace diagonalization in iterative solution of the eigenvalue problem:
     a serial algorithm will be used

     bravais-lattice index     =            0
     lattice parameter (alat)  =       1.8897  a.u.
     unit-cell volume          =    3954.7079 (a.u.)^3
     number of atoms/cell      =           12
     number of atomic types    =            2
     number of electrons       =       180.00
     number of Kohn-Sham states=          108
     kinetic-energy cutoff     =      55.1240  Ry
     charge density cutoff     =     551.2396  Ry
     convergence threshold     =      1.0E-05
     mixing beta               =       0.1000
     number of iterations used =           10  plain     mixing
     Exchange-correlation= BEEF-VDW
                           (   1   4  43  14   2   0   0)

     celldm(1)=   1.889726  celldm(2)=   0.000000  celldm(3)=   0.000000
     celldm(4)=   0.000000  celldm(5)=   0.000000  celldm(6)=   0.000000

     crystal axes: (cart. coord. in units of alat)
               a(1) = (   5.241237   0.000000   0.000000 )
               a(2) = (   2.511725   4.600196   0.000000 )
               a(3) = (   0.000000   0.000000  24.305679 )

     reciprocal axes: (cart. coord. in units 2 pi/alat)
               b(1) = (  0.190795 -0.104175  0.000000 )
               b(2) = (  0.000000  0.217382  0.000000 )
               b(3) = (  0.000000  0.000000  0.041143 )

     PseudoPot. # 1 for Cr read from file:
     ../pseudo/Cr.pbe-spn-rrkjus_psl.1.0.0.UPF
     MD5 check sum: 793d051e4f89dd1e3290b85340a92c0a
     Pseudo is Ultrasoft + core correction, Zval = 14.0
     Generated using "atomic" code by A. Dal Corso v.6.2.2
     Using radial grid of 1183 points,  6 beta functions with:
                l(1) =   0
                l(2) =   0
                l(3) =   1
                l(4) =   1
                l(5) =   2
                l(6) =   2
     Q(r) pseudized with 0 coefficients

     PseudoPot. # 2 for Ru read from file:
     ../pseudo/Ru.pbe-spn-rrkjus_psl.1.0.0.UPF
     MD5 check sum: fbaca725316a1a65f98761fd4ac95971
     Pseudo is Ultrasoft + core correction, Zval = 16.0
     Generated using "atomic" code by A. Dal Corso v.6.2.2
     Using radial grid of 1233 points,  6 beta functions with:
                l(1) =   0
                l(2) =   0
                l(3) =   1
                l(4) =   1
                l(5) =   2
                l(6) =   2
     Q(r) pseudized with 0 coefficients

     atomic species   valence    mass     pseudopotential
        Cr            14.00    51.99610     Cr( 1.00)
        Ru            16.00   101.07000     Ru( 1.00)

     No symmetry found

   Cartesian axes

     site n.     atom                  positions (alat units)
         1           Cr  tau(   1) = (   0.0000000   0.0000000  10.0000000  )
         2           Cr  tau(   2) = (   3.8764808   2.3000979  10.0000000  )
         3           Ru  tau(   3) = (   2.6206184   0.0000000  10.0000000  )
         4           Ru  tau(   4) = (   1.2558624   2.3000979  10.0000000  )
         5           Cr  tau(   5) = (   5.2412368   3.1098717  12.1528393  )
         6           Cr  tau(   6) = (   1.3647560   0.8097738  12.1528393  )
         7           Ru  tau(   7) = (   2.6206184   3.1098717  12.1528393  )
         8           Ru  tau(   8) = (   3.9853744   0.8097738  12.1528393  )
         9           Cr  tau(   9) = (   2.6460194   1.5700076  14.1433983  )
        10           Cr  tau(  10) = (   6.5224309   3.8700643  14.1433882  )
        11           Ru  tau(  11) = (   5.3069255   1.5942974  14.2629593  )
        12           Ru  tau(  12) = (   3.9425077   3.8938257  14.2629574  )

     number of k points=    74  Fermi-Dirac smearing, width (Ry)=  0.0100
                       cart. coord. in units 2pi/alat
        k(    1) = (   0.0000000   0.0000000   0.0000000), wk =   0.0138889
        k(    2) = (   0.0000000   0.0181152   0.0000000), wk =   0.0277778
        k(    3) = (   0.0000000   0.0362303   0.0000000), wk =   0.0277778
        k(    4) = (   0.0000000   0.0543455   0.0000000), wk =   0.0277778
        k(    5) = (   0.0000000   0.0724607   0.0000000), wk =   0.0277778
        k(    6) = (   0.0000000   0.0905759   0.0000000), wk =   0.0277778
        k(    7) = (   0.0000000  -0.1086910   0.0000000), wk =   0.0138889
        k(    8) = (   0.0158996  -0.0086812   0.0000000), wk =   0.0277778
        k(    9) = (   0.0158996   0.0094340   0.0000000), wk =   0.0277778
        k(   10) = (   0.0158996   0.0275491   0.0000000), wk =   0.0277778
        k(   11) = (   0.0158996   0.0456643   0.0000000), wk =   0.0277778
        k(   12) = (   0.0158996   0.0637795   0.0000000), wk =   0.0277778
        k(   13) = (   0.0158996   0.0818946   0.0000000), wk =   0.0277778
        k(   14) = (   0.0158996  -0.1173722   0.0000000), wk =   0.0277778
        k(   15) = (   0.0158996  -0.0992571   0.0000000), wk =   0.0277778
        k(   16) = (   0.0158996  -0.0811419   0.0000000), wk =   0.0277778
        k(   17) = (   0.0158996  -0.0630267   0.0000000), wk =   0.0277778
        k(   18) = (   0.0158996  -0.0449116   0.0000000), wk =   0.0277778
        k(   19) = (   0.0158996  -0.0267964   0.0000000), wk =   0.0277778
        k(   20) = (   0.0317991  -0.0173624   0.0000000), wk =   0.0277778
        k(   21) = (   0.0317991   0.0007527   0.0000000), wk =   0.0277778
        k(   22) = (   0.0317991   0.0188679   0.0000000), wk =   0.0277778
        k(   23) = (   0.0317991   0.0369831   0.0000000), wk =   0.0277778
        k(   24) = (   0.0317991   0.0550982   0.0000000), wk =   0.0277778
        k(   25) = (   0.0317991   0.0732134   0.0000000), wk =   0.0277778
        k(   26) = (   0.0317991  -0.1260535   0.0000000), wk =   0.0277778
        k(   27) = (   0.0317991  -0.1079383   0.0000000), wk =   0.0277778
        k(   28) = (   0.0317991  -0.0898231   0.0000000), wk =   0.0277778
        k(   29) = (   0.0317991  -0.0717079   0.0000000), wk =   0.0277778
        k(   30) = (   0.0317991  -0.0535928   0.0000000), wk =   0.0277778
        k(   31) = (   0.0317991  -0.0354776   0.0000000), wk =   0.0277778
        k(   32) = (   0.0476987  -0.0260437   0.0000000), wk =   0.0277778
        k(   33) = (   0.0476987  -0.0079285   0.0000000), wk =   0.0277778
        k(   34) = (   0.0476987   0.0101867   0.0000000), wk =   0.0277778
        k(   35) = (   0.0476987   0.0283019   0.0000000), wk =   0.0277778
        k(   36) = (   0.0476987   0.0464170   0.0000000), wk =   0.0277778
        k(   37) = (   0.0476987   0.0645322   0.0000000), wk =   0.0277778
        k(   38) = (   0.0476987  -0.1347347   0.0000000), wk =   0.0277778
        k(   39) = (   0.0476987  -0.1166195   0.0000000), wk =   0.0277778
        k(   40) = (   0.0476987  -0.0985043   0.0000000), wk =   0.0277778
        k(   41) = (   0.0476987  -0.0803892   0.0000000), wk =   0.0277778
        k(   42) = (   0.0476987  -0.0622740   0.0000000), wk =   0.0277778
        k(   43) = (   0.0476987  -0.0441588   0.0000000), wk =   0.0277778
        k(   44) = (   0.0635982  -0.0347249   0.0000000), wk =   0.0277778
        k(   45) = (   0.0635982  -0.0166097   0.0000000), wk =   0.0277778
        k(   46) = (   0.0635982   0.0015055   0.0000000), wk =   0.0277778
        k(   47) = (   0.0635982   0.0196206   0.0000000), wk =   0.0277778
        k(   48) = (   0.0635982   0.0377358   0.0000000), wk =   0.0277778
        k(   49) = (   0.0635982   0.0558510   0.0000000), wk =   0.0277778
        k(   50) = (   0.0635982  -0.1434159   0.0000000), wk =   0.0277778
        k(   51) = (   0.0635982  -0.1253007   0.0000000), wk =   0.0277778
        k(   52) = (   0.0635982  -0.1071856   0.0000000), wk =   0.0277778
        k(   53) = (   0.0635982  -0.0890704   0.0000000), wk =   0.0277778
        k(   54) = (   0.0635982  -0.0709552   0.0000000), wk =   0.0277778
        k(   55) = (   0.0635982  -0.0528400   0.0000000), wk =   0.0277778
        k(   56) = (   0.0794978  -0.0434061   0.0000000), wk =   0.0277778
        k(   57) = (   0.0794978  -0.0252909   0.0000000), wk =   0.0277778
        k(   58) = (   0.0794978  -0.0071758   0.0000000), wk =   0.0277778
        k(   59) = (   0.0794978   0.0109394   0.0000000), wk =   0.0277778
        k(   60) = (   0.0794978   0.0290546   0.0000000), wk =   0.0277778
        k(   61) = (   0.0794978   0.0471698   0.0000000), wk =   0.0277778
        k(   62) = (   0.0794978  -0.1520971   0.0000000), wk =   0.0277778
        k(   63) = (   0.0794978  -0.1339819   0.0000000), wk =   0.0277778
        k(   64) = (   0.0794978  -0.1158668   0.0000000), wk =   0.0277778
        k(   65) = (   0.0794978  -0.0977516   0.0000000), wk =   0.0277778
        k(   66) = (   0.0794978  -0.0796364   0.0000000), wk =   0.0277778
        k(   67) = (   0.0794978  -0.0615213   0.0000000), wk =   0.0277778
        k(   68) = (  -0.0953973   0.0520873   0.0000000), wk =   0.0138889
        k(   69) = (  -0.0953973   0.0702025   0.0000000), wk =   0.0277778
        k(   70) = (  -0.0953973   0.0883177   0.0000000), wk =   0.0277778
        k(   71) = (  -0.0953973   0.1064328   0.0000000), wk =   0.0277778
        k(   72) = (  -0.0953973   0.1245480   0.0000000), wk =   0.0277778
        k(   73) = (  -0.0953973   0.1426632   0.0000000), wk =   0.0277778
        k(   74) = (  -0.0953973  -0.0566037   0.0000000), wk =   0.0138889

     Check: negative core charge=   -0.000001

     Initial potential from superposition of free atoms

     starting charge  179.99154, renormalised to  180.00000

     negative rho (up, down):  3.427E-03 0.000E+00

     %%%%%%%%%%%%%%%%%%%%%%%%%%%%%%%%%%%%%%%%%%%%%%%%%%%%%%%%%%%%%%%%%%%%%%%%
     %                                                                      %
     % You are using vdW-DF, which was implemented by the Thonhauser group. %
     % Please cite the following two papers that made this development      %
     % possible and the two reviews that describe the various versions:     %
     %                                                                      %
     %   T. Thonhauser et al., PRL 115, 136402 (2015).                      %
     %   T. Thonhauser et al., PRB 76, 125112 (2007).                       %
     %   K. Berland et al., Rep. Prog. Phys. 78, 066501 (2015).             %
     %   D.C. Langreth et al., J. Phys.: Condens. Matter 21, 084203 (2009). %
     %                                                                      %
     %                                                                      %
     % If you are calculating the stress with vdW-DF, please also cite:     %
     %                                                                      %
     %   R. Sabatini et al., J. Phys.: Condens. Matter 24, 424209 (2012).   %
     %                                                                      %
     %%%%%%%%%%%%%%%%%%%%%%%%%%%%%%%%%%%%%%%%%%%%%%%%%%%%%%%%%%%%%%%%%%%%%%%%

     Adding external electric field

     Computed dipole along edir(3) :
        Dipole               -0.0001 Ry au,         -0.0001 Debye
        Dipole field         -0.0000 Ry au,

        Potential amp.        0.0000 Ry
        Total length         44.7828 bohr

     Starting wfcs are  120 randomized atomic wfcs

     Self-consistent Calculation

     iteration #  1     ecut=    55.12 Ry     beta= 0.10
     Davidson diagonalization with overlap
     ethr =  1.00E-02,  avg # of iterations =  2.1

[...]

     total energy              =   -2241.90527174 Ry
     estimated scf accuracy    <       7.97011134 Ry

[...]

     iteration #  8     ecut=    55.12 Ry     beta= 0.10
     Davidson diagonalization with overlap
     c_bands:  2 eigenvalues not converged
     c_bands:  2 eigenvalues not converged
     ethr =  3.34E-05,  avg # of iterations =  6.4

[...]

     iteration # 11     ecut=    55.12 Ry     beta= 0.10
     Davidson diagonalization with overlap
     c_bands:  1 eigenvalues not converged
     c_bands:  1 eigenvalues not converged
     c_bands:  1 eigenvalues not converged
     ethr =  3.47E-06,  avg # of iterations =  9.8

[...]

     total energy              =   -2242.78040824 Ry
     estimated scf accuracy    <       0.00001477 Ry

     iteration # 22     ecut=    55.12 Ry     beta= 0.10
     Davidson diagonalization with overlap
     ethr =  8.21E-09,  avg # of iterations =  2.3

[...]

     Adding external electric field

     Computed dipole along edir(3) :
        Dipole                0.0238 Ry au,          0.0606 Debye
        Dipole field          0.0001 Ry au,

        Potential amp.       -0.0068 Ry
        Total length         44.7828 bohr

     End of self-consistent calculation

          k = 0.0000 0.0000 0.0000 ( 27331 PWs)   bands (ev):

   -71.2463 -71.1801 -70.8287 -70.8148 -70.7641 -70.7501 -70.1188 -70.0916
   -70.0308 -70.0016 -69.9451 -69.9160 -41.7660 -41.7338 -41.7147 -41.6675
   -41.5530 -41.5498 -41.5418 -41.4479 -41.4078 -41.4069 -41.4038 -41.3826
   -41.3198 -41.3068 -41.2028 -41.1442 -41.1264 -41.0997 -41.0819 -41.0393
   -41.0327 -41.0035 -40.9211 -40.8957 -40.8600 -40.8451 -40.7780 -40.7264
   -40.6540 -40.6403 -40.6285 -40.5992 -40.5959 -40.5655 -40.4869 -40.4801
    -5.0252  -3.5869  -3.3638  -3.2211  -3.2091  -3.1405  -2.7899  -2.5682
    -2.5518  -2.4354  -2.4109  -2.3209  -2.2805  -2.1899  -1.5409  -1.4340
    -1.0271  -0.6659  -0.3927  -0.1816  -0.1772  -0.1012  -0.0114   0.1636
     0.2157   0.4493   0.5433   0.5556   0.6584   0.8414   1.0995   1.1413
     1.2939   1.3383   1.4309   1.5388   1.8195   1.9020   2.0941   2.1169
     2.1699   2.2598   2.3295   2.5124   2.7442   2.7508   2.7905   3.2033
     3.2400   3.2852   3.4160   3.4252   3.4629   3.5430   3.5791   3.7425
     3.7952   3.8284   3.8648   3.9811

[...]

          k = 0.0795-0.0615 0.0000 ( 27363 PWs)   bands (ev):

[...]

          k =-0.0954 0.0521 0.0000 ( 27380 PWs)   bands (ev):

[...]

          k =-0.0954-0.0566 0.0000 ( 27228 PWs)   bands (ev):

   -71.2428 -71.1802 -70.8255 -70.8116 -70.7641 -70.7501 -70.1234 -70.0918
   -70.0346 -70.0016 -69.9482 -69.9160 -41.6207 -41.6097 -41.6020 -41.5319
   -41.4888 -41.4869 -41.4735 -41.4511 -41.3460 -41.3302 -41.3239 -41.3219
   -41.2822 -41.2693 -41.2543 -41.2281 -41.1718 -41.1491 -41.1243 -41.0787
   -41.0476 -41.0316 -41.0180 -41.0020 -40.9713 -40.8568 -40.7885 -40.7467
   -40.7343 -40.6922 -40.6853 -40.6677 -40.6610 -40.6391 -40.5001 -40.4941
    -3.5245  -3.1443  -2.8912  -2.5002  -2.3971  -2.2884  -2.2344  -2.1104
    -1.9402  -1.8764  -1.5394  -1.5115  -1.3710  -1.3344  -1.2778  -1.2041
    -1.1926  -0.8052  -0.6163  -0.3104  -0.1739  -0.1684   0.0266   0.0689
     0.1457   0.2079   0.4630   0.4982   0.5600   0.6614   0.7535   0.8210
     0.9171   0.9397   0.9961   1.0134   1.0305   1.0573   1.1311   1.2620
     1.2642   1.5327   1.6867   1.8308   1.8451   1.8635   2.0936   2.1157
     2.1947   2.3643   2.4809   2.5398   2.5864   2.6554   2.7047   2.8491
     2.8799   2.9575   3.2830   3.3577

     the Fermi energy is     1.8408 ev

!    total energy              =   -2242.78040247 Ry
     estimated scf accuracy    <       0.00000630 Ry
     smearing contrib. (-TS)   =      -0.08613055 Ry
     internal energy E=F+TS    =   -2242.69427192 Ry

     The total energy is F=E-TS. E is the sum of the following terms:
     one-electron contribution =  -20913.57748797 Ry
     hartree contribution      =   10452.38979811 Ry
     xc contribution           =    -318.67843357 Ry
     ewald contribution        =    8537.17184970 Ry
     electric field correction =       0.00000180 Ry

     convergence has been achieved in  22 iterations

     negative rho (up, down):  3.217E-03 0.000E+00

     Forces acting on atoms (cartesian axes, Ry/au):

     atom    1 type  1   force =     0.00472081    0.00280725    0.02400584
     atom    2 type  1   force =     0.00474429    0.00281042    0.02396458
     atom    3 type  2   force =    -0.00368886   -0.00222069    0.00425014
     atom    4 type  2   force =    -0.00372257   -0.00217759    0.00424826
     atom    5 type  1   force =     0.00116695    0.00068866   -0.00439992
     atom    6 type  1   force =     0.00081633    0.00048683   -0.00469063
     atom    7 type  2   force =    -0.00120445   -0.00028401   -0.02224581
     atom    8 type  2   force =    -0.00082206   -0.00091880   -0.02224935
     atom    9 type  1   force =    -0.00041550   -0.00024726   -0.00028029
     atom   10 type  1   force =    -0.00030473   -0.00017866   -0.00025718
     atom   11 type  2   force =    -0.00055563   -0.00053509   -0.00117427
     atom   12 type  2   force =    -0.00073458   -0.00023106   -0.00117137

     Total force =     0.048228     Total SCF correction =     0.007482
     SCF correction compared to forces is large: reduce conv_thr to get better values

     Writing output data file ./Cr2Ru2/Cr2Ru2_beef.save/

     General routines

     Parallel routines

   This run was terminated on:  20:31:35  10Jul2022

   JOB DONE.