     Program PWSCF v.6.6 starts on 24Jun2022 at  0:14:34

     R & G space division:  proc/nbgrp/npool/nimage =      37
     Fft bands division:     nmany     =       1
     Reading input from Cr2Ta2.in
Warning: card &CELL ignored
Warning: card / ignored

     Current dimensions of program PWSCF are:
     Max number of different atomic species (ntypx) = 10
     Max number of k-points (npk) =  40000
     Max angular momentum in pseudopotentials (lmaxx) =  3
     Presently stress not available with electric field and gates

     Message from routine cell_base_init:
     DEPRECATED: use true lattice parameter, not A to a.u. conversion factor
     file Cr.pbe-spn-rrkjus_psl.1.0.0.UPF: wavefunction(s)  3P renormalized
     file Ta.pbe-spfn-rrkjus_psl.1.0.0.UPF: wavefunction(s)  5S 5P renormalized

     IMPORTANT: XC functional enforced from input :
     Exchange-correlation= BEEF-VDW
                           (   1   4  43  14   2   0   0)
     Any further DFT definition will be discarded
     Please, verify this is what you really want

     Subspace diagonalization in iterative solution of the eigenvalue problem:
     a serial algorithm will be used

     Found symmetry operation: I + ( -0.5000  0.5000  0.0000)
     This is a supercell, fractional translations are disabled

     bravais-lattice index     =            0
     lattice parameter (alat)  =       1.8897  a.u.
     unit-cell volume          =    4481.5156 (a.u.)^3
     number of atoms/cell      =           12
     number of atomic types    =            2
     number of electrons       =       246.00
     number of Kohn-Sham states=          148
     kinetic-energy cutoff     =      55.1240  Ry
     charge density cutoff     =     551.2396  Ry
     convergence threshold     =      1.0E-05
     mixing beta               =       0.1000
     number of iterations used =           10  plain     mixing
     Exchange-correlation= BEEF-VDW
                           (   1   4  43  14   2   0   0)

     celldm(1)=   1.889726  celldm(2)=   0.000000  celldm(3)=   0.000000
     celldm(4)=   0.000000  celldm(5)=   0.000000  celldm(6)=   0.000000

     crystal axes: (cart. coord. in units of alat)
               a(1) = (   5.374210   0.000000   0.000000 )
               a(2) = (   1.791456   5.066836   0.000000 )
               a(3) = (   0.000000   0.000000  24.388041 )

     reciprocal axes: (cart. coord. in units 2 pi/alat)
               b(1) = (  0.186074 -0.065789  0.000000 )
               b(2) = (  0.000000  0.197362  0.000000 )
               b(3) = (  0.000000  0.000000  0.041004 )

     PseudoPot. # 1 for Cr read from file:
     ../pseudo/Cr.pbe-spn-rrkjus_psl.1.0.0.UPF
     MD5 check sum: 793d051e4f89dd1e3290b85340a92c0a
     Pseudo is Ultrasoft + core correction, Zval = 14.0
     Generated using "atomic" code by A. Dal Corso v.6.2.2
     Using radial grid of 1183 points,  6 beta functions with:
                l(1) =   0
                l(2) =   0
                l(3) =   1
                l(4) =   1
                l(5) =   2
                l(6) =   2
     Q(r) pseudized with 0 coefficients

     PseudoPot. # 2 for Ta read from file:
     ../pseudo/Ta.pbe-spfn-rrkjus_psl.1.0.0.UPF
     MD5 check sum: 39d7d349fe394e56adf8454eb9315fbb
     Pseudo is Ultrasoft + core correction, Zval = 27.0
     Generated using "atomic" code by A. Dal Corso v.6.3
     Using radial grid of 1273 points,  8 beta functions with:
                l(1) =   0
                l(2) =   0
                l(3) =   1
                l(4) =   1
                l(5) =   2
                l(6) =   2
                l(7) =   3
                l(8) =   3
     Q(r) pseudized with 0 coefficients

     atomic species   valence    mass     pseudopotential
        Cr            14.00    51.99610     Cr( 1.00)
        Ta            27.00   180.94788     Ta( 1.00)

     No symmetry found

   Cartesian axes

     site n.     atom                  positions (alat units)
         1           Cr  tau(   1) = (   0.0000000   0.0000000  10.0000000  )
         2           Cr  tau(   2) = (   3.5828333   2.5334178  10.0000000  )
         3           Ta  tau(   3) = (   2.6871052   0.0000000  10.0000000  )
         4           Ta  tau(   4) = (   0.8957281   2.5334178  10.0000000  )
         5           Cr  tau(   5) = (   5.3742104   3.8000987  12.1940203  )
         6           Cr  tau(   6) = (   1.7913771   1.2666809  12.1940203  )
         7           Ta  tau(   7) = (   2.6871052   3.8000987  12.1940203  )
         8           Ta  tau(   8) = (   4.4784824   1.2666809  12.1940203  )
         9           Cr  tau(   9) = (   3.5827723   2.5333758  14.2909049  )
        10           Cr  tau(  10) = (   7.1656010   5.0667885  14.2909545  )
        11           Ta  tau(  11) = (   6.2698898   2.5333705  14.3636484  )
        12           Ta  tau(  12) = (   4.4785021   5.0668071  14.3636500  )

     number of k points=    74  Fermi-Dirac smearing, width (Ry)=  0.0100
                       cart. coord. in units 2pi/alat
        k(    1) = (   0.0000000   0.0000000   0.0000000), wk =   0.0138889
        k(    2) = (   0.0000000   0.0164468   0.0000000), wk =   0.0277778
        k(    3) = (   0.0000000   0.0328936   0.0000000), wk =   0.0277778
        k(    4) = (   0.0000000   0.0493405   0.0000000), wk =   0.0277778
        k(    5) = (   0.0000000   0.0657873   0.0000000), wk =   0.0277778
        k(    6) = (   0.0000000   0.0822341   0.0000000), wk =   0.0277778
        k(    7) = (   0.0000000  -0.0986809   0.0000000), wk =   0.0138889
        k(    8) = (   0.0155062  -0.0054824   0.0000000), wk =   0.0277778
        k(    9) = (   0.0155062   0.0109644   0.0000000), wk =   0.0277778
        k(   10) = (   0.0155062   0.0274112   0.0000000), wk =   0.0277778
        k(   11) = (   0.0155062   0.0438580   0.0000000), wk =   0.0277778
        k(   12) = (   0.0155062   0.0603048   0.0000000), wk =   0.0277778
        k(   13) = (   0.0155062   0.0767517   0.0000000), wk =   0.0277778
        k(   14) = (   0.0155062  -0.1041633   0.0000000), wk =   0.0277778
        k(   15) = (   0.0155062  -0.0877165   0.0000000), wk =   0.0277778
        k(   16) = (   0.0155062  -0.0712697   0.0000000), wk =   0.0277778
        k(   17) = (   0.0155062  -0.0548229   0.0000000), wk =   0.0277778
        k(   18) = (   0.0155062  -0.0383761   0.0000000), wk =   0.0277778
        k(   19) = (   0.0155062  -0.0219293   0.0000000), wk =   0.0277778
        k(   20) = (   0.0310123  -0.0109649   0.0000000), wk =   0.0277778
        k(   21) = (   0.0310123   0.0054820   0.0000000), wk =   0.0277778
        k(   22) = (   0.0310123   0.0219288   0.0000000), wk =   0.0277778
        k(   23) = (   0.0310123   0.0383756   0.0000000), wk =   0.0277778
        k(   24) = (   0.0310123   0.0548224   0.0000000), wk =   0.0277778
        k(   25) = (   0.0310123   0.0712692   0.0000000), wk =   0.0277778
        k(   26) = (   0.0310123  -0.1096458   0.0000000), wk =   0.0277778
        k(   27) = (   0.0310123  -0.0931990   0.0000000), wk =   0.0277778
        k(   28) = (   0.0310123  -0.0767521   0.0000000), wk =   0.0277778
        k(   29) = (   0.0310123  -0.0603053   0.0000000), wk =   0.0277778
        k(   30) = (   0.0310123  -0.0438585   0.0000000), wk =   0.0277778
        k(   31) = (   0.0310123  -0.0274117   0.0000000), wk =   0.0277778
        k(   32) = (   0.0465185  -0.0164473   0.0000000), wk =   0.0277778
        k(   33) = (   0.0465185  -0.0000005   0.0000000), wk =   0.0277778
        k(   34) = (   0.0465185   0.0164463   0.0000000), wk =   0.0277778
        k(   35) = (   0.0465185   0.0328932   0.0000000), wk =   0.0277778
        k(   36) = (   0.0465185   0.0493400   0.0000000), wk =   0.0277778
        k(   37) = (   0.0465185   0.0657868   0.0000000), wk =   0.0277778
        k(   38) = (   0.0465185  -0.1151282   0.0000000), wk =   0.0277778
        k(   39) = (   0.0465185  -0.0986814   0.0000000), wk =   0.0277778
        k(   40) = (   0.0465185  -0.0822346   0.0000000), wk =   0.0277778
        k(   41) = (   0.0465185  -0.0657878   0.0000000), wk =   0.0277778
        k(   42) = (   0.0465185  -0.0493409   0.0000000), wk =   0.0277778
        k(   43) = (   0.0465185  -0.0328941   0.0000000), wk =   0.0277778
        k(   44) = (   0.0620246  -0.0219297   0.0000000), wk =   0.0277778
        k(   45) = (   0.0620246  -0.0054829   0.0000000), wk =   0.0277778
        k(   46) = (   0.0620246   0.0109639   0.0000000), wk =   0.0277778
        k(   47) = (   0.0620246   0.0274107   0.0000000), wk =   0.0277778
        k(   48) = (   0.0620246   0.0438575   0.0000000), wk =   0.0277778
        k(   49) = (   0.0620246   0.0603044   0.0000000), wk =   0.0277778
        k(   50) = (   0.0620246  -0.1206106   0.0000000), wk =   0.0277778
        k(   51) = (   0.0620246  -0.1041638   0.0000000), wk =   0.0277778
        k(   52) = (   0.0620246  -0.0877170   0.0000000), wk =   0.0277778
        k(   53) = (   0.0620246  -0.0712702   0.0000000), wk =   0.0277778
        k(   54) = (   0.0620246  -0.0548234   0.0000000), wk =   0.0277778
        k(   55) = (   0.0620246  -0.0383766   0.0000000), wk =   0.0277778
        k(   56) = (   0.0775308  -0.0274122   0.0000000), wk =   0.0277778
        k(   57) = (   0.0775308  -0.0109654   0.0000000), wk =   0.0277778
        k(   58) = (   0.0775308   0.0054815   0.0000000), wk =   0.0277778
        k(   59) = (   0.0775308   0.0219283   0.0000000), wk =   0.0277778
        k(   60) = (   0.0775308   0.0383751   0.0000000), wk =   0.0277778
        k(   61) = (   0.0775308   0.0548219   0.0000000), wk =   0.0277778
        k(   62) = (   0.0775308  -0.1260931   0.0000000), wk =   0.0277778
        k(   63) = (   0.0775308  -0.1096463   0.0000000), wk =   0.0277778
        k(   64) = (   0.0775308  -0.0931994   0.0000000), wk =   0.0277778
        k(   65) = (   0.0775308  -0.0767526   0.0000000), wk =   0.0277778
        k(   66) = (   0.0775308  -0.0603058   0.0000000), wk =   0.0277778
        k(   67) = (   0.0775308  -0.0438590   0.0000000), wk =   0.0277778
        k(   68) = (  -0.0930369   0.0328946   0.0000000), wk =   0.0138889
        k(   69) = (  -0.0930369   0.0493414   0.0000000), wk =   0.0277778
        k(   70) = (  -0.0930369   0.0657882   0.0000000), wk =   0.0277778
        k(   71) = (  -0.0930369   0.0822351   0.0000000), wk =   0.0277778
        k(   72) = (  -0.0930369   0.0986819   0.0000000), wk =   0.0277778
        k(   73) = (  -0.0930369   0.1151287   0.0000000), wk =   0.0277778
        k(   74) = (  -0.0930369  -0.0657863   0.0000000), wk =   0.0138889

     Initial potential from superposition of free atoms

     starting charge  245.99030, renormalised to  246.00000

     negative rho (up, down):  3.304E-03 0.000E+00

     %%%%%%%%%%%%%%%%%%%%%%%%%%%%%%%%%%%%%%%%%%%%%%%%%%%%%%%%%%%%%%%%%%%%%%%%
     %                                                                      %
     % You are using vdW-DF, which was implemented by the Thonhauser group. %
     % Please cite the following two papers that made this development      %
     % possible and the two reviews that describe the various versions:     %
     %                                                                      %
     %   T. Thonhauser et al., PRL 115, 136402 (2015).                      %
     %   T. Thonhauser et al., PRB 76, 125112 (2007).                       %
     %   K. Berland et al., Rep. Prog. Phys. 78, 066501 (2015).             %
     %   D.C. Langreth et al., J. Phys.: Condens. Matter 21, 084203 (2009). %
     %                                                                      %
     %                                                                      %
     % If you are calculating the stress with vdW-DF, please also cite:     %
     %                                                                      %
     %   R. Sabatini et al., J. Phys.: Condens. Matter 24, 424209 (2012).   %
     %                                                                      %
     %%%%%%%%%%%%%%%%%%%%%%%%%%%%%%%%%%%%%%%%%%%%%%%%%%%%%%%%%%%%%%%%%%%%%%%%

     Adding external electric field

     Computed dipole along edir(3) :
        Dipole               -0.0001 Ry au,         -0.0002 Debye
        Dipole field         -0.0000 Ry au,

        Potential amp.        0.0000 Ry
        Total length         44.9345 bohr

     Starting wfcs are  162 randomized atomic wfcs

     Self-consistent Calculation

     iteration #  1     ecut=    55.12 Ry     beta= 0.10
     Davidson diagonalization with overlap
     ethr =  1.00E-02,  avg # of iterations =  2.5

[...]

     total energy              =   -5145.29309854 Ry
     estimated scf accuracy    <      12.07102391 Ry

[...]

     iteration # 14     ecut=    55.12 Ry     beta= 0.10
     Davidson diagonalization with overlap
     c_bands:  1 eigenvalues not converged
     ethr =  9.89E-07,  avg # of iterations =  8.1

[...]

     total energy              =   -5146.41949700 Ry
     estimated scf accuracy    <       0.00011838 Ry

     iteration # 20     ecut=    55.12 Ry     beta= 0.10
     Davidson diagonalization with overlap
     ethr =  4.00E-08,  avg # of iterations =  1.3

[...]

     Adding external electric field

     Computed dipole along edir(3) :
        Dipole                0.0131 Ry au,          0.0334 Debye
        Dipole field          0.0000 Ry au,

        Potential amp.       -0.0033 Ry
        Total length         44.9345 bohr

     End of self-consistent calculation

          k = 0.0000 0.0000 0.0000 ( 30855 PWs)   bands (ev):

   -69.3850 -69.3780 -69.2917 -69.2855 -69.2591 -69.2527 -66.1043 -66.0961
   -66.0889 -66.0807 -65.7815 -65.7664 -40.7230 -40.7171 -40.7122 -40.6901
   -40.6867 -40.6820 -40.6720 -40.6459 -40.6417 -40.6245 -40.6072 -40.5885
   -40.5326 -40.5210 -40.5127 -40.5110 -40.5059 -40.4948 -32.5227 -32.5106
   -32.5047 -32.4799 -32.4733 -32.4660 -32.3813 -32.3673 -32.3344 -32.3105
   -32.2579 -32.1393 -32.1296 -32.0791 -32.0650 -32.0468 -32.0180 -31.9086
   -17.8048 -17.8003 -17.7991 -17.7984 -17.7974 -17.7972 -17.7935 -17.7931
   -17.7924 -17.7886 -17.7842 -17.7776 -17.7755 -17.7702 -17.7672 -17.7666
   -17.7632 -17.7593 -17.7588 -17.7553 -17.7338 -17.7328 -17.7249 -17.7239
   -17.7195 -17.7194 -17.7105 -17.7105 -17.4207 -17.4167 -17.4160 -17.4136
   -17.4130 -17.4110 -17.4073 -17.4072 -17.4028 -17.4015 -17.4000 -17.3992
   -17.3947 -17.3935  -4.9999  -3.2076  -2.1708  -1.8571  -1.6691  -1.6063
    -1.5757  -1.3523  -1.3449  -1.2538  -0.8061  -0.7110  -0.4368   0.2998
     0.3564   0.4103   0.4138   0.4173   0.4891   0.5215   0.7443   0.8261
     1.1521   1.3770   1.4051   1.6780   1.7014   1.7301   1.9397   2.2605
     2.4000   2.4121   2.4906   2.6355   3.0118   3.1474   3.4711   3.6142
     3.6637   3.7059   3.7542   3.7921   3.8966   3.9653   4.0051   4.1588
     4.2620   4.2750   4.3541   4.4124   4.5621   4.7194   4.7272   4.8144
     5.1532   5.1825   5.2614   5.4741

[...]

          k = 0.0775-0.0439 0.0000 ( 30989 PWs)   bands (ev):

[...]

          k =-0.0930 0.0329 0.0000 ( 30960 PWs)   bands (ev):

[...]

          k =-0.0930-0.0658 0.0000 ( 31058 PWs)   bands (ev):

   -69.3840 -69.3782 -69.2910 -69.2855 -69.2584 -69.2526 -66.1054 -66.0972
   -66.0892 -66.0811 -65.7830 -65.7660 -40.7153 -40.7085 -40.7054 -40.6951
   -40.6786 -40.6784 -40.6690 -40.6441 -40.6360 -40.6329 -40.5991 -40.5804
   -40.5314 -40.5116 -40.5094 -40.5044 -40.4945 -40.4896 -32.5617 -32.5043
   -32.5028 -32.4940 -32.4859 -32.4652 -32.4330 -32.3770 -32.3666 -32.3262
   -32.2732 -32.1444 -32.1343 -32.0941 -32.0526 -32.0456 -32.0422 -31.9157
   -17.8050 -17.8006 -17.8004 -17.7986 -17.7976 -17.7975 -17.7944 -17.7937
   -17.7925 -17.7888 -17.7846 -17.7774 -17.7758 -17.7701 -17.7676 -17.7668
   -17.7633 -17.7596 -17.7589 -17.7554 -17.7357 -17.7345 -17.7267 -17.7257
   -17.7211 -17.7189 -17.7121 -17.7099 -17.4214 -17.4176 -17.4164 -17.4143
   -17.4134 -17.4124 -17.4075 -17.4074 -17.4029 -17.4029 -17.4020 -17.3985
   -17.3947 -17.3935  -2.9635  -2.7185  -1.9436  -1.7841  -0.9431  -0.6326
    -0.6147  -0.5910  -0.5452  -0.2581  -0.1156   0.1981   0.3496   0.4508
     0.5380   0.6115   0.7288   0.7936   0.8368   0.9528   0.9793   1.1634
     1.3437   1.4504   1.4529   1.5119   1.5551   1.6390   1.7114   1.8297
     1.8597   1.8841   1.9450   1.9923   1.9956   2.1022   2.2015   2.3188
     2.4875   2.5916   2.7352   2.8395   3.0800   3.2223   3.2613   3.4649
     3.6537   3.6723   3.6954   3.7814   3.7966   3.9062   4.0966   4.0997
     4.4011   4.4272   4.5004   4.8505

     the Fermi energy is     2.1291 ev

!    total energy              =   -5146.41949811 Ry
     estimated scf accuracy    <       0.00000785 Ry
     smearing contrib. (-TS)   =      -0.07863652 Ry
     internal energy E=F+TS    =   -5146.34086159 Ry

     The total energy is F=E-TS. E is the sum of the following terms:
     one-electron contribution =  -36374.42932068 Ry
     hartree contribution      =   18284.99646658 Ry
     xc contribution           =    -552.51428384 Ry
     ewald contribution        =   13495.60627587 Ry
     electric field correction =       0.00000048 Ry

     convergence has been achieved in  20 iterations

     negative rho (up, down):  2.985E-03 0.000E+00

     Forces acting on atoms (cartesian axes, Ry/au):

     atom    1 type  1   force =    -0.00002506   -0.00002900    0.02219592
     atom    2 type  1   force =     0.00002212    0.00000790    0.02217398
     atom    3 type  2   force =    -0.00025698    0.00035632   -0.00325891
     atom    4 type  2   force =     0.00024338   -0.00036363   -0.00325318
     atom    5 type  1   force =     0.00008044    0.00005186   -0.00530933
     atom    6 type  1   force =    -0.00007716   -0.00005898   -0.00529666
     atom    7 type  2   force =     0.00033932   -0.00047486   -0.01914912
     atom    8 type  2   force =    -0.00034054    0.00050921   -0.01914852
     atom    9 type  1   force =     0.00002226    0.00001147    0.00006743
     atom   10 type  1   force =    -0.00001908   -0.00001799    0.00004358
     atom   11 type  2   force =     0.00025670   -0.00034903    0.00544970
     atom   12 type  2   force =    -0.00024540    0.00035673    0.00548510

     Total force =     0.043086     Total SCF correction =     0.027388
     SCF correction compared to forces is large: reduce conv_thr to get better values

     Writing output data file ./Cr2Ta2/Cr2Ta2_beef.save/

     General routines

     Parallel routines

   This run was terminated on:   2:21:56  24Jun2022

   JOB DONE.