     Program PWSCF v.6.6 starts on 10Jul2022 at 21: 6:15

     R & G space division:  proc/nbgrp/npool/nimage =      37
     Fft bands division:     nmany     =       1
     Reading input from Cu2Au2.in
Warning: card &CELL ignored
Warning: card / ignored

     Current dimensions of program PWSCF are:
     Max number of different atomic species (ntypx) = 10
     Max number of k-points (npk) =  40000
     Max angular momentum in pseudopotentials (lmaxx) =  3
     Presently stress not available with electric field and gates

     Message from routine cell_base_init:
     DEPRECATED: use true lattice parameter, not A to a.u. conversion factor
     file Cu.pbe-dn-rrkjus_psl.1.0.0.UPF: wavefunction(s)  3D renormalized

     IMPORTANT: XC functional enforced from input :
     Exchange-correlation= BEEF-VDW
                           (   1   4  43  14   2   0   0)
     Any further DFT definition will be discarded
     Please, verify this is what you really want

     Subspace diagonalization in iterative solution of the eigenvalue problem:
     a serial algorithm will be used

     Found symmetry operation: I + (  0.5000 -0.5000  0.0000)
     This is a supercell, fractional translations are disabled

     bravais-lattice index     =            0
     lattice parameter (alat)  =       1.8897  a.u.
     unit-cell volume          =    4542.4088 (a.u.)^3
     number of atoms/cell      =           12
     number of atomic types    =            2
     number of electrons       =       132.00
     number of Kohn-Sham states=           79
     kinetic-energy cutoff     =      55.1240  Ry
     charge density cutoff     =     551.2396  Ry
     convergence threshold     =      1.0E-05
     mixing beta               =       0.1000
     number of iterations used =           10  plain     mixing
     Exchange-correlation= BEEF-VDW
                           (   1   4  43  14   2   0   0)

     celldm(1)=   1.889726  celldm(2)=   0.000000  celldm(3)=   0.000000
     celldm(4)=   0.000000  celldm(5)=   0.000000  celldm(6)=   0.000000

     crystal axes: (cart. coord. in units of alat)
               a(1) = (   5.534374   0.000000   0.000000 )
               a(2) = (   2.476828   4.949204   0.000000 )
               a(3) = (   0.000000   0.000000  24.574565 )

     reciprocal axes: (cart. coord. in units 2 pi/alat)
               b(1) = (  0.180689 -0.090426  0.000000 )
               b(2) = (  0.000000  0.202053  0.000000 )
               b(3) = (  0.000000  0.000000  0.040692 )

     PseudoPot. # 1 for Cu read from file:
     ../pseudo/Cu.pbe-dn-rrkjus_psl.1.0.0.UPF
     MD5 check sum: 8469560995d0c2df1ffe68c099c04a63
     Pseudo is Ultrasoft + core correction, Zval = 11.0
     Generated using "atomic" code by A. Dal Corso v.6.3
     Using radial grid of 1199 points,  6 beta functions with:
                l(1) =   0
                l(2) =   0
                l(3) =   1
                l(4) =   1
                l(5) =   2
                l(6) =   2
     Q(r) pseudized with 0 coefficients

     PseudoPot. # 2 for Au read from file:
     ../pseudo/Au.pbe-n-rrkjus_psl.1.0.0.UPF
     MD5 check sum: d7e77ba19504afed2c9b41c931dde4f0
     Pseudo is Ultrasoft + core correction, Zval = 11.0
     Generated using "atomic" code by A. Dal Corso v.6.3
     Using radial grid of 1279 points,  6 beta functions with:
                l(1) =   0
                l(2) =   0
                l(3) =   1
                l(4) =   1
                l(5) =   2
                l(6) =   2
     Q(r) pseudized with 0 coefficients

     atomic species   valence    mass     pseudopotential
        Cu            11.00    63.54600     Cu( 1.00)
        Au            11.00   196.96657     Au( 1.00)

     No symmetry found

   Cartesian axes

     site n.     atom                  positions (alat units)
         1           Cu  tau(   1) = (   0.0000000   0.0000000  10.0000000  )
         2           Cu  tau(   2) = (   4.0056007   2.4746020  10.0000000  )
         3           Au  tau(   3) = (   2.7671869   0.0000000  10.0000000  )
         4           Au  tau(   4) = (   1.2384138   2.4746020  10.0000000  )
         5           Cu  tau(   5) = (   5.5343739   3.4190558  12.2872826  )
         6           Cu  tau(   6) = (   1.5287732   0.9444539  12.2872826  )
         7           Au  tau(   7) = (   2.7671869   3.4190558  12.2872826  )
         8           Au  tau(   8) = (   4.2959601   0.9444539  12.2872826  )
         9           Cu  tau(   9) = (   3.0536419   1.8864780  14.5050157  )
        10           Cu  tau(  10) = (   7.0592335   4.3610928  14.5049963  )
        11           Au  tau(  11) = (   5.8654821   1.9140900  14.5947663  )
        12           Au  tau(  12) = (   4.3367217   4.3886954  14.5947874  )

     number of k points=    74  Fermi-Dirac smearing, width (Ry)=  0.0100
                       cart. coord. in units 2pi/alat
        k(    1) = (   0.0000000   0.0000000   0.0000000), wk =   0.0138889
        k(    2) = (   0.0000000   0.0168377   0.0000000), wk =   0.0277778
        k(    3) = (   0.0000000   0.0336754   0.0000000), wk =   0.0277778
        k(    4) = (   0.0000000   0.0505132   0.0000000), wk =   0.0277778
        k(    5) = (   0.0000000   0.0673509   0.0000000), wk =   0.0277778
        k(    6) = (   0.0000000   0.0841886   0.0000000), wk =   0.0277778
        k(    7) = (   0.0000000  -0.1010263   0.0000000), wk =   0.0138889
        k(    8) = (   0.0150574  -0.0075355   0.0000000), wk =   0.0277778
        k(    9) = (   0.0150574   0.0093022   0.0000000), wk =   0.0277778
        k(   10) = (   0.0150574   0.0261400   0.0000000), wk =   0.0277778
        k(   11) = (   0.0150574   0.0429777   0.0000000), wk =   0.0277778
        k(   12) = (   0.0150574   0.0598154   0.0000000), wk =   0.0277778
        k(   13) = (   0.0150574   0.0766531   0.0000000), wk =   0.0277778
        k(   14) = (   0.0150574  -0.1085618   0.0000000), wk =   0.0277778
        k(   15) = (   0.0150574  -0.0917241   0.0000000), wk =   0.0277778
        k(   16) = (   0.0150574  -0.0748864   0.0000000), wk =   0.0277778
        k(   17) = (   0.0150574  -0.0580487   0.0000000), wk =   0.0277778
        k(   18) = (   0.0150574  -0.0412109   0.0000000), wk =   0.0277778
        k(   19) = (   0.0150574  -0.0243732   0.0000000), wk =   0.0277778
        k(   20) = (   0.0301148  -0.0150710   0.0000000), wk =   0.0277778
        k(   21) = (   0.0301148   0.0017668   0.0000000), wk =   0.0277778
        k(   22) = (   0.0301148   0.0186045   0.0000000), wk =   0.0277778
        k(   23) = (   0.0301148   0.0354422   0.0000000), wk =   0.0277778
        k(   24) = (   0.0301148   0.0522799   0.0000000), wk =   0.0277778
        k(   25) = (   0.0301148   0.0691177   0.0000000), wk =   0.0277778
        k(   26) = (   0.0301148  -0.1160973   0.0000000), wk =   0.0277778
        k(   27) = (   0.0301148  -0.0992596   0.0000000), wk =   0.0277778
        k(   28) = (   0.0301148  -0.0824219   0.0000000), wk =   0.0277778
        k(   29) = (   0.0301148  -0.0655841   0.0000000), wk =   0.0277778
        k(   30) = (   0.0301148  -0.0487464   0.0000000), wk =   0.0277778
        k(   31) = (   0.0301148  -0.0319087   0.0000000), wk =   0.0277778
        k(   32) = (   0.0451722  -0.0226064   0.0000000), wk =   0.0277778
        k(   33) = (   0.0451722  -0.0057687   0.0000000), wk =   0.0277778
        k(   34) = (   0.0451722   0.0110690   0.0000000), wk =   0.0277778
        k(   35) = (   0.0451722   0.0279067   0.0000000), wk =   0.0277778
        k(   36) = (   0.0451722   0.0447445   0.0000000), wk =   0.0277778
        k(   37) = (   0.0451722   0.0615822   0.0000000), wk =   0.0277778
        k(   38) = (   0.0451722  -0.1236328   0.0000000), wk =   0.0277778
        k(   39) = (   0.0451722  -0.1067951   0.0000000), wk =   0.0277778
        k(   40) = (   0.0451722  -0.0899573   0.0000000), wk =   0.0277778
        k(   41) = (   0.0451722  -0.0731196   0.0000000), wk =   0.0277778
        k(   42) = (   0.0451722  -0.0562819   0.0000000), wk =   0.0277778
        k(   43) = (   0.0451722  -0.0394442   0.0000000), wk =   0.0277778
        k(   44) = (   0.0602296  -0.0301419   0.0000000), wk =   0.0277778
        k(   45) = (   0.0602296  -0.0133042   0.0000000), wk =   0.0277778
        k(   46) = (   0.0602296   0.0035335   0.0000000), wk =   0.0277778
        k(   47) = (   0.0602296   0.0203713   0.0000000), wk =   0.0277778
        k(   48) = (   0.0602296   0.0372090   0.0000000), wk =   0.0277778
        k(   49) = (   0.0602296   0.0540467   0.0000000), wk =   0.0277778
        k(   50) = (   0.0602296  -0.1311683   0.0000000), wk =   0.0277778
        k(   51) = (   0.0602296  -0.1143305   0.0000000), wk =   0.0277778
        k(   52) = (   0.0602296  -0.0974928   0.0000000), wk =   0.0277778
        k(   53) = (   0.0602296  -0.0806551   0.0000000), wk =   0.0277778
        k(   54) = (   0.0602296  -0.0638174   0.0000000), wk =   0.0277778
        k(   55) = (   0.0602296  -0.0469796   0.0000000), wk =   0.0277778
        k(   56) = (   0.0752870  -0.0376774   0.0000000), wk =   0.0277778
        k(   57) = (   0.0752870  -0.0208397   0.0000000), wk =   0.0277778
        k(   58) = (   0.0752870  -0.0040019   0.0000000), wk =   0.0277778
        k(   59) = (   0.0752870   0.0128358   0.0000000), wk =   0.0277778
        k(   60) = (   0.0752870   0.0296735   0.0000000), wk =   0.0277778
        k(   61) = (   0.0752870   0.0465112   0.0000000), wk =   0.0277778
        k(   62) = (   0.0752870  -0.1387037   0.0000000), wk =   0.0277778
        k(   63) = (   0.0752870  -0.1218660   0.0000000), wk =   0.0277778
        k(   64) = (   0.0752870  -0.1050283   0.0000000), wk =   0.0277778
        k(   65) = (   0.0752870  -0.0881906   0.0000000), wk =   0.0277778
        k(   66) = (   0.0752870  -0.0713528   0.0000000), wk =   0.0277778
        k(   67) = (   0.0752870  -0.0545151   0.0000000), wk =   0.0277778
        k(   68) = (  -0.0903445   0.0452129   0.0000000), wk =   0.0138889
        k(   69) = (  -0.0903445   0.0620506   0.0000000), wk =   0.0277778
        k(   70) = (  -0.0903445   0.0788883   0.0000000), wk =   0.0277778
        k(   71) = (  -0.0903445   0.0957260   0.0000000), wk =   0.0277778
        k(   72) = (  -0.0903445   0.1125638   0.0000000), wk =   0.0277778
        k(   73) = (  -0.0903445   0.1294015   0.0000000), wk =   0.0277778
        k(   74) = (  -0.0903445  -0.0558135   0.0000000), wk =   0.0138889

     Initial potential from superposition of free atoms

     starting charge  131.99796, renormalised to  132.00000

     negative rho (up, down):  8.984E-04 0.000E+00

     %%%%%%%%%%%%%%%%%%%%%%%%%%%%%%%%%%%%%%%%%%%%%%%%%%%%%%%%%%%%%%%%%%%%%%%%
     %                                                                      %
     % You are using vdW-DF, which was implemented by the Thonhauser group. %
     % Please cite the following two papers that made this development      %
     % possible and the two reviews that describe the various versions:     %
     %                                                                      %
     %   T. Thonhauser et al., PRL 115, 136402 (2015).                      %
     %   T. Thonhauser et al., PRB 76, 125112 (2007).                       %
     %   K. Berland et al., Rep. Prog. Phys. 78, 066501 (2015).             %
     %   D.C. Langreth et al., J. Phys.: Condens. Matter 21, 084203 (2009). %
     %                                                                      %
     %                                                                      %
     % If you are calculating the stress with vdW-DF, please also cite:     %
     %                                                                      %
     %   R. Sabatini et al., J. Phys.: Condens. Matter 24, 424209 (2012).   %
     %                                                                      %
     %%%%%%%%%%%%%%%%%%%%%%%%%%%%%%%%%%%%%%%%%%%%%%%%%%%%%%%%%%%%%%%%%%%%%%%%

     Adding external electric field

     Computed dipole along edir(3) :
        Dipole               -0.0000 Ry au,         -0.0001 Debye
        Dipole field         -0.0000 Ry au,

        Potential amp.        0.0000 Ry
        Total length         45.2782 bohr

     Starting wfcs are  108 randomized atomic wfcs

     Self-consistent Calculation

     iteration #  1     ecut=    55.12 Ry     beta= 0.10
     Davidson diagonalization with overlap
     ethr =  1.00E-02,  avg # of iterations =  3.1

     Threshold (ethr) on eigenvalues was too large:
     Diagonalizing with lowered threshold

     Davidson diagonalization with overlap
     ethr =  4.94E-04,  avg # of iterations =  4.8

[...]

     total energy              =   -1263.04953826 Ry
     estimated scf accuracy    <       0.69045195 Ry

[...]

     iteration #  4     ecut=    55.12 Ry     beta= 0.10
     Davidson diagonalization with overlap
     c_bands:  1 eigenvalues not converged
     c_bands:  1 eigenvalues not converged
     c_bands:  2 eigenvalues not converged
     c_bands:  1 eigenvalues not converged
     c_bands:  1 eigenvalues not converged
     c_bands:  1 eigenvalues not converged
     c_bands:  1 eigenvalues not converged
     c_bands:  2 eigenvalues not converged
     c_bands:  2 eigenvalues not converged
     c_bands:  1 eigenvalues not converged
     c_bands:  1 eigenvalues not converged
     c_bands:  1 eigenvalues not converged
     ethr =  3.60E-05,  avg # of iterations = 10.9

[...]

     iteration #  9     ecut=    55.12 Ry     beta= 0.10
     Davidson diagonalization with overlap
     c_bands:  1 eigenvalues not converged
     ethr =  9.70E-07,  avg # of iterations =  4.8

[...]

     total energy              =   -1263.04643157 Ry
     estimated scf accuracy    <       0.00001519 Ry

     iteration # 13     ecut=    55.12 Ry     beta= 0.10
     Davidson diagonalization with overlap
     ethr =  9.39E-09,  avg # of iterations =  1.1

[...]

     Adding external electric field

     Computed dipole along edir(3) :
        Dipole               -0.0055 Ry au,         -0.0140 Debye
        Dipole field         -0.0000 Ry au,

        Potential amp.        0.0014 Ry
        Total length         45.2782 bohr

     End of self-consistent calculation

          k = 0.0000 0.0000 0.0000 ( 31397 PWs)   bands (ev):

    -8.3209  -6.6764  -6.1322  -6.1161  -6.0296  -5.9271  -5.6086  -5.4739
    -5.4323  -5.4131  -5.2445  -5.1298  -5.0448  -4.9598  -4.6884  -4.4484
    -4.3122  -4.2870  -4.0287  -3.9690  -3.9594  -3.9055  -3.8857  -3.8804
    -3.7052  -3.7004  -3.5809  -3.5612  -3.5480  -3.0058  -2.9644  -2.6292
    -2.4905  -2.4581  -2.4349  -2.4349  -2.4014  -2.3805  -2.2745  -2.2279
    -2.0758  -2.0747  -2.0256  -2.0170  -1.9362  -1.9240  -1.8984  -1.8289
    -1.7879  -1.7738  -1.7344  -1.7245  -1.7229  -1.6762  -1.6601  -1.6109
    -1.5734  -1.5532  -1.4928  -1.4757  -1.4711  -1.4409  -1.4233   0.2125
     0.2422   0.2504   0.3887   0.8104   1.0399   1.0689   1.1118   1.7188
     2.4432   2.8773   3.6436   3.9248   4.1082   4.1772   4.6816

[...]

          k = 0.0753-0.0545 0.0000 ( 31415 PWs)   bands (ev):

[...]

          k =-0.0903 0.0452 0.0000 ( 31434 PWs)   bands (ev):

[...]

          k =-0.0903-0.0558 0.0000 ( 31366 PWs)   bands (ev):

    -7.0180  -6.4794  -6.0084  -5.7710  -5.5468  -5.4722  -5.4620  -5.2555
    -5.1892  -5.1652  -4.9743  -4.8704  -4.7750  -4.7597  -4.7062  -4.5331
    -4.2064  -4.1277  -4.1016  -4.0781  -3.8526  -3.8127  -3.8100  -3.7463
    -3.6225  -3.6033  -3.5955  -3.3314  -3.2407  -3.1660  -3.1415  -3.1019
    -2.8384  -2.8014  -2.7832  -2.7670  -2.7536  -2.6604  -2.6477  -2.5848
    -2.5697  -2.5491  -2.5036  -2.4340  -2.3840  -2.3646  -2.3390  -2.2699
    -2.2355  -2.2014  -2.0878  -2.0429  -2.0318  -2.0132  -1.9357  -1.9299
    -1.9195  -1.8702  -1.8629  -1.7635  -1.7121  -1.7001  -1.6897  -1.6396
    -0.6554  -0.1859   0.0232   0.3519   0.6754   0.7793   2.8610   2.9569
     3.0415   3.1843   5.3912   5.4222   5.6501   5.8142   6.0461

     the Fermi energy is    -0.0919 ev

!    total energy              =   -1263.04642975 Ry
     estimated scf accuracy    <       0.00000719 Ry
     smearing contrib. (-TS)   =      -0.01715497 Ry
     internal energy E=F+TS    =   -1263.02927478 Ry

     The total energy is F=E-TS. E is the sum of the following terms:
     one-electron contribution =   -9456.66189823 Ry
     hartree contribution      =    4843.24900850 Ry
     xc contribution           =    -474.97566969 Ry
     ewald contribution        =    3825.35928456 Ry
     electric field correction =       0.00000008 Ry

     convergence has been achieved in  13 iterations

     negative rho (up, down):  8.579E-04 0.000E+00

     Forces acting on atoms (cartesian axes, Ry/au):

     atom    1 type  1   force =     0.00546159    0.00336803    0.00674050
     atom    2 type  1   force =     0.00545831    0.00336875    0.00674665
     atom    3 type  2   force =    -0.00831849   -0.00513957   -0.00612412
     atom    4 type  2   force =    -0.00831967   -0.00513831   -0.00612626
     atom    5 type  1   force =    -0.00102554   -0.00063586    0.00026082
     atom    6 type  1   force =    -0.00103738   -0.00064059    0.00027734
     atom    7 type  2   force =     0.00362572    0.00223005   -0.00293469
     atom    8 type  2   force =     0.00362403    0.00224556   -0.00294190
     atom    9 type  1   force =    -0.00022971   -0.00013620    0.00024919
     atom   10 type  1   force =    -0.00023135   -0.00013834    0.00024682
     atom   11 type  2   force =     0.00050341    0.00030554    0.00180089
     atom   12 type  2   force =     0.00048907    0.00031096    0.00180477

     Total force =     0.022442     Total SCF correction =     0.006228
     SCF correction compared to forces is large: reduce conv_thr to get better values

     Writing output data file ./Cu2Au2/Cu2Au2_beef.save/

     General routines

     Parallel routines

   This run was terminated on:  21:52:50  10Jul2022

   JOB DONE.