     Program PWSCF v.6.6 starts on 10Jul2022 at 20:31:43

     R & G space division:  proc/nbgrp/npool/nimage =      37
     Fft bands division:     nmany     =       1
     Reading input from Cu2Ag2.in
Warning: card &CELL ignored
Warning: card / ignored

     Current dimensions of program PWSCF are:
     Max number of different atomic species (ntypx) = 10
     Max number of k-points (npk) =  40000
     Max angular momentum in pseudopotentials (lmaxx) =  3
     Presently stress not available with electric field and gates

     Message from routine cell_base_init:
     DEPRECATED: use true lattice parameter, not A to a.u. conversion factor
     file Cu.pbe-dn-rrkjus_psl.1.0.0.UPF: wavefunction(s)  3D renormalized

     IMPORTANT: XC functional enforced from input :
     Exchange-correlation= BEEF-VDW
                           (   1   4  43  14   2   0   0)
     Any further DFT definition will be discarded
     Please, verify this is what you really want

     Subspace diagonalization in iterative solution of the eigenvalue problem:
     a serial algorithm will be used

     Found symmetry operation: I + (  0.5000  0.5000  0.0000)
     This is a supercell, fractional translations are disabled

     bravais-lattice index     =            0
     lattice parameter (alat)  =       1.8897  a.u.
     unit-cell volume          =    4500.4959 (a.u.)^3
     number of atoms/cell      =           12
     number of atomic types    =            2
     number of electrons       =       132.00
     number of Kohn-Sham states=           79
     kinetic-energy cutoff     =      55.1240  Ry
     charge density cutoff     =     551.2396  Ry
     convergence threshold     =      1.0E-05
     mixing beta               =       0.1000
     number of iterations used =           10  plain     mixing
     Exchange-correlation= BEEF-VDW
                           (   1   4  43  14   2   0   0)

     celldm(1)=   1.889726  celldm(2)=   0.000000  celldm(3)=   0.000000
     celldm(4)=   0.000000  celldm(5)=   0.000000  celldm(6)=   0.000000

     crystal axes: (cart. coord. in units of alat)
               a(1) = (   5.542170   0.000000   0.000000 )
               a(2) = (   2.592308   4.898529   0.000000 )
               a(3) = (   0.000000   0.000000  24.565088 )

     reciprocal axes: (cart. coord. in units 2 pi/alat)
               b(1) = (  0.180435 -0.095486  0.000000 )
               b(2) = (  0.000000  0.204143  0.000000 )
               b(3) = (  0.000000  0.000000  0.040708 )

     PseudoPot. # 1 for Cu read from file:
     ../pseudo/Cu.pbe-dn-rrkjus_psl.1.0.0.UPF
     MD5 check sum: 8469560995d0c2df1ffe68c099c04a63
     Pseudo is Ultrasoft + core correction, Zval = 11.0
     Generated using "atomic" code by A. Dal Corso v.6.3
     Using radial grid of 1199 points,  6 beta functions with:
                l(1) =   0
                l(2) =   0
                l(3) =   1
                l(4) =   1
                l(5) =   2
                l(6) =   2
     Q(r) pseudized with 0 coefficients

     PseudoPot. # 2 for Ag read from file:
     ../pseudo/Ag.pbe-n-rrkjus_psl.1.0.0.UPF
     MD5 check sum: d841cbfac2b0861aec33b46768a516bf
     Pseudo is Ultrasoft + core correction, Zval = 11.0
     Generated using "atomic" code by A. Dal Corso v.6.2.2
     Using radial grid of 1237 points,  6 beta functions with:
                l(1) =   0
                l(2) =   0
                l(3) =   1
                l(4) =   1
                l(5) =   2
                l(6) =   2
     Q(r) pseudized with 0 coefficients

     atomic species   valence    mass     pseudopotential
        Cu            11.00    63.54600     Cu( 1.00)
        Ag            11.00   107.86820     Ag( 1.00)

     No symmetry found

   Cartesian axes

     site n.     atom                  positions (alat units)
         1           Cu  tau(   1) = (   0.0000000   0.0000000  10.0000000  )
         2           Cu  tau(   2) = (   4.0672389   2.4492644  10.0000000  )
         3           Ag  tau(   3) = (   2.7710849   0.0000000  10.0000000  )
         4           Ag  tau(   4) = (   1.2961541   2.4492644  10.0000000  )
         5           Cu  tau(   5) = (   5.5421697   3.3374579  12.2825442  )
         6           Cu  tau(   6) = (   1.4749308   0.8881936  12.2825442  )
         7           Ag  tau(   7) = (   2.7710849   3.3374579  12.2825442  )
         8           Ag  tau(   8) = (   4.2460157   0.8881936  12.2825442  )
         9           Cu  tau(   9) = (   2.9284373   1.7634963  14.4776698  )
        10           Cu  tau(  10) = (   6.9956757   4.2127554  14.4776793  )
        11           Ag  tau(  11) = (   5.7363985   1.7856903  14.6230551  )
        12           Ag  tau(  12) = (   4.2614660   4.2349588  14.6230557  )

     number of k points=    74  Fermi-Dirac smearing, width (Ry)=  0.0100
                       cart. coord. in units 2pi/alat
        k(    1) = (   0.0000000   0.0000000   0.0000000), wk =   0.0138889
        k(    2) = (   0.0000000   0.0170119   0.0000000), wk =   0.0277778
        k(    3) = (   0.0000000   0.0340238   0.0000000), wk =   0.0277778
        k(    4) = (   0.0000000   0.0510357   0.0000000), wk =   0.0277778
        k(    5) = (   0.0000000   0.0680476   0.0000000), wk =   0.0277778
        k(    6) = (   0.0000000   0.0850595   0.0000000), wk =   0.0277778
        k(    7) = (   0.0000000  -0.1020715   0.0000000), wk =   0.0138889
        k(    8) = (   0.0150362  -0.0079572   0.0000000), wk =   0.0277778
        k(    9) = (   0.0150362   0.0090547   0.0000000), wk =   0.0277778
        k(   10) = (   0.0150362   0.0260666   0.0000000), wk =   0.0277778
        k(   11) = (   0.0150362   0.0430785   0.0000000), wk =   0.0277778
        k(   12) = (   0.0150362   0.0600904   0.0000000), wk =   0.0277778
        k(   13) = (   0.0150362   0.0771024   0.0000000), wk =   0.0277778
        k(   14) = (   0.0150362  -0.1100287   0.0000000), wk =   0.0277778
        k(   15) = (   0.0150362  -0.0930167   0.0000000), wk =   0.0277778
        k(   16) = (   0.0150362  -0.0760048   0.0000000), wk =   0.0277778
        k(   17) = (   0.0150362  -0.0589929   0.0000000), wk =   0.0277778
        k(   18) = (   0.0150362  -0.0419810   0.0000000), wk =   0.0277778
        k(   19) = (   0.0150362  -0.0249691   0.0000000), wk =   0.0277778
        k(   20) = (   0.0300725  -0.0159144   0.0000000), wk =   0.0277778
        k(   21) = (   0.0300725   0.0010975   0.0000000), wk =   0.0277778
        k(   22) = (   0.0300725   0.0181094   0.0000000), wk =   0.0277778
        k(   23) = (   0.0300725   0.0351213   0.0000000), wk =   0.0277778
        k(   24) = (   0.0300725   0.0521333   0.0000000), wk =   0.0277778
        k(   25) = (   0.0300725   0.0691452   0.0000000), wk =   0.0277778
        k(   26) = (   0.0300725  -0.1179858   0.0000000), wk =   0.0277778
        k(   27) = (   0.0300725  -0.1009739   0.0000000), wk =   0.0277778
        k(   28) = (   0.0300725  -0.0839620   0.0000000), wk =   0.0277778
        k(   29) = (   0.0300725  -0.0669501   0.0000000), wk =   0.0277778
        k(   30) = (   0.0300725  -0.0499382   0.0000000), wk =   0.0277778
        k(   31) = (   0.0300725  -0.0329263   0.0000000), wk =   0.0277778
        k(   32) = (   0.0451087  -0.0238716   0.0000000), wk =   0.0277778
        k(   33) = (   0.0451087  -0.0068597   0.0000000), wk =   0.0277778
        k(   34) = (   0.0451087   0.0101522   0.0000000), wk =   0.0277778
        k(   35) = (   0.0451087   0.0271642   0.0000000), wk =   0.0277778
        k(   36) = (   0.0451087   0.0441761   0.0000000), wk =   0.0277778
        k(   37) = (   0.0451087   0.0611880   0.0000000), wk =   0.0277778
        k(   38) = (   0.0451087  -0.1259430   0.0000000), wk =   0.0277778
        k(   39) = (   0.0451087  -0.1089311   0.0000000), wk =   0.0277778
        k(   40) = (   0.0451087  -0.0919192   0.0000000), wk =   0.0277778
        k(   41) = (   0.0451087  -0.0749073   0.0000000), wk =   0.0277778
        k(   42) = (   0.0451087  -0.0578954   0.0000000), wk =   0.0277778
        k(   43) = (   0.0451087  -0.0408835   0.0000000), wk =   0.0277778
        k(   44) = (   0.0601449  -0.0318288   0.0000000), wk =   0.0277778
        k(   45) = (   0.0601449  -0.0148169   0.0000000), wk =   0.0277778
        k(   46) = (   0.0601449   0.0021951   0.0000000), wk =   0.0277778
        k(   47) = (   0.0601449   0.0192070   0.0000000), wk =   0.0277778
        k(   48) = (   0.0601449   0.0362189   0.0000000), wk =   0.0277778
        k(   49) = (   0.0601449   0.0532308   0.0000000), wk =   0.0277778
        k(   50) = (   0.0601449  -0.1339002   0.0000000), wk =   0.0277778
        k(   51) = (   0.0601449  -0.1168883   0.0000000), wk =   0.0277778
        k(   52) = (   0.0601449  -0.0998764   0.0000000), wk =   0.0277778
        k(   53) = (   0.0601449  -0.0828645   0.0000000), wk =   0.0277778
        k(   54) = (   0.0601449  -0.0658526   0.0000000), wk =   0.0277778
        k(   55) = (   0.0601449  -0.0488407   0.0000000), wk =   0.0277778
        k(   56) = (   0.0751811  -0.0397860   0.0000000), wk =   0.0277778
        k(   57) = (   0.0751811  -0.0227740   0.0000000), wk =   0.0277778
        k(   58) = (   0.0751811  -0.0057621   0.0000000), wk =   0.0277778
        k(   59) = (   0.0751811   0.0112498   0.0000000), wk =   0.0277778
        k(   60) = (   0.0751811   0.0282617   0.0000000), wk =   0.0277778
        k(   61) = (   0.0751811   0.0452736   0.0000000), wk =   0.0277778
        k(   62) = (   0.0751811  -0.1418574   0.0000000), wk =   0.0277778
        k(   63) = (   0.0751811  -0.1248455   0.0000000), wk =   0.0277778
        k(   64) = (   0.0751811  -0.1078336   0.0000000), wk =   0.0277778
        k(   65) = (   0.0751811  -0.0908217   0.0000000), wk =   0.0277778
        k(   66) = (   0.0751811  -0.0738098   0.0000000), wk =   0.0277778
        k(   67) = (   0.0751811  -0.0567979   0.0000000), wk =   0.0277778
        k(   68) = (  -0.0902174   0.0477432   0.0000000), wk =   0.0138889
        k(   69) = (  -0.0902174   0.0647551   0.0000000), wk =   0.0277778
        k(   70) = (  -0.0902174   0.0817670   0.0000000), wk =   0.0277778
        k(   71) = (  -0.0902174   0.0987789   0.0000000), wk =   0.0277778
        k(   72) = (  -0.0902174   0.1157908   0.0000000), wk =   0.0277778
        k(   73) = (  -0.0902174   0.1328027   0.0000000), wk =   0.0277778
        k(   74) = (  -0.0902174  -0.0543283   0.0000000), wk =   0.0138889

     Initial potential from superposition of free atoms

     starting charge  131.99622, renormalised to  132.00000

     negative rho (up, down):  1.687E-04 0.000E+00

     %%%%%%%%%%%%%%%%%%%%%%%%%%%%%%%%%%%%%%%%%%%%%%%%%%%%%%%%%%%%%%%%%%%%%%%%
     %                                                                      %
     % You are using vdW-DF, which was implemented by the Thonhauser group. %
     % Please cite the following two papers that made this development      %
     % possible and the two reviews that describe the various versions:     %
     %                                                                      %
     %   T. Thonhauser et al., PRL 115, 136402 (2015).                      %
     %   T. Thonhauser et al., PRB 76, 125112 (2007).                       %
     %   K. Berland et al., Rep. Prog. Phys. 78, 066501 (2015).             %
     %   D.C. Langreth et al., J. Phys.: Condens. Matter 21, 084203 (2009). %
     %                                                                      %
     %                                                                      %
     % If you are calculating the stress with vdW-DF, please also cite:     %
     %                                                                      %
     %   R. Sabatini et al., J. Phys.: Condens. Matter 24, 424209 (2012).   %
     %                                                                      %
     %%%%%%%%%%%%%%%%%%%%%%%%%%%%%%%%%%%%%%%%%%%%%%%%%%%%%%%%%%%%%%%%%%%%%%%%

     Adding external electric field

     Computed dipole along edir(3) :
        Dipole                0.0000 Ry au,          0.0001 Debye
        Dipole field          0.0000 Ry au,

        Potential amp.       -0.0000 Ry
        Total length         45.2608 bohr

     Starting wfcs are  108 randomized atomic wfcs

     Self-consistent Calculation

     iteration #  1     ecut=    55.12 Ry     beta= 0.10
     Davidson diagonalization with overlap
     ethr =  1.00E-02,  avg # of iterations =  3.3

     Threshold (ethr) on eigenvalues was too large:
     Diagonalizing with lowered threshold

     Davidson diagonalization with overlap
     ethr =  2.22E-04,  avg # of iterations =  6.6

[...]

     total energy              =   -1254.34031798 Ry
     estimated scf accuracy    <       0.27423804 Ry

     iteration #  2     ecut=    55.12 Ry     beta= 0.10
     Davidson diagonalization with overlap
     ethr =  2.08E-04,  avg # of iterations =  2.2

[...]

     iteration #  3     ecut=    55.12 Ry     beta= 0.10
     Davidson diagonalization with overlap
     c_bands:  2 eigenvalues not converged
     c_bands:  1 eigenvalues not converged
     c_bands:  1 eigenvalues not converged
     ethr =  6.37E-05,  avg # of iterations = 11.7

[...]

     total energy              =   -1254.33521237 Ry
     estimated scf accuracy    <       0.00018442 Ry

     iteration # 10     ecut=    55.12 Ry     beta= 0.10
     Davidson diagonalization with overlap
     c_bands:  1 eigenvalues not converged
     ethr =  9.03E-08,  avg # of iterations =  2.6

[...]

     Adding external electric field

     Computed dipole along edir(3) :
        Dipole                0.0034 Ry au,          0.0088 Debye
        Dipole field          0.0000 Ry au,

        Potential amp.       -0.0009 Ry
        Total length         45.2608 bohr

     End of self-consistent calculation

          k = 0.0000 0.0000 0.0000 ( 31169 PWs)   bands (ev):

    -7.5201  -6.2412  -6.1660  -6.1460  -6.1121  -6.0322  -5.7185  -5.7063
    -5.6747  -5.5547  -5.4820  -5.3937  -5.3840  -5.1511  -5.0982  -4.8127
    -4.7779  -4.7767  -4.5507  -4.5174  -4.4969  -4.4836  -4.4694  -4.3644
    -4.3032  -4.2147  -4.1929  -4.1637  -4.1185  -3.9026  -3.8098  -3.3555
    -2.9707  -2.9002  -2.8055  -2.7769  -2.7417  -2.6422  -2.5949  -2.5351
    -2.5179  -2.5099  -2.5027  -2.3789  -2.2818  -2.2810  -2.2803  -2.2178
    -2.1974  -2.1127  -2.1045  -2.0714  -2.0711  -2.0583  -2.0531  -1.9963
    -1.9619  -1.9554  -1.8957  -1.8614  -1.8314  -1.7863  -1.5443   0.0561
     0.0793   0.0896   0.2442   0.8062   0.8955   1.1362   1.2378   1.3482
     2.0045   3.3909   3.4210   3.8301   3.9152   3.9205   4.2942

[...]

          k = 0.0752-0.0568 0.0000 ( 31111 PWs)   bands (ev):

[...]

          k =-0.0902 0.0477 0.0000 ( 31136 PWs)   bands (ev):

[...]

          k =-0.0902-0.0543 0.0000 ( 31046 PWs)   bands (ev):

    -6.3105  -6.0290  -5.9811  -5.7962  -5.7305  -5.7050  -5.5551  -5.5244
    -5.4664  -5.3384  -5.2694  -5.2688  -5.2197  -5.1396  -5.0157  -4.8517
    -4.7285  -4.6760  -4.5107  -4.4863  -4.4753  -4.4418  -4.3373  -4.2791
    -4.2060  -4.1714  -4.0418  -4.0396  -4.0226  -3.9654  -3.9541  -3.7657
    -3.4114  -3.3560  -3.1366  -3.0742  -3.0397  -3.0003  -2.8764  -2.8486
    -2.8349  -2.7640  -2.7377  -2.7310  -2.6428  -2.6413  -2.5540  -2.4996
    -2.4539  -2.4258  -2.4113  -2.3910  -2.3118  -2.2536  -2.2188  -2.1993
    -2.1797  -2.1774  -2.1530  -2.0392  -1.9578  -1.9505  -1.9063  -1.8477
    -0.6916  -0.4469   0.0087   0.1490   0.5211   0.8318   2.6053   2.6962
     2.7608   3.1653   4.9282   4.9849   5.6297   5.6309   5.6747

     the Fermi energy is    -0.2167 ev

!    total energy              =   -1254.33523552 Ry
     estimated scf accuracy    <       0.00000612 Ry
     smearing contrib. (-TS)   =      -0.01719801 Ry
     internal energy E=F+TS    =   -1254.31803751 Ry

     The total energy is F=E-TS. E is the sum of the following terms:
     one-electron contribution =   -9633.76747989 Ry
     hartree contribution      =    4933.30794582 Ry
     xc contribution           =    -414.69841491 Ry
     ewald contribution        =    3860.83991144 Ry
     electric field correction =       0.00000003 Ry

     convergence has been achieved in  10 iterations

     negative rho (up, down):  1.251E-04 0.000E+00

     Forces acting on atoms (cartesian axes, Ry/au):

     atom    1 type  1   force =     0.00501427    0.00301421    0.00933205
     atom    2 type  1   force =     0.00500628    0.00300851    0.00932356
     atom    3 type  2   force =    -0.00539465   -0.00324394   -0.00744953
     atom    4 type  2   force =    -0.00539100   -0.00324466   -0.00746054
     atom    5 type  1   force =    -0.00179610   -0.00107840    0.00201783
     atom    6 type  1   force =    -0.00178840   -0.00107666    0.00201656
     atom    7 type  2   force =     0.00450139    0.00270887   -0.00364194
     atom    8 type  2   force =     0.00449829    0.00270889   -0.00364484
     atom    9 type  1   force =    -0.00105056   -0.00062735   -0.00071177
     atom   10 type  1   force =    -0.00104561   -0.00063292   -0.00070382
     atom   11 type  2   force =    -0.00127689   -0.00077082    0.00046000
     atom   12 type  2   force =    -0.00127703   -0.00076573    0.00046244

     Total force =     0.023242     Total SCF correction =     0.009851
     SCF correction compared to forces is large: reduce conv_thr to get better values

     Writing output data file ./Cu2Ag2/Cu2Ag2_beef.save/

     General routines

     Parallel routines

   This run was terminated on:  21: 6:13  10Jul2022

   JOB DONE.