     Program PWSCF v.6.6 starts on 24Jun2022 at 10:17:52

     R & G space division:  proc/nbgrp/npool/nimage =      37
     Fft bands division:     nmany     =       1
     Reading input from Cu2Hf2.in
Warning: card &CELL ignored
Warning: card / ignored

     Current dimensions of program PWSCF are:
     Max number of different atomic species (ntypx) = 10
     Max number of k-points (npk) =  40000
     Max angular momentum in pseudopotentials (lmaxx) =  3
     Presently stress not available with electric field and gates

     Message from routine cell_base_init:
     DEPRECATED: use true lattice parameter, not A to a.u. conversion factor
     file Cu.pbe-dn-rrkjus_psl.1.0.0.UPF: wavefunction(s)  3D renormalized

     IMPORTANT: XC functional enforced from input :
     Exchange-correlation= BEEF-VDW
                           (   1   4  43  14   2   0   0)
     Any further DFT definition will be discarded
     Please, verify this is what you really want

     Subspace diagonalization in iterative solution of the eigenvalue problem:
     a serial algorithm will be used

     Found symmetry operation: I + ( -0.5000 -0.5000  0.0000)
     This is a supercell, fractional translations are disabled

     bravais-lattice index     =            0
     lattice parameter (alat)  =       1.8897  a.u.
     unit-cell volume          =    4919.4757 (a.u.)^3
     number of atoms/cell      =           12
     number of atomic types    =            2
     number of electrons       =       138.00
     number of Kohn-Sham states=           83
     kinetic-energy cutoff     =      55.1240  Ry
     charge density cutoff     =     551.2396  Ry
     convergence threshold     =      1.0E-05
     mixing beta               =       0.1000
     number of iterations used =           10  plain     mixing
     Exchange-correlation= BEEF-VDW
                           (   1   4  43  14   2   0   0)

     celldm(1)=   1.889726  celldm(2)=   0.000000  celldm(3)=   0.000000
     celldm(4)=   0.000000  celldm(5)=   0.000000  celldm(6)=   0.000000

     crystal axes: (cart. coord. in units of alat)
               a(1) = (   5.616793   0.000000   0.000000 )
               a(2) = (   1.928089   5.275494   0.000000 )
               a(3) = (   0.000000   0.000000  24.602019 )

     reciprocal axes: (cart. coord. in units 2 pi/alat)
               b(1) = (  0.178038 -0.065069  0.000000 )
               b(2) = (  0.000000  0.189556  0.000000 )
               b(3) = (  0.000000  0.000000  0.040647 )

     PseudoPot. # 1 for Cu read from file:
     ../pseudo/Cu.pbe-dn-rrkjus_psl.1.0.0.UPF
     MD5 check sum: 8469560995d0c2df1ffe68c099c04a63
     Pseudo is Ultrasoft + core correction, Zval = 11.0
     Generated using "atomic" code by A. Dal Corso v.6.3
     Using radial grid of 1199 points,  6 beta functions with:
                l(1) =   0
                l(2) =   0
                l(3) =   1
                l(4) =   1
                l(5) =   2
                l(6) =   2
     Q(r) pseudized with 0 coefficients

     PseudoPot. # 2 for Hf read from file:
     ../pseudo/Hf.pbe-spn-rrkjus_psl.1.0.0.UPF
     MD5 check sum: 9605440c6f839e558204c6a924125fd0
     Pseudo is Ultrasoft + core correction, Zval = 12.0
     Generated using "atomic" code by A. Dal Corso v.6.2.2
     Using radial grid of 1271 points,  6 beta functions with:
                l(1) =   0
                l(2) =   0
                l(3) =   1
                l(4) =   1
                l(5) =   2
                l(6) =   2
     Q(r) pseudized with 0 coefficients

     atomic species   valence    mass     pseudopotential
        Cu            11.00    63.54600     Cu( 1.00)
        Hf            12.00   178.49000     Hf( 1.00)

     No symmetry found

   Cartesian axes

     site n.     atom                  positions (alat units)
         1           Cu  tau(   1) = (   0.0000000   0.0000000  10.0000000  )
         2           Cu  tau(   2) = (   3.7724413   2.6377471  10.0000000  )
         3           Hf  tau(   3) = (   2.8083966   0.0000000  10.0000000  )
         4           Hf  tau(   4) = (   0.9640446   2.6377471  10.0000000  )
         5           Cu  tau(   5) = (   5.6167933   3.9273455  12.3010097  )
         6           Cu  tau(   6) = (   1.8443520   1.2895984  12.3010097  )
         7           Hf  tau(   7) = (   2.8083966   3.9273455  12.3010097  )
         8           Hf  tau(   8) = (   4.6527487   1.2895984  12.3010097  )
         9           Cu  tau(   9) = (   3.6896582   2.5798596  14.5165887  )
        10           Cu  tau(  10) = (   7.4620833   5.2176221  14.5165971  )
        11           Hf  tau(  11) = (   6.5048368   2.5846062  14.5697448  )
        12           Hf  tau(  12) = (   4.6604782   5.2223510  14.5697447  )

     number of k points=    74  Fermi-Dirac smearing, width (Ry)=  0.0100
                       cart. coord. in units 2pi/alat
        k(    1) = (   0.0000000   0.0000000   0.0000000), wk =   0.0138889
        k(    2) = (   0.0000000   0.0157963   0.0000000), wk =   0.0277778
        k(    3) = (   0.0000000   0.0315926   0.0000000), wk =   0.0277778
        k(    4) = (   0.0000000   0.0473889   0.0000000), wk =   0.0277778
        k(    5) = (   0.0000000   0.0631852   0.0000000), wk =   0.0277778
        k(    6) = (   0.0000000   0.0789815   0.0000000), wk =   0.0277778
        k(    7) = (   0.0000000  -0.0947779   0.0000000), wk =   0.0138889
        k(    8) = (   0.0148365  -0.0054224   0.0000000), wk =   0.0277778
        k(    9) = (   0.0148365   0.0103739   0.0000000), wk =   0.0277778
        k(   10) = (   0.0148365   0.0261702   0.0000000), wk =   0.0277778
        k(   11) = (   0.0148365   0.0419665   0.0000000), wk =   0.0277778
        k(   12) = (   0.0148365   0.0577628   0.0000000), wk =   0.0277778
        k(   13) = (   0.0148365   0.0735591   0.0000000), wk =   0.0277778
        k(   14) = (   0.0148365  -0.1002003   0.0000000), wk =   0.0277778
        k(   15) = (   0.0148365  -0.0844040   0.0000000), wk =   0.0277778
        k(   16) = (   0.0148365  -0.0686077   0.0000000), wk =   0.0277778
        k(   17) = (   0.0148365  -0.0528114   0.0000000), wk =   0.0277778
        k(   18) = (   0.0148365  -0.0370151   0.0000000), wk =   0.0277778
        k(   19) = (   0.0148365  -0.0212187   0.0000000), wk =   0.0277778
        k(   20) = (   0.0296729  -0.0108449   0.0000000), wk =   0.0277778
        k(   21) = (   0.0296729   0.0049514   0.0000000), wk =   0.0277778
        k(   22) = (   0.0296729   0.0207477   0.0000000), wk =   0.0277778
        k(   23) = (   0.0296729   0.0365441   0.0000000), wk =   0.0277778
        k(   24) = (   0.0296729   0.0523404   0.0000000), wk =   0.0277778
        k(   25) = (   0.0296729   0.0681367   0.0000000), wk =   0.0277778
        k(   26) = (   0.0296729  -0.1056227   0.0000000), wk =   0.0277778
        k(   27) = (   0.0296729  -0.0898264   0.0000000), wk =   0.0277778
        k(   28) = (   0.0296729  -0.0740301   0.0000000), wk =   0.0277778
        k(   29) = (   0.0296729  -0.0582338   0.0000000), wk =   0.0277778
        k(   30) = (   0.0296729  -0.0424375   0.0000000), wk =   0.0277778
        k(   31) = (   0.0296729  -0.0266412   0.0000000), wk =   0.0277778
        k(   32) = (   0.0445094  -0.0162673   0.0000000), wk =   0.0277778
        k(   33) = (   0.0445094  -0.0004710   0.0000000), wk =   0.0277778
        k(   34) = (   0.0445094   0.0153253   0.0000000), wk =   0.0277778
        k(   35) = (   0.0445094   0.0311216   0.0000000), wk =   0.0277778
        k(   36) = (   0.0445094   0.0469179   0.0000000), wk =   0.0277778
        k(   37) = (   0.0445094   0.0627142   0.0000000), wk =   0.0277778
        k(   38) = (   0.0445094  -0.1110452   0.0000000), wk =   0.0277778
        k(   39) = (   0.0445094  -0.0952488   0.0000000), wk =   0.0277778
        k(   40) = (   0.0445094  -0.0794525   0.0000000), wk =   0.0277778
        k(   41) = (   0.0445094  -0.0636562   0.0000000), wk =   0.0277778
        k(   42) = (   0.0445094  -0.0478599   0.0000000), wk =   0.0277778
        k(   43) = (   0.0445094  -0.0320636   0.0000000), wk =   0.0277778
        k(   44) = (   0.0593458  -0.0216897   0.0000000), wk =   0.0277778
        k(   45) = (   0.0593458  -0.0058934   0.0000000), wk =   0.0277778
        k(   46) = (   0.0593458   0.0099029   0.0000000), wk =   0.0277778
        k(   47) = (   0.0593458   0.0256992   0.0000000), wk =   0.0277778
        k(   48) = (   0.0593458   0.0414955   0.0000000), wk =   0.0277778
        k(   49) = (   0.0593458   0.0572918   0.0000000), wk =   0.0277778
        k(   50) = (   0.0593458  -0.1164676   0.0000000), wk =   0.0277778
        k(   51) = (   0.0593458  -0.1006713   0.0000000), wk =   0.0277778
        k(   52) = (   0.0593458  -0.0848750   0.0000000), wk =   0.0277778
        k(   53) = (   0.0593458  -0.0690787   0.0000000), wk =   0.0277778
        k(   54) = (   0.0593458  -0.0532824   0.0000000), wk =   0.0277778
        k(   55) = (   0.0593458  -0.0374860   0.0000000), wk =   0.0277778
        k(   56) = (   0.0741823  -0.0271122   0.0000000), wk =   0.0277778
        k(   57) = (   0.0741823  -0.0113159   0.0000000), wk =   0.0277778
        k(   58) = (   0.0741823   0.0044804   0.0000000), wk =   0.0277778
        k(   59) = (   0.0741823   0.0202768   0.0000000), wk =   0.0277778
        k(   60) = (   0.0741823   0.0360731   0.0000000), wk =   0.0277778
        k(   61) = (   0.0741823   0.0518694   0.0000000), wk =   0.0277778
        k(   62) = (   0.0741823  -0.1218900   0.0000000), wk =   0.0277778
        k(   63) = (   0.0741823  -0.1060937   0.0000000), wk =   0.0277778
        k(   64) = (   0.0741823  -0.0902974   0.0000000), wk =   0.0277778
        k(   65) = (   0.0741823  -0.0745011   0.0000000), wk =   0.0277778
        k(   66) = (   0.0741823  -0.0587048   0.0000000), wk =   0.0277778
        k(   67) = (   0.0741823  -0.0429085   0.0000000), wk =   0.0277778
        k(   68) = (  -0.0890188   0.0325346   0.0000000), wk =   0.0138889
        k(   69) = (  -0.0890188   0.0483309   0.0000000), wk =   0.0277778
        k(   70) = (  -0.0890188   0.0641272   0.0000000), wk =   0.0277778
        k(   71) = (  -0.0890188   0.0799235   0.0000000), wk =   0.0277778
        k(   72) = (  -0.0890188   0.0957198   0.0000000), wk =   0.0277778
        k(   73) = (  -0.0890188   0.1115161   0.0000000), wk =   0.0277778
        k(   74) = (  -0.0890188  -0.0622432   0.0000000), wk =   0.0138889

     Initial potential from superposition of free atoms

     starting charge  137.98699, renormalised to  138.00000

     negative rho (up, down):  3.988E-04 0.000E+00

     %%%%%%%%%%%%%%%%%%%%%%%%%%%%%%%%%%%%%%%%%%%%%%%%%%%%%%%%%%%%%%%%%%%%%%%%
     %                                                                      %
     % You are using vdW-DF, which was implemented by the Thonhauser group. %
     % Please cite the following two papers that made this development      %
     % possible and the two reviews that describe the various versions:     %
     %                                                                      %
     %   T. Thonhauser et al., PRL 115, 136402 (2015).                      %
     %   T. Thonhauser et al., PRB 76, 125112 (2007).                       %
     %   K. Berland et al., Rep. Prog. Phys. 78, 066501 (2015).             %
     %   D.C. Langreth et al., J. Phys.: Condens. Matter 21, 084203 (2009). %
     %                                                                      %
     %                                                                      %
     % If you are calculating the stress with vdW-DF, please also cite:     %
     %                                                                      %
     %   R. Sabatini et al., J. Phys.: Condens. Matter 24, 424209 (2012).   %
     %                                                                      %
     %%%%%%%%%%%%%%%%%%%%%%%%%%%%%%%%%%%%%%%%%%%%%%%%%%%%%%%%%%%%%%%%%%%%%%%%

     Adding external electric field

     Computed dipole along edir(3) :
        Dipole                0.0002 Ry au,          0.0004 Debye
        Dipole field          0.0000 Ry au,

        Potential amp.       -0.0000 Ry
        Total length         45.3288 bohr

     Starting wfcs are  114 randomized atomic wfcs

     Self-consistent Calculation

     iteration #  1     ecut=    55.12 Ry     beta= 0.10
     Davidson diagonalization with overlap
     ethr =  1.00E-02,  avg # of iterations =  2.0

[...]

     total energy              =   -1501.01307969 Ry
     estimated scf accuracy    <       2.23168212 Ry

[...]

     iteration #  6     ecut=    55.12 Ry     beta= 0.10
     Davidson diagonalization with overlap
     c_bands:  1 eigenvalues not converged
     ethr =  6.40E-05,  avg # of iterations =  9.5

[...]

     iteration # 10     ecut=    55.12 Ry     beta= 0.10
     Davidson diagonalization with overlap
     c_bands:  1 eigenvalues not converged
     c_bands:  1 eigenvalues not converged
     c_bands:  1 eigenvalues not converged
     ethr =  1.27E-06,  avg # of iterations =  9.0

[...]

     total energy              =   -1501.17854073 Ry
     estimated scf accuracy    <       0.00001492 Ry

     iteration # 16     ecut=    55.12 Ry     beta= 0.10
     Davidson diagonalization with overlap
     ethr =  1.08E-08,  avg # of iterations =  5.3

[...]

     Adding external electric field

     Computed dipole along edir(3) :
        Dipole                0.0200 Ry au,          0.0509 Debye
        Dipole field          0.0001 Ry au,

        Potential amp.       -0.0046 Ry
        Total length         45.3288 bohr

     End of self-consistent calculation

          k = 0.0000 0.0000 0.0000 ( 34139 PWs)   bands (ev):

   -62.1410 -62.1325 -62.1257 -62.1171 -61.6652 -61.6496 -30.7135 -30.7002
   -30.6887 -30.6609 -30.6276 -30.6252 -30.6076 -30.5859 -30.5837 -30.5532
   -30.3262 -30.2896 -30.2863 -30.1533 -30.1214 -30.1048 -30.0802 -29.9707
    -6.6379  -4.9371  -3.8578  -3.6686  -3.5458  -3.3844  -3.3719  -3.2811
    -3.1731  -3.1355  -2.9953  -2.9744  -2.9174  -2.6399  -2.6373  -2.6017
    -2.5692  -2.5645  -2.5032  -2.4601  -2.4486  -2.4339  -2.4195  -2.2846
    -2.2504  -2.1931  -2.1846  -2.1451  -2.0474  -1.9822  -1.9460  -1.8630
    -1.5477  -1.3178  -1.2458  -1.1373  -0.5026  -0.0635  -0.0069   0.5018
     0.5888   0.8153   0.8875   0.9659   1.0768   1.4524   1.4826   1.5983
     1.6733   1.6941   1.8269   2.0879   2.1437   2.5068   2.6675   2.9347
     2.9834   3.4655   3.6457

[...]

          k = 0.0742-0.0429 0.0000 ( 33962 PWs)   bands (ev):

[...]

          k =-0.0890 0.0325 0.0000 ( 33950 PWs)   bands (ev):

[...]

          k =-0.0890-0.0622 0.0000 ( 33926 PWs)   bands (ev):

   -62.1408 -62.1323 -62.1258 -62.1173 -61.6654 -61.6494 -30.7284 -30.6948
   -30.6784 -30.6634 -30.6325 -30.6289 -30.6279 -30.5932 -30.5719 -30.5492
   -30.3258 -30.2894 -30.2862 -30.1431 -30.1176 -30.1157 -30.0861 -29.9725
    -4.7083  -4.5751  -3.3408  -3.2991  -3.2975  -3.1973  -2.9029  -2.8564
    -2.8462  -2.6857  -2.6603  -2.6546  -2.6266  -2.5785  -2.5379  -2.5223
    -2.4350  -2.3985  -2.3761  -2.3665  -2.3376  -2.3254  -2.3217  -2.2774
    -2.2329  -2.2272  -2.2162  -2.2124  -2.1753  -2.1486  -2.1360  -2.0225
    -1.9918  -1.8641  -1.4641  -1.4050  -1.3064  -0.9723  -0.9235  -0.9178
    -0.7750  -0.2112   0.2249   0.2715   0.2812   0.5671   0.6708   0.8078
     0.9847   1.5800   1.8069   1.9402   2.2237   2.3223   2.5526   2.6390
     2.6588   2.7796   2.8943

     the Fermi energy is     0.9494 ev

!    total energy              =   -1501.17854320 Ry
     estimated scf accuracy    <       0.00000060 Ry
     smearing contrib. (-TS)   =      -0.06823933 Ry
     internal energy E=F+TS    =   -1501.11030387 Ry

     The total energy is F=E-TS. E is the sum of the following terms:
     one-electron contribution =   -9723.79548507 Ry
     hartree contribution      =    4924.71847716 Ry
     xc contribution           =    -531.64921117 Ry
     ewald contribution        =    3829.61591418 Ry
     electric field correction =       0.00000103 Ry

     convergence has been achieved in  16 iterations

     negative rho (up, down):  1.413E-04 0.000E+00

     Forces acting on atoms (cartesian axes, Ry/au):

     atom    1 type  1   force =     0.00019113    0.00012698    0.00836950
     atom    2 type  1   force =     0.00020203    0.00014782    0.00838240
     atom    3 type  2   force =    -0.00140158   -0.00097305    0.00433751
     atom    4 type  2   force =    -0.00139807   -0.00098333    0.00433208
     atom    5 type  1   force =     0.00000298   -0.00001756   -0.00176761
     atom    6 type  1   force =    -0.00000155    0.00001585   -0.00176443
     atom    7 type  2   force =     0.00033168    0.00023645   -0.00973570
     atom    8 type  2   force =     0.00032916    0.00022626   -0.00973735
     atom    9 type  1   force =     0.00072137    0.00050978   -0.00087131
     atom   10 type  1   force =     0.00071215    0.00049250   -0.00085988
     atom   11 type  2   force =     0.00015640    0.00010779   -0.00034066
     atom   12 type  2   force =     0.00015431    0.00011052   -0.00034454

     Total force =     0.019579     Total SCF correction =     0.003032
     SCF correction compared to forces is large: reduce conv_thr to get better values

     Writing output data file ./Cu2Hf2/Cu2Hf2_beef.save/

     General routines

     Parallel routines

   This run was terminated on:  10:59:57  24Jun2022

   JOB DONE.