     Program PWSCF v.6.6 starts on 23Jun2022 at 20:38:35

     R & G space division:  proc/nbgrp/npool/nimage =      37
     Fft bands division:     nmany     =       1
     Reading input from Cu2Ir2.in
Warning: card &CELL ignored
Warning: card / ignored

     Current dimensions of program PWSCF are:
     Max number of different atomic species (ntypx) = 10
     Max number of k-points (npk) =  40000
     Max angular momentum in pseudopotentials (lmaxx) =  3
     Presently stress not available with electric field and gates

     Message from routine cell_base_init:
     DEPRECATED: use true lattice parameter, not A to a.u. conversion factor
     file Cu.pbe-dn-rrkjus_psl.1.0.0.UPF: wavefunction(s)  3D renormalized
     file Ir.pbe-n-rrkjus_psl.0.2.3.UPF: wavefunction(s)  5D renormalized

     IMPORTANT: XC functional enforced from input :
     Exchange-correlation= BEEF-VDW
                           (   1   4  43  14   2   0   0)
     Any further DFT definition will be discarded
     Please, verify this is what you really want

     Subspace diagonalization in iterative solution of the eigenvalue problem:
     a serial algorithm will be used

     bravais-lattice index     =            0
     lattice parameter (alat)  =       1.8897  a.u.
     unit-cell volume          =    4091.0333 (a.u.)^3
     number of atoms/cell      =           12
     number of atomic types    =            2
     number of electrons       =       120.00
     number of Kohn-Sham states=           72
     kinetic-energy cutoff     =      55.1240  Ry
     charge density cutoff     =     551.2396  Ry
     convergence threshold     =      1.0E-05
     mixing beta               =       0.1000
     number of iterations used =           10  plain     mixing
     Exchange-correlation= BEEF-VDW
                           (   1   4  43  14   2   0   0)

     celldm(1)=   1.889726  celldm(2)=   0.000000  celldm(3)=   0.000000
     celldm(4)=   0.000000  celldm(5)=   0.000000  celldm(6)=   0.000000

     crystal axes: (cart. coord. in units of alat)
               a(1) = (   5.354642   0.000000   0.000000 )
               a(2) = (   2.664480   4.644646   0.000000 )
               a(3) = (   0.000000   0.000000  24.375495 )

     reciprocal axes: (cart. coord. in units 2 pi/alat)
               b(1) = (  0.186754 -0.107135  0.000000 )
               b(2) = (  0.000000  0.215302  0.000000 )
               b(3) = (  0.000000  0.000000  0.041025 )

     PseudoPot. # 1 for Cu read from file:
     ../pseudo/Cu.pbe-dn-rrkjus_psl.1.0.0.UPF
     MD5 check sum: 8469560995d0c2df1ffe68c099c04a63
     Pseudo is Ultrasoft + core correction, Zval = 11.0
     Generated using "atomic" code by A. Dal Corso v.6.3
     Using radial grid of 1199 points,  6 beta functions with:
                l(1) =   0
                l(2) =   0
                l(3) =   1
                l(4) =   1
                l(5) =   2
                l(6) =   2
     Q(r) pseudized with 0 coefficients

     PseudoPot. # 2 for Ir read from file:
     ../pseudo/Ir.pbe-n-rrkjus_psl.0.2.3.UPF
     MD5 check sum: a93e608e8ddc29ee62145620b5f41564
     Pseudo is Ultrasoft + core correction, Zval =  9.0
     Generated using "atomic" code by A. Dal Corso v.5.0.2 svn rev. 9415
     Using radial grid of 1277 points,  6 beta functions with:
                l(1) =   0
                l(2) =   0
                l(3) =   1
                l(4) =   1
                l(5) =   2
                l(6) =   2
     Q(r) pseudized with 0 coefficients

     atomic species   valence    mass     pseudopotential
        Cu            11.00    63.54600     Cu( 1.00)
        Ir             9.00   192.21700     Ir( 1.00)

     No symmetry found

   Cartesian axes

     site n.     atom                  positions (alat units)
         1           Cu  tau(   1) = (   0.0000000   0.0000000  10.0000000  )
         2           Cu  tau(   2) = (   4.0095609   2.3223230  10.0000000  )
         3           Ir  tau(   3) = (   2.6773209   0.0000000  10.0000000  )
         4           Ir  tau(   4) = (   1.3322400   2.3223230  10.0000000  )
         5           Cu  tau(   5) = (   5.3546418   3.1013889  12.1877477  )
         6           Cu  tau(   6) = (   1.3450809   0.7790659  12.1877477  )
         7           Ir  tau(   7) = (   2.6773209   3.1013889  12.1877477  )
         8           Ir  tau(   8) = (   4.0224019   0.7790659  12.1877477  )
         9           Cu  tau(   9) = (   2.4904001   1.4427320  14.4195712  )
        10           Cu  tau(  10) = (   6.5002022   3.7645929  14.4195645  )
        11           Ir  tau(  11) = (   5.1762634   1.4473738  14.3496816  )
        12           Ir  tau(  12) = (   3.8315827   3.7699387  14.3496667  )

     number of k points=    74  Fermi-Dirac smearing, width (Ry)=  0.0100
                       cart. coord. in units 2pi/alat
        k(    1) = (   0.0000000   0.0000000   0.0000000), wk =   0.0138889
        k(    2) = (   0.0000000   0.0179418   0.0000000), wk =   0.0277778
        k(    3) = (   0.0000000   0.0358836   0.0000000), wk =   0.0277778
        k(    4) = (   0.0000000   0.0538254   0.0000000), wk =   0.0277778
        k(    5) = (   0.0000000   0.0717672   0.0000000), wk =   0.0277778
        k(    6) = (   0.0000000   0.0897090   0.0000000), wk =   0.0277778
        k(    7) = (   0.0000000  -0.1076508   0.0000000), wk =   0.0138889
        k(    8) = (   0.0155628  -0.0089279   0.0000000), wk =   0.0277778
        k(    9) = (   0.0155628   0.0090139   0.0000000), wk =   0.0277778
        k(   10) = (   0.0155628   0.0269557   0.0000000), wk =   0.0277778
        k(   11) = (   0.0155628   0.0448975   0.0000000), wk =   0.0277778
        k(   12) = (   0.0155628   0.0628393   0.0000000), wk =   0.0277778
        k(   13) = (   0.0155628   0.0807811   0.0000000), wk =   0.0277778
        k(   14) = (   0.0155628  -0.1165787   0.0000000), wk =   0.0277778
        k(   15) = (   0.0155628  -0.0986369   0.0000000), wk =   0.0277778
        k(   16) = (   0.0155628  -0.0806951   0.0000000), wk =   0.0277778
        k(   17) = (   0.0155628  -0.0627533   0.0000000), wk =   0.0277778
        k(   18) = (   0.0155628  -0.0448115   0.0000000), wk =   0.0277778
        k(   19) = (   0.0155628  -0.0268697   0.0000000), wk =   0.0277778
        k(   20) = (   0.0311256  -0.0178558   0.0000000), wk =   0.0277778
        k(   21) = (   0.0311256   0.0000861   0.0000000), wk =   0.0277778
        k(   22) = (   0.0311256   0.0180279   0.0000000), wk =   0.0277778
        k(   23) = (   0.0311256   0.0359697   0.0000000), wk =   0.0277778
        k(   24) = (   0.0311256   0.0539115   0.0000000), wk =   0.0277778
        k(   25) = (   0.0311256   0.0718533   0.0000000), wk =   0.0277778
        k(   26) = (   0.0311256  -0.1255066   0.0000000), wk =   0.0277778
        k(   27) = (   0.0311256  -0.1075648   0.0000000), wk =   0.0277778
        k(   28) = (   0.0311256  -0.0896230   0.0000000), wk =   0.0277778
        k(   29) = (   0.0311256  -0.0716812   0.0000000), wk =   0.0277778
        k(   30) = (   0.0311256  -0.0537394   0.0000000), wk =   0.0277778
        k(   31) = (   0.0311256  -0.0357976   0.0000000), wk =   0.0277778
        k(   32) = (   0.0466885  -0.0267836   0.0000000), wk =   0.0277778
        k(   33) = (   0.0466885  -0.0088418   0.0000000), wk =   0.0277778
        k(   34) = (   0.0466885   0.0091000   0.0000000), wk =   0.0277778
        k(   35) = (   0.0466885   0.0270418   0.0000000), wk =   0.0277778
        k(   36) = (   0.0466885   0.0449836   0.0000000), wk =   0.0277778
        k(   37) = (   0.0466885   0.0629254   0.0000000), wk =   0.0277778
        k(   38) = (   0.0466885  -0.1344345   0.0000000), wk =   0.0277778
        k(   39) = (   0.0466885  -0.1164927   0.0000000), wk =   0.0277778
        k(   40) = (   0.0466885  -0.0985508   0.0000000), wk =   0.0277778
        k(   41) = (   0.0466885  -0.0806090   0.0000000), wk =   0.0277778
        k(   42) = (   0.0466885  -0.0626672   0.0000000), wk =   0.0277778
        k(   43) = (   0.0466885  -0.0447254   0.0000000), wk =   0.0277778
        k(   44) = (   0.0622513  -0.0357115   0.0000000), wk =   0.0277778
        k(   45) = (   0.0622513  -0.0177697   0.0000000), wk =   0.0277778
        k(   46) = (   0.0622513   0.0001721   0.0000000), wk =   0.0277778
        k(   47) = (   0.0622513   0.0181139   0.0000000), wk =   0.0277778
        k(   48) = (   0.0622513   0.0360557   0.0000000), wk =   0.0277778
        k(   49) = (   0.0622513   0.0539975   0.0000000), wk =   0.0277778
        k(   50) = (   0.0622513  -0.1433623   0.0000000), wk =   0.0277778
        k(   51) = (   0.0622513  -0.1254205   0.0000000), wk =   0.0277778
        k(   52) = (   0.0622513  -0.1074787   0.0000000), wk =   0.0277778
        k(   53) = (   0.0622513  -0.0895369   0.0000000), wk =   0.0277778
        k(   54) = (   0.0622513  -0.0715951   0.0000000), wk =   0.0277778
        k(   55) = (   0.0622513  -0.0536533   0.0000000), wk =   0.0277778
        k(   56) = (   0.0778141  -0.0446394   0.0000000), wk =   0.0277778
        k(   57) = (   0.0778141  -0.0266976   0.0000000), wk =   0.0277778
        k(   58) = (   0.0778141  -0.0087558   0.0000000), wk =   0.0277778
        k(   59) = (   0.0778141   0.0091860   0.0000000), wk =   0.0277778
        k(   60) = (   0.0778141   0.0271278   0.0000000), wk =   0.0277778
        k(   61) = (   0.0778141   0.0450696   0.0000000), wk =   0.0277778
        k(   62) = (   0.0778141  -0.1522902   0.0000000), wk =   0.0277778
        k(   63) = (   0.0778141  -0.1343484   0.0000000), wk =   0.0277778
        k(   64) = (   0.0778141  -0.1164066   0.0000000), wk =   0.0277778
        k(   65) = (   0.0778141  -0.0984648   0.0000000), wk =   0.0277778
        k(   66) = (   0.0778141  -0.0805230   0.0000000), wk =   0.0277778
        k(   67) = (   0.0778141  -0.0625812   0.0000000), wk =   0.0277778
        k(   68) = (  -0.0933769   0.0535673   0.0000000), wk =   0.0138889
        k(   69) = (  -0.0933769   0.0715091   0.0000000), wk =   0.0277778
        k(   70) = (  -0.0933769   0.0894509   0.0000000), wk =   0.0277778
        k(   71) = (  -0.0933769   0.1073927   0.0000000), wk =   0.0277778
        k(   72) = (  -0.0933769   0.1253345   0.0000000), wk =   0.0277778
        k(   73) = (  -0.0933769   0.1432763   0.0000000), wk =   0.0277778
        k(   74) = (  -0.0933769  -0.0540836   0.0000000), wk =   0.0138889

     Initial potential from superposition of free atoms

     starting charge  119.99772, renormalised to  120.00000

     negative rho (up, down):  3.420E-04 0.000E+00

     %%%%%%%%%%%%%%%%%%%%%%%%%%%%%%%%%%%%%%%%%%%%%%%%%%%%%%%%%%%%%%%%%%%%%%%%
     %                                                                      %
     % You are using vdW-DF, which was implemented by the Thonhauser group. %
     % Please cite the following two papers that made this development      %
     % possible and the two reviews that describe the various versions:     %
     %                                                                      %
     %   T. Thonhauser et al., PRL 115, 136402 (2015).                      %
     %   T. Thonhauser et al., PRB 76, 125112 (2007).                       %
     %   K. Berland et al., Rep. Prog. Phys. 78, 066501 (2015).             %
     %   D.C. Langreth et al., J. Phys.: Condens. Matter 21, 084203 (2009). %
     %                                                                      %
     %                                                                      %
     % If you are calculating the stress with vdW-DF, please also cite:     %
     %                                                                      %
     %   R. Sabatini et al., J. Phys.: Condens. Matter 24, 424209 (2012).   %
     %                                                                      %
     %%%%%%%%%%%%%%%%%%%%%%%%%%%%%%%%%%%%%%%%%%%%%%%%%%%%%%%%%%%%%%%%%%%%%%%%

     Adding external electric field

     Computed dipole along edir(3) :
        Dipole                0.0000 Ry au,          0.0000 Debye
        Dipole field          0.0000 Ry au,

        Potential amp.       -0.0000 Ry
        Total length         44.9114 bohr

     Starting wfcs are  108 randomized atomic wfcs

     Self-consistent Calculation

     iteration #  1     ecut=    55.12 Ry     beta= 0.10
     Davidson diagonalization with overlap
     ethr =  1.00E-02,  avg # of iterations =  2.0

[...]

     total energy              =   -1122.09095646 Ry
     estimated scf accuracy    <       1.68856437 Ry

[...]

     iteration #  5     ecut=    55.12 Ry     beta= 0.10
     Davidson diagonalization with overlap
     c_bands:  1 eigenvalues not converged
     ethr =  8.52E-05,  avg # of iterations =  2.7

[...]

     iteration #  7     ecut=    55.12 Ry     beta= 0.10
     Davidson diagonalization with overlap
     c_bands:  1 eigenvalues not converged
     ethr =  1.64E-05,  avg # of iterations =  6.4

[...]

     total energy              =   -1122.31521030 Ry
     estimated scf accuracy    <       0.00004158 Ry

     iteration # 13     ecut=    55.12 Ry     beta= 0.10
     Davidson diagonalization with overlap
     ethr =  3.47E-08,  avg # of iterations =  2.9

[...]

     Adding external electric field

     Computed dipole along edir(3) :
        Dipole                0.0269 Ry au,          0.0683 Debye
        Dipole field          0.0001 Ry au,

        Potential amp.       -0.0074 Ry
        Total length         44.9114 bohr

     End of self-consistent calculation

          k = 0.0000 0.0000 0.0000 ( 28215 PWs)   bands (ev):

    -8.5285  -6.6985  -5.8490  -5.7927  -5.5361  -5.3508  -5.1258  -5.0084
    -4.8971  -4.8460  -4.6207  -4.5382  -4.5320  -4.3489  -4.0433  -3.7942
    -3.3717  -3.1882  -3.0663  -3.0414  -2.9892  -2.9154  -2.8133  -2.8062
    -2.6691  -2.6175  -2.5599  -2.5333  -2.5074  -2.4901  -2.4769  -2.4271
    -2.2661  -2.2185  -1.9665  -1.8884  -1.8633  -1.8393  -1.7301  -1.7277
    -1.6641  -1.4880  -1.4554  -1.2311  -1.1310  -1.1066  -1.0338  -0.9396
    -0.9328  -0.7156  -0.5785  -0.3664  -0.2872   0.0759   0.1393   0.1695
     0.2604   0.4426   0.4809   0.5412   0.5419   0.5534   0.8235   1.0752
     1.1068   1.2575   1.5072   2.3061   2.5474   2.7976   2.8554   3.3085

[...]

          k = 0.0778-0.0626 0.0000 ( 28319 PWs)   bands (ev):

[...]

          k =-0.0934 0.0536 0.0000 ( 28304 PWs)   bands (ev):

[...]

          k =-0.0934-0.0541 0.0000 ( 28284 PWs)   bands (ev):

    -7.0582  -6.4908  -5.5644  -5.3239  -5.0198  -4.8158  -4.7618  -4.6055
    -4.4082  -4.3855  -4.0788  -3.9794  -3.8528  -3.7836  -3.6445  -3.6343
    -3.5324  -3.4993  -3.3323  -3.1449  -3.1296  -2.9616  -2.9461  -2.8817
    -2.7132  -2.6957  -2.6943  -2.6261  -2.6132  -2.5258  -2.5255  -2.5140
    -2.4419  -2.3868  -2.3721  -2.3418  -2.3410  -2.3337  -2.3244  -2.2435
    -2.2135  -2.1008  -2.0664  -2.0439  -1.9007  -1.8451  -1.8311  -1.7032
    -1.4495  -1.2964  -1.2442  -1.1858  -1.1826  -1.1424  -0.3434  -0.3425
    -0.1552  -0.1335  -0.0786   0.0458   0.1522   0.2275   0.3430   0.7866
     1.0017   1.7129   1.9033   2.0516   3.8621   4.0835   4.1623   4.6234

     the Fermi energy is     0.0720 ev

!    total energy              =   -1122.31521685 Ry
     estimated scf accuracy    <       0.00000793 Ry
     smearing contrib. (-TS)   =      -0.07517334 Ry
     internal energy E=F+TS    =   -1122.24004351 Ry

     The total energy is F=E-TS. E is the sum of the following terms:
     one-electron contribution =   -8652.15118124 Ry
     hartree contribution      =    4431.55402577 Ry
     xc contribution           =    -470.53460044 Ry
     ewald contribution        =    3568.89171017 Ry
     electric field correction =       0.00000222 Ry

     convergence has been achieved in  13 iterations

     negative rho (up, down):  3.617E-04 0.000E+00

     Forces acting on atoms (cartesian axes, Ry/au):

     atom    1 type  1   force =     0.00865710    0.00489481   -0.00431359
     atom    2 type  1   force =     0.00855264    0.00506935   -0.00432960
     atom    3 type  2   force =     0.00660201    0.00381187    0.00956553
     atom    4 type  2   force =     0.00665163    0.00383615    0.00960594
     atom    5 type  1   force =    -0.00199425   -0.00116308   -0.00068835
     atom    6 type  1   force =    -0.00199234   -0.00114151   -0.00070072
     atom    7 type  2   force =    -0.01231768   -0.00712672   -0.00483886
     atom    8 type  2   force =    -0.01234016   -0.00713841   -0.00486696
     atom    9 type  1   force =    -0.00232628   -0.00129168   -0.00290842
     atom   10 type  1   force =    -0.00226974   -0.00137759   -0.00288870
     atom   11 type  2   force =     0.00145303    0.00084435    0.00321734
     atom   12 type  2   force =     0.00132402    0.00078248    0.00314638

     Total force =     0.032508     Total SCF correction =     0.012702
     SCF correction compared to forces is large: reduce conv_thr to get better values

     Writing output data file ./Cu2Ir2/Cu2Ir2_beef.save/

     General routines

     Parallel routines

   This run was terminated on:  21:16:19  23Jun2022

   JOB DONE.