     Program PWSCF v.6.6 starts on 10Jul2022 at 23:36:43

     R & G space division:  proc/nbgrp/npool/nimage =      37
     Fft bands division:     nmany     =       1
     Reading input from Cu2Mo2.in
Warning: card &CELL ignored
Warning: card / ignored

     Current dimensions of program PWSCF are:
     Max number of different atomic species (ntypx) = 10
     Max number of k-points (npk) =  40000
     Max angular momentum in pseudopotentials (lmaxx) =  3
     Presently stress not available with electric field and gates

     Message from routine cell_base_init:
     DEPRECATED: use true lattice parameter, not A to a.u. conversion factor
     file Cu.pbe-dn-rrkjus_psl.1.0.0.UPF: wavefunction(s)  3D renormalized
     file Mo.pbe-spn-rrkjus_psl.1.0.0.UPF: wavefunction(s)  4S renormalized

     IMPORTANT: XC functional enforced from input :
     Exchange-correlation= BEEF-VDW
                           (   1   4  43  14   2   0   0)
     Any further DFT definition will be discarded
     Please, verify this is what you really want

     Subspace diagonalization in iterative solution of the eigenvalue problem:
     a serial algorithm will be used

     bravais-lattice index     =            0
     lattice parameter (alat)  =       1.8897  a.u.
     unit-cell volume          =    4190.7365 (a.u.)^3
     number of atoms/cell      =           12
     number of atomic types    =            2
     number of electrons       =       150.00
     number of Kohn-Sham states=           90
     kinetic-energy cutoff     =      55.1240  Ry
     charge density cutoff     =     551.2396  Ry
     convergence threshold     =      1.0E-05
     mixing beta               =       0.1000
     number of iterations used =           10  plain     mixing
     Exchange-correlation= BEEF-VDW
                           (   1   4  43  14   2   0   0)

     celldm(1)=   1.889726  celldm(2)=   0.000000  celldm(3)=   0.000000
     celldm(4)=   0.000000  celldm(5)=   0.000000  celldm(6)=   0.000000

     crystal axes: (cart. coord. in units of alat)
               a(1) = (   5.181980   0.000000   0.000000 )
               a(2) = (  -2.590990   4.911012   0.000000 )
               a(3) = (   0.000000   0.000000  24.402095 )

     reciprocal axes: (cart. coord. in units 2 pi/alat)
               b(1) = (  0.192976  0.101812 -0.000000 )
               b(2) = (  0.000000  0.203624  0.000000 )
               b(3) = (  0.000000 -0.000000  0.040980 )

     PseudoPot. # 1 for Cu read from file:
     ../pseudo/Cu.pbe-dn-rrkjus_psl.1.0.0.UPF
     MD5 check sum: 8469560995d0c2df1ffe68c099c04a63
     Pseudo is Ultrasoft + core correction, Zval = 11.0
     Generated using "atomic" code by A. Dal Corso v.6.3
     Using radial grid of 1199 points,  6 beta functions with:
                l(1) =   0
                l(2) =   0
                l(3) =   1
                l(4) =   1
                l(5) =   2
                l(6) =   2
     Q(r) pseudized with 0 coefficients

     PseudoPot. # 2 for Mo read from file:
     ../pseudo/Mo.pbe-spn-rrkjus_psl.1.0.0.UPF
     MD5 check sum: 03f09b12e49601d1a456a78ce8b2d514
     Pseudo is Ultrasoft + core correction, Zval = 14.0
     Generated using "atomic" code by A. Dal Corso v.6.3
     Using radial grid of 1229 points,  6 beta functions with:
                l(1) =   0
                l(2) =   0
                l(3) =   1
                l(4) =   1
                l(5) =   2
                l(6) =   2
     Q(r) pseudized with 0 coefficients

     atomic species   valence    mass     pseudopotential
        Cu            11.00    63.54600     Cu( 1.00)
        Mo            14.00    95.95000     Mo( 1.00)

     No symmetry found

   Cartesian axes

     site n.     atom                  positions (alat units)
         1           Cu  tau(   1) = (   0.0000000   0.0000000  10.0000000  )
         2           Cu  tau(   2) = (   2.5909902   0.0000000  10.0000000  )
         3           Mo  tau(   3) = (   1.2954951   2.4555058  10.0000000  )
         4           Mo  tau(   4) = (  -1.2954951   2.4555058  10.0000000  )
         5           Cu  tau(   5) = (   2.5909902   1.3669750  12.2010473  )
         6           Cu  tau(   6) = (   0.0000000   1.3669750  12.2010473  )
         7           Mo  tau(   7) = (  -1.2954951   3.8224808  12.2010473  )
         8           Mo  tau(   8) = (   1.2954951   3.8224808  12.2010473  )
         9           Cu  tau(   9) = (  -0.0002326   2.7901238  14.4276759  )
        10           Cu  tau(  10) = (   2.5906798   2.7901052  14.4276860  )
        11           Mo  tau(  11) = (   3.8859595   0.3493817  14.3545520  )
        12           Mo  tau(  12) = (   1.2949552   0.3493888  14.3545788  )

     number of k points=    74  Fermi-Dirac smearing, width (Ry)=  0.0100
                       cart. coord. in units 2pi/alat
        k(    1) = (   0.0000000   0.0000000   0.0000000), wk =   0.0138889
        k(    2) = (   0.0000000   0.0169687   0.0000000), wk =   0.0277778
        k(    3) = (   0.0000000   0.0339373   0.0000000), wk =   0.0277778
        k(    4) = (   0.0000000   0.0509060   0.0000000), wk =   0.0277778
        k(    5) = (   0.0000000   0.0678747   0.0000000), wk =   0.0277778
        k(    6) = (   0.0000000   0.0848433   0.0000000), wk =   0.0277778
        k(    7) = (   0.0000000  -0.1018120   0.0000000), wk =   0.0138889
        k(    8) = (   0.0160814   0.0084843   0.0000000), wk =   0.0277778
        k(    9) = (   0.0160814   0.0254530   0.0000000), wk =   0.0277778
        k(   10) = (   0.0160814   0.0424217   0.0000000), wk =   0.0277778
        k(   11) = (   0.0160814   0.0593903   0.0000000), wk =   0.0277778
        k(   12) = (   0.0160814   0.0763590   0.0000000), wk =   0.0277778
        k(   13) = (   0.0160814   0.0933277   0.0000000), wk =   0.0277778
        k(   14) = (   0.0160814  -0.0933277   0.0000000), wk =   0.0277778
        k(   15) = (   0.0160814  -0.0763590   0.0000000), wk =   0.0277778
        k(   16) = (   0.0160814  -0.0593903   0.0000000), wk =   0.0277778
        k(   17) = (   0.0160814  -0.0424217   0.0000000), wk =   0.0277778
        k(   18) = (   0.0160814  -0.0254530   0.0000000), wk =   0.0277778
        k(   19) = (   0.0160814  -0.0084843   0.0000000), wk =   0.0277778
        k(   20) = (   0.0321627   0.0169687   0.0000000), wk =   0.0277778
        k(   21) = (   0.0321627   0.0339373   0.0000000), wk =   0.0277778
        k(   22) = (   0.0321627   0.0509060   0.0000000), wk =   0.0277778
        k(   23) = (   0.0321627   0.0678747   0.0000000), wk =   0.0277778
        k(   24) = (   0.0321627   0.0848433   0.0000000), wk =   0.0277778
        k(   25) = (   0.0321627   0.1018120   0.0000000), wk =   0.0277778
        k(   26) = (   0.0321627  -0.0848433   0.0000000), wk =   0.0277778
        k(   27) = (   0.0321627  -0.0678747   0.0000000), wk =   0.0277778
        k(   28) = (   0.0321627  -0.0509060   0.0000000), wk =   0.0277778
        k(   29) = (   0.0321627  -0.0339373   0.0000000), wk =   0.0277778
        k(   30) = (   0.0321627  -0.0169687   0.0000000), wk =   0.0277778
        k(   31) = (   0.0321627  -0.0000000   0.0000000), wk =   0.0277778
        k(   32) = (   0.0482441   0.0254530   0.0000000), wk =   0.0277778
        k(   33) = (   0.0482441   0.0424217   0.0000000), wk =   0.0277778
        k(   34) = (   0.0482441   0.0593903   0.0000000), wk =   0.0277778
        k(   35) = (   0.0482441   0.0763590   0.0000000), wk =   0.0277778
        k(   36) = (   0.0482441   0.0933277   0.0000000), wk =   0.0277778
        k(   37) = (   0.0482441   0.1102963   0.0000000), wk =   0.0277778
        k(   38) = (   0.0482441  -0.0763590   0.0000000), wk =   0.0277778
        k(   39) = (   0.0482441  -0.0593903   0.0000000), wk =   0.0277778
        k(   40) = (   0.0482441  -0.0424217   0.0000000), wk =   0.0277778
        k(   41) = (   0.0482441  -0.0254530   0.0000000), wk =   0.0277778
        k(   42) = (   0.0482441  -0.0084843   0.0000000), wk =   0.0277778
        k(   43) = (   0.0482441   0.0084843   0.0000000), wk =   0.0277778
        k(   44) = (   0.0643255   0.0339373   0.0000000), wk =   0.0277778
        k(   45) = (   0.0643255   0.0509060   0.0000000), wk =   0.0277778
        k(   46) = (   0.0643255   0.0678747   0.0000000), wk =   0.0277778
        k(   47) = (   0.0643255   0.0848433   0.0000000), wk =   0.0277778
        k(   48) = (   0.0643255   0.1018120   0.0000000), wk =   0.0277778
        k(   49) = (   0.0643255   0.1187807   0.0000000), wk =   0.0277778
        k(   50) = (   0.0643255  -0.0678747   0.0000000), wk =   0.0277778
        k(   51) = (   0.0643255  -0.0509060   0.0000000), wk =   0.0277778
        k(   52) = (   0.0643255  -0.0339373   0.0000000), wk =   0.0277778
        k(   53) = (   0.0643255  -0.0169687   0.0000000), wk =   0.0277778
        k(   54) = (   0.0643255   0.0000000   0.0000000), wk =   0.0277778
        k(   55) = (   0.0643255   0.0169687   0.0000000), wk =   0.0277778
        k(   56) = (   0.0804068   0.0424217   0.0000000), wk =   0.0277778
        k(   57) = (   0.0804068   0.0593903   0.0000000), wk =   0.0277778
        k(   58) = (   0.0804068   0.0763590   0.0000000), wk =   0.0277778
        k(   59) = (   0.0804068   0.0933277   0.0000000), wk =   0.0277778
        k(   60) = (   0.0804068   0.1102963   0.0000000), wk =   0.0277778
        k(   61) = (   0.0804068   0.1272650   0.0000000), wk =   0.0277778
        k(   62) = (   0.0804068  -0.0593903   0.0000000), wk =   0.0277778
        k(   63) = (   0.0804068  -0.0424217   0.0000000), wk =   0.0277778
        k(   64) = (   0.0804068  -0.0254530   0.0000000), wk =   0.0277778
        k(   65) = (   0.0804068  -0.0084843   0.0000000), wk =   0.0277778
        k(   66) = (   0.0804068   0.0084843   0.0000000), wk =   0.0277778
        k(   67) = (   0.0804068   0.0254530   0.0000000), wk =   0.0277778
        k(   68) = (  -0.0964882  -0.0509060   0.0000000), wk =   0.0138889
        k(   69) = (  -0.0964882  -0.0339373   0.0000000), wk =   0.0277778
        k(   70) = (  -0.0964882  -0.0169687   0.0000000), wk =   0.0277778
        k(   71) = (  -0.0964882   0.0000000   0.0000000), wk =   0.0277778
        k(   72) = (  -0.0964882   0.0169687   0.0000000), wk =   0.0277778
        k(   73) = (  -0.0964882   0.0339373   0.0000000), wk =   0.0277778
        k(   74) = (  -0.0964882  -0.1527180   0.0000000), wk =   0.0138889

     Initial potential from superposition of free atoms

     starting charge  149.99333, renormalised to  150.00000

     negative rho (up, down):  4.461E-04 0.000E+00

     %%%%%%%%%%%%%%%%%%%%%%%%%%%%%%%%%%%%%%%%%%%%%%%%%%%%%%%%%%%%%%%%%%%%%%%%
     %                                                                      %
     % You are using vdW-DF, which was implemented by the Thonhauser group. %
     % Please cite the following two papers that made this development      %
     % possible and the two reviews that describe the various versions:     %
     %                                                                      %
     %   T. Thonhauser et al., PRL 115, 136402 (2015).                      %
     %   T. Thonhauser et al., PRB 76, 125112 (2007).                       %
     %   K. Berland et al., Rep. Prog. Phys. 78, 066501 (2015).             %
     %   D.C. Langreth et al., J. Phys.: Condens. Matter 21, 084203 (2009). %
     %                                                                      %
     %                                                                      %
     % If you are calculating the stress with vdW-DF, please also cite:     %
     %                                                                      %
     %   R. Sabatini et al., J. Phys.: Condens. Matter 24, 424209 (2012).   %
     %                                                                      %
     %%%%%%%%%%%%%%%%%%%%%%%%%%%%%%%%%%%%%%%%%%%%%%%%%%%%%%%%%%%%%%%%%%%%%%%%

     Adding external electric field

     Computed dipole along edir(3) :
        Dipole               -0.0001 Ry au,         -0.0002 Debye
        Dipole field         -0.0000 Ry au,

        Potential amp.        0.0000 Ry
        Total length         44.9604 bohr

     Starting wfcs are  114 randomized atomic wfcs

     Self-consistent Calculation

     iteration #  1     ecut=    55.12 Ry     beta= 0.10
     Davidson diagonalization with overlap
     ethr =  1.00E-02,  avg # of iterations =  2.1

[...]

     total energy              =   -1584.37277161 Ry
     estimated scf accuracy    <       3.94951224 Ry

[...]

     total energy              =   -1584.68515840 Ry
     estimated scf accuracy    <       0.00006130 Ry

     iteration # 15     ecut=    55.12 Ry     beta= 0.10
     Davidson diagonalization with overlap
     ethr =  4.09E-08,  avg # of iterations =  3.4

[...]

     Adding external electric field

     Computed dipole along edir(3) :
        Dipole               -0.0063 Ry au,         -0.0160 Debye
        Dipole field         -0.0000 Ry au,

        Potential amp.        0.0017 Ry
        Total length         44.9604 bohr

     End of self-consistent calculation

          k = 0.0000 0.0000 0.0000 ( 29015 PWs)   bands (ev):

   -60.3364 -60.1784 -60.1473 -60.1406 -59.9863 -59.9565 -35.0311 -34.8223
   -34.7955 -34.7714 -34.6257 -34.3914 -34.2883 -34.2182 -34.2148 -34.2026
   -34.1176 -34.0421 -34.0299 -33.7897 -33.6444 -33.6020 -33.3897 -33.3786
    -6.3382  -4.6548  -4.3103  -4.2969  -4.0858  -3.6859  -3.4441  -3.3408
    -3.2782  -3.2696  -3.2469  -3.1378  -3.0466  -2.9755  -2.8196  -2.4132
    -2.3335  -2.2848  -2.2650  -2.2310  -1.9445  -1.8942  -1.8862  -1.8517
    -1.8290  -1.7555  -1.7050  -1.5590  -1.5090  -1.4651  -1.4496  -1.4349
    -1.2283  -1.1703  -0.9911  -0.9605  -0.9022  -0.7152  -0.7017  -0.6232
    -0.4581  -0.4421  -0.0666   0.1284   0.4213   0.5183   0.6052   0.6290
     0.6602   1.4937   1.5104   1.5691   1.6564   2.2187   2.2739   2.3651
     2.4333   2.5676   2.8918   3.1130   3.1870   3.3189   3.3611   3.3793
     3.6037   3.6793

[...]

          k = 0.0804 0.0255 0.0000 ( 28915 PWs)   bands (ev):

[...]

          k =-0.0965-0.0509 0.0000 ( 28930 PWs)   bands (ev):

[...]

          k =-0.0965-0.1527 0.0000 ( 28930 PWs)   bands (ev):

   -60.2395 -60.2394 -60.0835 -60.0831 -60.0528 -60.0525 -34.7258 -34.7257
   -34.3434 -34.3434 -34.3069 -34.3068 -34.2024 -34.2021 -34.1302 -34.1298
   -34.1181 -34.1181 -34.1166 -34.1165 -34.0996 -34.0993 -33.7175 -33.7173
    -4.6410  -4.6410  -3.4457  -3.4456  -3.2962  -3.2962  -2.9180  -2.9179
    -2.8659  -2.8659  -2.7253  -2.7253  -2.5257  -2.5257  -2.4895  -2.4895
    -2.3093  -2.3092  -2.0789  -2.0789  -2.0400  -2.0400  -1.8775  -1.8774
    -1.8570  -1.8569  -1.8108  -1.8108  -1.7714  -1.7714  -1.6680  -1.6680
    -1.5612  -1.5612  -1.2772  -1.2772  -0.9774  -0.9773  -0.7478  -0.7478
    -0.3316  -0.3315  -0.0302  -0.0301   0.3802   0.3803   0.4911   0.4912
     0.7326   0.7326   0.8105   0.8108   0.8939   0.8940   1.0986   1.0987
     1.2521   1.2521   2.1273   2.1273   2.4821   2.4822   2.7344   2.7345
     3.5949   3.5950

     the Fermi energy is     0.9613 ev

!    total energy              =   -1584.68516933 Ry
     estimated scf accuracy    <       0.00000613 Ry
     smearing contrib. (-TS)   =      -0.05713508 Ry
     internal energy E=F+TS    =   -1584.62803425 Ry

     The total energy is F=E-TS. E is the sum of the following terms:
     one-electron contribution =  -13397.36636428 Ry
     hartree contribution      =    6765.18285646 Ry
     xc contribution           =    -396.15107991 Ry
     ewald contribution        =    5443.70655335 Ry
     electric field correction =       0.00000012 Ry

     convergence has been achieved in  15 iterations

     negative rho (up, down):  5.003E-04 0.000E+00

     Forces acting on atoms (cartesian axes, Ry/au):

     atom    1 type  1   force =     0.00001044   -0.00002316   -0.00439552
     atom    2 type  1   force =    -0.00001099   -0.00003630   -0.00438646
     atom    3 type  2   force =    -0.00001601   -0.00370229    0.00947086
     atom    4 type  2   force =    -0.00001943   -0.00371714    0.00944130
     atom    5 type  1   force =     0.00000335    0.00493875   -0.00482924
     atom    6 type  1   force =    -0.00004646    0.00493486   -0.00483538
     atom    7 type  2   force =     0.00003828   -0.00221379   -0.00080977
     atom    8 type  2   force =     0.00003310   -0.00222979   -0.00083425
     atom    9 type  1   force =    -0.00003376    0.00087379    0.00038932
     atom   10 type  1   force =     0.00002296    0.00087170    0.00038637
     atom   11 type  2   force =     0.00001310    0.00015273    0.00020701
     atom   12 type  2   force =     0.00000542    0.00015064    0.00019577

     Total force =     0.018803     Total SCF correction =     0.007389
     SCF correction compared to forces is large: reduce conv_thr to get better values

     Writing output data file ./Cu2Mo2/Cu2Mo2_beef.save/

     General routines

     Parallel routines

   This run was terminated on:   0:23:34  11Jul2022

   JOB DONE.