     Program PWSCF v.6.6 starts on 11Jul2022 at  0:23:37

     R & G space division:  proc/nbgrp/npool/nimage =      37
     Fft bands division:     nmany     =       1
     Reading input from Cu2Nb2.in
Warning: card &CELL ignored
Warning: card / ignored

     Current dimensions of program PWSCF are:
     Max number of different atomic species (ntypx) = 10
     Max number of k-points (npk) =  40000
     Max angular momentum in pseudopotentials (lmaxx) =  3
     Presently stress not available with electric field and gates

     Message from routine cell_base_init:
     DEPRECATED: use true lattice parameter, not A to a.u. conversion factor
     file Cu.pbe-dn-rrkjus_psl.1.0.0.UPF: wavefunction(s)  3D renormalized
     file Nb.pbe-spn-rrkjus_psl.1.0.0.UPF: wavefunction(s)  4S 4P renormalized

     IMPORTANT: XC functional enforced from input :
     Exchange-correlation= BEEF-VDW
                           (   1   4  43  14   2   0   0)
     Any further DFT definition will be discarded
     Please, verify this is what you really want

     Subspace diagonalization in iterative solution of the eigenvalue problem:
     a serial algorithm will be used

     Found symmetry operation: I + ( -0.5000  0.0000  0.0000)
     This is a supercell, fractional translations are disabled

     bravais-lattice index     =            0
     lattice parameter (alat)  =       1.8897  a.u.
     unit-cell volume          =    4438.7560 (a.u.)^3
     number of atoms/cell      =           12
     number of atomic types    =            2
     number of electrons       =       144.00
     number of Kohn-Sham states=           86
     kinetic-energy cutoff     =      55.1240  Ry
     charge density cutoff     =     551.2396  Ry
     convergence threshold     =      1.0E-05
     mixing beta               =       0.1000
     number of iterations used =           10  plain     mixing
     Exchange-correlation= BEEF-VDW
                           (   1   4  43  14   2   0   0)

     celldm(1)=   1.889726  celldm(2)=   0.000000  celldm(3)=   0.000000
     celldm(4)=   0.000000  celldm(5)=   0.000000  celldm(6)=   0.000000

     crystal axes: (cart. coord. in units of alat)
               a(1) = (   5.551549   0.000000   0.000000 )
               a(2) = (  -2.775775   4.827678   0.000000 )
               a(3) = (   0.000000   0.000000  24.542132 )

     reciprocal axes: (cart. coord. in units 2 pi/alat)
               b(1) = (  0.180130  0.103569 -0.000000 )
               b(2) = (  0.000000  0.207139  0.000000 )
               b(3) = (  0.000000 -0.000000  0.040746 )

     PseudoPot. # 1 for Cu read from file:
     ../pseudo/Cu.pbe-dn-rrkjus_psl.1.0.0.UPF
     MD5 check sum: 8469560995d0c2df1ffe68c099c04a63
     Pseudo is Ultrasoft + core correction, Zval = 11.0
     Generated using "atomic" code by A. Dal Corso v.6.3
     Using radial grid of 1199 points,  6 beta functions with:
                l(1) =   0
                l(2) =   0
                l(3) =   1
                l(4) =   1
                l(5) =   2
                l(6) =   2
     Q(r) pseudized with 0 coefficients

     PseudoPot. # 2 for Nb read from file:
     ../pseudo/Nb.pbe-spn-rrkjus_psl.1.0.0.UPF
     MD5 check sum: 6ee677a9f002bd3e3657f443f129faad
     Pseudo is Ultrasoft + core correction, Zval = 13.0
     Generated using "atomic" code by A. Dal Corso v.6.2.2
     Using radial grid of 1227 points,  6 beta functions with:
                l(1) =   0
                l(2) =   0
                l(3) =   1
                l(4) =   1
                l(5) =   2
                l(6) =   2
     Q(r) pseudized with 0 coefficients

     atomic species   valence    mass     pseudopotential
        Cu            11.00    63.54600     Cu( 1.00)
        Nb            13.00    92.90637     Nb( 1.00)

     No symmetry found

   Cartesian axes

     site n.     atom                  positions (alat units)
         1           Cu  tau(   1) = (   0.0000000   0.0000000  10.0000000  )
         2           Cu  tau(   2) = (   2.7757745   0.0000000  10.0000000  )
         3           Nb  tau(   3) = (   1.3878873   2.4138388  10.0000000  )
         4           Nb  tau(   4) = (  -1.3878873   2.4138388  10.0000000  )
         5           Cu  tau(   5) = (   2.7757745   1.5959898  12.2710660  )
         6           Cu  tau(   6) = (   0.0000000   1.5959898  12.2710660  )
         7           Nb  tau(   7) = (  -1.3878873   4.0098286  12.2710660  )
         8           Nb  tau(   8) = (   1.3878873   4.0098286  12.2710660  )
         9           Cu  tau(   9) = (  -0.0000102   3.1777768  14.5354038  )
        10           Cu  tau(  10) = (   2.7757904   3.1777647  14.5353980  )
        11           Nb  tau(  11) = (   4.1636597   0.7803715  14.4498051  )
        12           Nb  tau(  12) = (   1.3878871   0.7803816  14.4498034  )

     number of k points=    74  Fermi-Dirac smearing, width (Ry)=  0.0100
                       cart. coord. in units 2pi/alat
        k(    1) = (   0.0000000   0.0000000   0.0000000), wk =   0.0138889
        k(    2) = (   0.0000000   0.0172616   0.0000000), wk =   0.0277778
        k(    3) = (   0.0000000   0.0345232   0.0000000), wk =   0.0277778
        k(    4) = (   0.0000000   0.0517847   0.0000000), wk =   0.0277778
        k(    5) = (   0.0000000   0.0690463   0.0000000), wk =   0.0277778
        k(    6) = (   0.0000000   0.0863079   0.0000000), wk =   0.0277778
        k(    7) = (   0.0000000  -0.1035695   0.0000000), wk =   0.0138889
        k(    8) = (   0.0150108   0.0086308   0.0000000), wk =   0.0277778
        k(    9) = (   0.0150108   0.0258924   0.0000000), wk =   0.0277778
        k(   10) = (   0.0150108   0.0431539   0.0000000), wk =   0.0277778
        k(   11) = (   0.0150108   0.0604155   0.0000000), wk =   0.0277778
        k(   12) = (   0.0150108   0.0776771   0.0000000), wk =   0.0277778
        k(   13) = (   0.0150108   0.0949387   0.0000000), wk =   0.0277778
        k(   14) = (   0.0150108  -0.0949387   0.0000000), wk =   0.0277778
        k(   15) = (   0.0150108  -0.0776771   0.0000000), wk =   0.0277778
        k(   16) = (   0.0150108  -0.0604155   0.0000000), wk =   0.0277778
        k(   17) = (   0.0150108  -0.0431539   0.0000000), wk =   0.0277778
        k(   18) = (   0.0150108  -0.0258924   0.0000000), wk =   0.0277778
        k(   19) = (   0.0150108  -0.0086308   0.0000000), wk =   0.0277778
        k(   20) = (   0.0300217   0.0172616   0.0000000), wk =   0.0277778
        k(   21) = (   0.0300217   0.0345232   0.0000000), wk =   0.0277778
        k(   22) = (   0.0300217   0.0517847   0.0000000), wk =   0.0277778
        k(   23) = (   0.0300217   0.0690463   0.0000000), wk =   0.0277778
        k(   24) = (   0.0300217   0.0863079   0.0000000), wk =   0.0277778
        k(   25) = (   0.0300217   0.1035695   0.0000000), wk =   0.0277778
        k(   26) = (   0.0300217  -0.0863079   0.0000000), wk =   0.0277778
        k(   27) = (   0.0300217  -0.0690463   0.0000000), wk =   0.0277778
        k(   28) = (   0.0300217  -0.0517847   0.0000000), wk =   0.0277778
        k(   29) = (   0.0300217  -0.0345231   0.0000000), wk =   0.0277778
        k(   30) = (   0.0300217  -0.0172616   0.0000000), wk =   0.0277778
        k(   31) = (   0.0300217   0.0000000   0.0000000), wk =   0.0277778
        k(   32) = (   0.0450325   0.0258924   0.0000000), wk =   0.0277778
        k(   33) = (   0.0450325   0.0431539   0.0000000), wk =   0.0277778
        k(   34) = (   0.0450325   0.0604155   0.0000000), wk =   0.0277778
        k(   35) = (   0.0450325   0.0776771   0.0000000), wk =   0.0277778
        k(   36) = (   0.0450325   0.0949387   0.0000000), wk =   0.0277778
        k(   37) = (   0.0450325   0.1122003   0.0000000), wk =   0.0277778
        k(   38) = (   0.0450325  -0.0776771   0.0000000), wk =   0.0277778
        k(   39) = (   0.0450325  -0.0604155   0.0000000), wk =   0.0277778
        k(   40) = (   0.0450325  -0.0431539   0.0000000), wk =   0.0277778
        k(   41) = (   0.0450325  -0.0258924   0.0000000), wk =   0.0277778
        k(   42) = (   0.0450325  -0.0086308   0.0000000), wk =   0.0277778
        k(   43) = (   0.0450325   0.0086308   0.0000000), wk =   0.0277778
        k(   44) = (   0.0600433   0.0345232   0.0000000), wk =   0.0277778
        k(   45) = (   0.0600433   0.0517847   0.0000000), wk =   0.0277778
        k(   46) = (   0.0600433   0.0690463   0.0000000), wk =   0.0277778
        k(   47) = (   0.0600433   0.0863079   0.0000000), wk =   0.0277778
        k(   48) = (   0.0600433   0.1035695   0.0000000), wk =   0.0277778
        k(   49) = (   0.0600433   0.1208310   0.0000000), wk =   0.0277778
        k(   50) = (   0.0600433  -0.0690463   0.0000000), wk =   0.0277778
        k(   51) = (   0.0600433  -0.0517847   0.0000000), wk =   0.0277778
        k(   52) = (   0.0600433  -0.0345231   0.0000000), wk =   0.0277778
        k(   53) = (   0.0600433  -0.0172616   0.0000000), wk =   0.0277778
        k(   54) = (   0.0600433   0.0000000   0.0000000), wk =   0.0277778
        k(   55) = (   0.0600433   0.0172616   0.0000000), wk =   0.0277778
        k(   56) = (   0.0750541   0.0431539   0.0000000), wk =   0.0277778
        k(   57) = (   0.0750541   0.0604155   0.0000000), wk =   0.0277778
        k(   58) = (   0.0750541   0.0776771   0.0000000), wk =   0.0277778
        k(   59) = (   0.0750541   0.0949387   0.0000000), wk =   0.0277778
        k(   60) = (   0.0750541   0.1122003   0.0000000), wk =   0.0277778
        k(   61) = (   0.0750541   0.1294618   0.0000000), wk =   0.0277778
        k(   62) = (   0.0750541  -0.0604155   0.0000000), wk =   0.0277778
        k(   63) = (   0.0750541  -0.0431539   0.0000000), wk =   0.0277778
        k(   64) = (   0.0750541  -0.0258924   0.0000000), wk =   0.0277778
        k(   65) = (   0.0750541  -0.0086308   0.0000000), wk =   0.0277778
        k(   66) = (   0.0750541   0.0086308   0.0000000), wk =   0.0277778
        k(   67) = (   0.0750541   0.0258924   0.0000000), wk =   0.0277778
        k(   68) = (  -0.0900650  -0.0517847   0.0000000), wk =   0.0138889
        k(   69) = (  -0.0900650  -0.0345232   0.0000000), wk =   0.0277778
        k(   70) = (  -0.0900650  -0.0172616   0.0000000), wk =   0.0277778
        k(   71) = (  -0.0900650  -0.0000000   0.0000000), wk =   0.0277778
        k(   72) = (  -0.0900650   0.0172616   0.0000000), wk =   0.0277778
        k(   73) = (  -0.0900650   0.0345231   0.0000000), wk =   0.0277778
        k(   74) = (  -0.0900650  -0.1553542   0.0000000), wk =   0.0138889

     Initial potential from superposition of free atoms

     starting charge  143.99076, renormalised to  144.00000

     negative rho (up, down):  8.473E-04 0.000E+00

     %%%%%%%%%%%%%%%%%%%%%%%%%%%%%%%%%%%%%%%%%%%%%%%%%%%%%%%%%%%%%%%%%%%%%%%%
     %                                                                      %
     % You are using vdW-DF, which was implemented by the Thonhauser group. %
     % Please cite the following two papers that made this development      %
     % possible and the two reviews that describe the various versions:     %
     %                                                                      %
     %   T. Thonhauser et al., PRL 115, 136402 (2015).                      %
     %   T. Thonhauser et al., PRB 76, 125112 (2007).                       %
     %   K. Berland et al., Rep. Prog. Phys. 78, 066501 (2015).             %
     %   D.C. Langreth et al., J. Phys.: Condens. Matter 21, 084203 (2009). %
     %                                                                      %
     %                                                                      %
     % If you are calculating the stress with vdW-DF, please also cite:     %
     %                                                                      %
     %   R. Sabatini et al., J. Phys.: Condens. Matter 24, 424209 (2012).   %
     %                                                                      %
     %%%%%%%%%%%%%%%%%%%%%%%%%%%%%%%%%%%%%%%%%%%%%%%%%%%%%%%%%%%%%%%%%%%%%%%%

     Adding external electric field

     Computed dipole along edir(3) :
        Dipole               -0.0002 Ry au,         -0.0004 Debye
        Dipole field         -0.0000 Ry au,

        Potential amp.        0.0000 Ry
        Total length         45.2185 bohr

     Starting wfcs are  132 randomized atomic wfcs

     Self-consistent Calculation

     iteration #  1     ecut=    55.12 Ry     beta= 0.10
     Davidson diagonalization with overlap
     ethr =  1.00E-02,  avg # of iterations =  2.0

[...]

     total energy              =   -1455.58721645 Ry
     estimated scf accuracy    <       3.31412570 Ry

[...]

     iteration #  8     ecut=    55.12 Ry     beta= 0.10
     Davidson diagonalization with overlap
     c_bands:  1 eigenvalues not converged
     ethr =  9.53E-06,  avg # of iterations =  5.1

[...]

     iteration # 12     ecut=    55.12 Ry     beta= 0.10
     Davidson diagonalization with overlap
     c_bands:  1 eigenvalues not converged
     ethr =  1.40E-07,  avg # of iterations =  5.3

[...]

     total energy              =   -1455.78594705 Ry
     estimated scf accuracy    <       0.00004661 Ry

     iteration # 14     ecut=    55.12 Ry     beta= 0.10
     Davidson diagonalization with overlap
     ethr =  3.24E-08,  avg # of iterations =  5.5

[...]

     Adding external electric field

     Computed dipole along edir(3) :
        Dipole               -0.0003 Ry au,         -0.0007 Debye
        Dipole field         -0.0000 Ry au,

        Potential amp.        0.0001 Ry
        Total length         45.2185 bohr

     End of self-consistent calculation

          k = 0.0000 0.0000 0.0000 ( 30733 PWs)   bands (ev):

   -54.2581 -54.1972 -54.1188 -54.0568 -53.9847 -53.8444 -30.6930 -30.6517
   -30.5997 -30.5365 -30.4463 -30.3430 -30.2963 -30.2562 -30.2107 -30.1671
   -30.1225 -30.0896 -29.9369 -29.6403 -29.5635 -29.5242 -29.5221 -29.4211
    -5.9118  -4.4066  -3.9381  -3.7992  -3.6810  -3.3272  -3.2070  -3.0890
    -3.0706  -3.0357  -3.0109  -2.9260  -2.9046  -2.7748  -2.7692  -2.2770
    -2.2770  -2.1864  -2.1793  -2.1596  -2.0433  -2.0112  -1.9718  -1.9465
    -1.9129  -1.8824  -1.7715  -1.7621  -1.7220  -1.4980  -1.4537  -1.2559
    -1.0647  -0.7010  -0.6695  -0.6225  -0.4990  -0.4609  -0.3622  -0.2069
     0.1645   0.2420   0.3820   0.4145   0.8096   0.8593   1.1681   1.2570
     1.3484   1.6861   2.1313   2.1912   2.3176   2.3790   2.5033   2.9485
     2.9930   3.0681   3.2557   3.2807   3.8383   3.9383

[...]

          k = 0.0751 0.0259 0.0000 ( 30638 PWs)   bands (ev):

[...]

          k =-0.0901-0.0518 0.0000 ( 30656 PWs)   bands (ev):

[...]

          k =-0.0901-0.1554 0.0000 ( 30656 PWs)   bands (ev):

   -54.1888 -54.1888 -54.1274 -54.1274 -53.9150 -53.9150 -30.5252 -30.5252
   -30.2784 -30.2784 -30.2335 -30.2335 -30.1924 -30.1924 -30.1468 -30.1468
   -30.1076 -30.1076 -30.0136 -30.0136 -29.9971 -29.9971 -29.5816 -29.5816
    -4.3104  -4.3103  -3.2276  -3.2276  -2.9787  -2.9787  -2.7740  -2.7740
    -2.6905  -2.6905  -2.5619  -2.5619  -2.4475  -2.4475  -2.4196  -2.4196
    -2.2588  -2.2588  -2.1252  -2.1252  -2.0544  -2.0544  -1.9769  -1.9769
    -1.9563  -1.9563  -1.9286  -1.9286  -1.9012  -1.9012  -1.8082  -1.8082
    -1.7352  -1.7352  -0.9702  -0.9702  -0.5976  -0.5976  -0.2539  -0.2539
     0.3173   0.3173   0.3971   0.3971   0.8713   0.8713   0.9501   0.9502
     1.2976   1.2976   1.4218   1.4218   1.5498   1.5498   1.7627   1.7627
     2.1472   2.1472   2.9187   2.9187   3.2447   3.2447

     the Fermi energy is     1.0326 ev

!    total energy              =   -1455.78595249 Ry
     estimated scf accuracy    <       0.00000526 Ry
     smearing contrib. (-TS)   =      -0.05156118 Ry
     internal energy E=F+TS    =   -1455.73439130 Ry

     The total energy is F=E-TS. E is the sum of the following terms:
     one-electron contribution =  -11667.87793696 Ry
     hartree contribution      =    5901.14428169 Ry
     xc contribution           =    -390.37792218 Ry
     ewald contribution        =    4701.37718615 Ry
     electric field correction =       0.00000000 Ry

     convergence has been achieved in  14 iterations

     negative rho (up, down):  8.613E-04 0.000E+00

     Forces acting on atoms (cartesian axes, Ry/au):

     atom    1 type  1   force =    -0.00000941    0.00325421   -0.00119297
     atom    2 type  1   force =     0.00000784    0.00325191   -0.00120781
     atom    3 type  2   force =    -0.00000017   -0.00022870    0.01906277
     atom    4 type  2   force =     0.00000268   -0.00022162    0.01906126
     atom    5 type  1   force =    -0.00000361    0.00267476   -0.00909225
     atom    6 type  1   force =    -0.00000141    0.00267502   -0.00908391
     atom    7 type  2   force =     0.00000088   -0.00574638   -0.00938380
     atom    8 type  2   force =    -0.00000108   -0.00574738   -0.00937782
     atom    9 type  1   force =     0.00000487    0.00038999    0.00048160
     atom   10 type  1   force =    -0.00000170    0.00040017    0.00048606
     atom   11 type  2   force =    -0.00000498   -0.00035049    0.00012394
     atom   12 type  2   force =     0.00000610   -0.00035150    0.00012292

     Total force =     0.034256     Total SCF correction =     0.010003
     SCF correction compared to forces is large: reduce conv_thr to get better values

     Writing output data file ./Cu2Nb2/Cu2Nb2_beef.save/

     General routines

     Parallel routines

   This run was terminated on:   1: 8:34  11Jul2022

   JOB DONE.