     Program PWSCF v.6.6 starts on 11Jul2022 at  1: 8:36

     R & G space division:  proc/nbgrp/npool/nimage =      37
     Fft bands division:     nmany     =       1
     Reading input from Cu2Os2.in
Warning: card &CELL ignored
Warning: card / ignored

     Current dimensions of program PWSCF are:
     Max number of different atomic species (ntypx) = 10
     Max number of k-points (npk) =  40000
     Max angular momentum in pseudopotentials (lmaxx) =  3
     Presently stress not available with electric field and gates

     Message from routine cell_base_init:
     DEPRECATED: use true lattice parameter, not A to a.u. conversion factor
     file Cu.pbe-dn-rrkjus_psl.1.0.0.UPF: wavefunction(s)  3D renormalized

     IMPORTANT: XC functional enforced from input :
     Exchange-correlation= BEEF-VDW
                           (   1   4  43  14   2   0   0)
     Any further DFT definition will be discarded
     Please, verify this is what you really want

     Subspace diagonalization in iterative solution of the eigenvalue problem:
     a serial algorithm will be used

     Found symmetry operation: I + ( -0.5000  0.0000  0.0000)
     This is a supercell, fractional translations are disabled

     bravais-lattice index     =            0
     lattice parameter (alat)  =       1.8897  a.u.
     unit-cell volume          =    4087.2382 (a.u.)^3
     number of atoms/cell      =           12
     number of atomic types    =            2
     number of electrons       =       162.00
     number of Kohn-Sham states=           97
     kinetic-energy cutoff     =      55.1240  Ry
     charge density cutoff     =     551.2396  Ry
     convergence threshold     =      1.0E-05
     mixing beta               =       0.1000
     number of iterations used =           10  plain     mixing
     Exchange-correlation= BEEF-VDW
                           (   1   4  43  14   2   0   0)

     celldm(1)=   1.889726  celldm(2)=   0.000000  celldm(3)=   0.000000
     celldm(4)=   0.000000  celldm(5)=   0.000000  celldm(6)=   0.000000

     crystal axes: (cart. coord. in units of alat)
               a(1) = (   5.235704   0.000000   0.000000 )
               a(2) = (  -2.617852   4.747271   0.000000 )
               a(3) = (   0.000000   0.000000  24.367688 )

     reciprocal axes: (cart. coord. in units 2 pi/alat)
               b(1) = (  0.190996  0.105324 -0.000000 )
               b(2) = (  0.000000  0.210647  0.000000 )
               b(3) = (  0.000000 -0.000000  0.041038 )

     PseudoPot. # 1 for Cu read from file:
     ../pseudo/Cu.pbe-dn-rrkjus_psl.1.0.0.UPF
     MD5 check sum: 8469560995d0c2df1ffe68c099c04a63
     Pseudo is Ultrasoft + core correction, Zval = 11.0
     Generated using "atomic" code by A. Dal Corso v.6.3
     Using radial grid of 1199 points,  6 beta functions with:
                l(1) =   0
                l(2) =   0
                l(3) =   1
                l(4) =   1
                l(5) =   2
                l(6) =   2
     Q(r) pseudized with 0 coefficients

     PseudoPot. # 2 for Os read from file:
     ../pseudo/Os.pbe-spn-rrkjus_psl.1.0.0.UPF
     MD5 check sum: 3e7416ed594f6513d36e5cb31ba709d9
     Pseudo is Ultrasoft + core correction, Zval = 16.0
     Generated using "atomic" code by A. Dal Corso v.6.2.2
     Using radial grid of 1275 points,  6 beta functions with:
                l(1) =   0
                l(2) =   0
                l(3) =   1
                l(4) =   1
                l(5) =   2
                l(6) =   2
     Q(r) pseudized with 0 coefficients

     atomic species   valence    mass     pseudopotential
        Cu            11.00    63.54600     Cu( 1.00)
        Os            16.00   190.23000     Os( 1.00)

     No symmetry found

   Cartesian axes

     site n.     atom                  positions (alat units)
         1           Cu  tau(   1) = (   0.0000000   0.0000000  10.0000000  )
         2           Cu  tau(   2) = (   2.6178521   0.0000000  10.0000000  )
         3           Os  tau(   3) = (   1.3089261   2.3736356  10.0000000  )
         4           Os  tau(   4) = (  -1.3089261   2.3736356  10.0000000  )
         5           Cu  tau(   5) = (   2.6178521   1.4435977  12.1838442  )
         6           Cu  tau(   6) = (   0.0000000   1.4435977  12.1838442  )
         7           Os  tau(   7) = (  -1.3089261   3.8172333  12.1838442  )
         8           Os  tau(   8) = (   1.3089261   3.8172333  12.1838442  )
         9           Cu  tau(   9) = (  -0.0000040   2.5856241  14.4334958  )
        10           Cu  tau(  10) = (   2.6178581   2.5856221  14.4334931  )
        11           Os  tau(  11) = (   3.9267772   0.1958567  14.2961308  )
        12           Os  tau(  12) = (   1.3089274   0.1958593  14.2961290  )

     number of k points=    74  Fermi-Dirac smearing, width (Ry)=  0.0100
                       cart. coord. in units 2pi/alat
        k(    1) = (   0.0000000   0.0000000   0.0000000), wk =   0.0138889
        k(    2) = (   0.0000000   0.0175539   0.0000000), wk =   0.0277778
        k(    3) = (   0.0000000   0.0351079   0.0000000), wk =   0.0277778
        k(    4) = (   0.0000000   0.0526618   0.0000000), wk =   0.0277778
        k(    5) = (   0.0000000   0.0702158   0.0000000), wk =   0.0277778
        k(    6) = (   0.0000000   0.0877697   0.0000000), wk =   0.0277778
        k(    7) = (   0.0000000  -0.1053237   0.0000000), wk =   0.0138889
        k(    8) = (   0.0159164   0.0087770   0.0000000), wk =   0.0277778
        k(    9) = (   0.0159164   0.0263309   0.0000000), wk =   0.0277778
        k(   10) = (   0.0159164   0.0438849   0.0000000), wk =   0.0277778
        k(   11) = (   0.0159164   0.0614388   0.0000000), wk =   0.0277778
        k(   12) = (   0.0159164   0.0789928   0.0000000), wk =   0.0277778
        k(   13) = (   0.0159164   0.0965467   0.0000000), wk =   0.0277778
        k(   14) = (   0.0159164  -0.0965467   0.0000000), wk =   0.0277778
        k(   15) = (   0.0159164  -0.0789928   0.0000000), wk =   0.0277778
        k(   16) = (   0.0159164  -0.0614388   0.0000000), wk =   0.0277778
        k(   17) = (   0.0159164  -0.0438849   0.0000000), wk =   0.0277778
        k(   18) = (   0.0159164  -0.0263309   0.0000000), wk =   0.0277778
        k(   19) = (   0.0159164  -0.0087770   0.0000000), wk =   0.0277778
        k(   20) = (   0.0318327   0.0175539   0.0000000), wk =   0.0277778
        k(   21) = (   0.0318327   0.0351079   0.0000000), wk =   0.0277778
        k(   22) = (   0.0318327   0.0526618   0.0000000), wk =   0.0277778
        k(   23) = (   0.0318327   0.0702158   0.0000000), wk =   0.0277778
        k(   24) = (   0.0318327   0.0877697   0.0000000), wk =   0.0277778
        k(   25) = (   0.0318327   0.1053237   0.0000000), wk =   0.0277778
        k(   26) = (   0.0318327  -0.0877697   0.0000000), wk =   0.0277778
        k(   27) = (   0.0318327  -0.0702158   0.0000000), wk =   0.0277778
        k(   28) = (   0.0318327  -0.0526618   0.0000000), wk =   0.0277778
        k(   29) = (   0.0318327  -0.0351079   0.0000000), wk =   0.0277778
        k(   30) = (   0.0318327  -0.0175539   0.0000000), wk =   0.0277778
        k(   31) = (   0.0318327  -0.0000000   0.0000000), wk =   0.0277778
        k(   32) = (   0.0477491   0.0263309   0.0000000), wk =   0.0277778
        k(   33) = (   0.0477491   0.0438849   0.0000000), wk =   0.0277778
        k(   34) = (   0.0477491   0.0614388   0.0000000), wk =   0.0277778
        k(   35) = (   0.0477491   0.0789928   0.0000000), wk =   0.0277778
        k(   36) = (   0.0477491   0.0965467   0.0000000), wk =   0.0277778
        k(   37) = (   0.0477491   0.1141006   0.0000000), wk =   0.0277778
        k(   38) = (   0.0477491  -0.0789928   0.0000000), wk =   0.0277778
        k(   39) = (   0.0477491  -0.0614388   0.0000000), wk =   0.0277778
        k(   40) = (   0.0477491  -0.0438849   0.0000000), wk =   0.0277778
        k(   41) = (   0.0477491  -0.0263309   0.0000000), wk =   0.0277778
        k(   42) = (   0.0477491  -0.0087770   0.0000000), wk =   0.0277778
        k(   43) = (   0.0477491   0.0087770   0.0000000), wk =   0.0277778
        k(   44) = (   0.0636654   0.0351079   0.0000000), wk =   0.0277778
        k(   45) = (   0.0636654   0.0526618   0.0000000), wk =   0.0277778
        k(   46) = (   0.0636654   0.0702158   0.0000000), wk =   0.0277778
        k(   47) = (   0.0636654   0.0877697   0.0000000), wk =   0.0277778
        k(   48) = (   0.0636654   0.1053237   0.0000000), wk =   0.0277778
        k(   49) = (   0.0636654   0.1228776   0.0000000), wk =   0.0277778
        k(   50) = (   0.0636654  -0.0702158   0.0000000), wk =   0.0277778
        k(   51) = (   0.0636654  -0.0526618   0.0000000), wk =   0.0277778
        k(   52) = (   0.0636654  -0.0351079   0.0000000), wk =   0.0277778
        k(   53) = (   0.0636654  -0.0175539   0.0000000), wk =   0.0277778
        k(   54) = (   0.0636654   0.0000000   0.0000000), wk =   0.0277778
        k(   55) = (   0.0636654   0.0175539   0.0000000), wk =   0.0277778
        k(   56) = (   0.0795818   0.0438849   0.0000000), wk =   0.0277778
        k(   57) = (   0.0795818   0.0614388   0.0000000), wk =   0.0277778
        k(   58) = (   0.0795818   0.0789928   0.0000000), wk =   0.0277778
        k(   59) = (   0.0795818   0.0965467   0.0000000), wk =   0.0277778
        k(   60) = (   0.0795818   0.1141006   0.0000000), wk =   0.0277778
        k(   61) = (   0.0795818   0.1316546   0.0000000), wk =   0.0277778
        k(   62) = (   0.0795818  -0.0614388   0.0000000), wk =   0.0277778
        k(   63) = (   0.0795818  -0.0438849   0.0000000), wk =   0.0277778
        k(   64) = (   0.0795818  -0.0263309   0.0000000), wk =   0.0277778
        k(   65) = (   0.0795818  -0.0087770   0.0000000), wk =   0.0277778
        k(   66) = (   0.0795818   0.0087770   0.0000000), wk =   0.0277778
        k(   67) = (   0.0795818   0.0263309   0.0000000), wk =   0.0277778
        k(   68) = (  -0.0954981  -0.0526618   0.0000000), wk =   0.0138889
        k(   69) = (  -0.0954981  -0.0351079   0.0000000), wk =   0.0277778
        k(   70) = (  -0.0954981  -0.0175539   0.0000000), wk =   0.0277778
        k(   71) = (  -0.0954981   0.0000000   0.0000000), wk =   0.0277778
        k(   72) = (  -0.0954981   0.0175539   0.0000000), wk =   0.0277778
        k(   73) = (  -0.0954981   0.0351079   0.0000000), wk =   0.0277778
        k(   74) = (  -0.0954981  -0.1579855   0.0000000), wk =   0.0138889

     Initial potential from superposition of free atoms

     starting charge  161.99716, renormalised to  162.00000

     negative rho (up, down):  4.052E-04 0.000E+00

     %%%%%%%%%%%%%%%%%%%%%%%%%%%%%%%%%%%%%%%%%%%%%%%%%%%%%%%%%%%%%%%%%%%%%%%%
     %                                                                      %
     % You are using vdW-DF, which was implemented by the Thonhauser group. %
     % Please cite the following two papers that made this development      %
     % possible and the two reviews that describe the various versions:     %
     %                                                                      %
     %   T. Thonhauser et al., PRL 115, 136402 (2015).                      %
     %   T. Thonhauser et al., PRB 76, 125112 (2007).                       %
     %   K. Berland et al., Rep. Prog. Phys. 78, 066501 (2015).             %
     %   D.C. Langreth et al., J. Phys.: Condens. Matter 21, 084203 (2009). %
     %                                                                      %
     %                                                                      %
     % If you are calculating the stress with vdW-DF, please also cite:     %
     %                                                                      %
     %   R. Sabatini et al., J. Phys.: Condens. Matter 24, 424209 (2012).   %
     %                                                                      %
     %%%%%%%%%%%%%%%%%%%%%%%%%%%%%%%%%%%%%%%%%%%%%%%%%%%%%%%%%%%%%%%%%%%%%%%%

     Adding external electric field

     Computed dipole along edir(3) :
        Dipole                0.0000 Ry au,          0.0000 Debye
        Dipole field          0.0000 Ry au,

        Potential amp.       -0.0000 Ry
        Total length         44.8970 bohr

     Starting wfcs are  114 randomized atomic wfcs

     Self-consistent Calculation

     iteration #  1     ecut=    55.12 Ry     beta= 0.10
     Davidson diagonalization with overlap
     ethr =  1.00E-02,  avg # of iterations =  3.9

     Threshold (ethr) on eigenvalues was too large:
     Diagonalizing with lowered threshold

     Davidson diagonalization with overlap
     ethr =  6.58E-04,  avg # of iterations =  2.6

[...]

     total energy              =   -1947.39805470 Ry
     estimated scf accuracy    <       1.21960036 Ry

[...]

     iteration #  8     ecut=    55.12 Ry     beta= 0.10
     Davidson diagonalization with overlap
     c_bands:  1 eigenvalues not converged
     c_bands:  1 eigenvalues not converged
     ethr =  3.26E-06,  avg # of iterations =  7.4

[...]

     total energy              =   -1947.46182080 Ry
     estimated scf accuracy    <       0.00003859 Ry

     iteration # 12     ecut=    55.12 Ry     beta= 0.10
     Davidson diagonalization with overlap
     ethr =  2.38E-08,  avg # of iterations =  2.5

[...]

     Adding external electric field

     Computed dipole along edir(3) :
        Dipole                0.0496 Ry au,          0.1261 Debye
        Dipole field          0.0002 Ry au,

        Potential amp.       -0.0137 Ry
        Total length         44.8970 bohr

     End of self-consistent calculation

          k = 0.0000 0.0000 0.0000 ( 28243 PWs)   bands (ev):

   -85.7725 -85.7235 -85.3016 -85.2521 -85.1136 -85.0638 -45.4756 -45.3888
   -45.3138 -44.9936 -44.9864 -44.9142 -44.8747 -44.5643 -44.5477 -44.4688
   -44.4402 -44.3636 -44.3478 -44.2683 -44.2430 -44.2404 -44.1674 -44.1275
    -7.7474  -5.8137  -5.1562  -4.9467  -4.7418  -4.5464  -4.2919  -4.0744
    -3.9684  -3.8461  -3.6878  -3.6128  -3.5893  -3.4552  -3.0671  -2.8560
    -2.4764  -2.2965  -2.2780  -2.2710  -2.1850  -2.1179  -2.0485  -1.7892
    -1.7722  -1.7238  -1.6100  -1.6069  -1.5856  -1.5693  -1.4623  -1.4044
    -1.3804  -1.3762  -1.0644  -1.0164  -0.9543  -0.8985  -0.7730  -0.7156
    -0.6620  -0.5921  -0.4983  -0.1896  -0.1287  -0.0849  -0.0017   0.1779
     0.2688   0.4621   0.6450   0.8801   0.9172   1.4033   1.6178   1.7092
     1.7742   1.8463   2.0298   2.0595   2.1439   2.1710   2.1957   2.2905
     2.3882   2.7863   3.1230   3.5122   3.6160   3.8237   4.3402   4.9982
     5.1102

[...]

          k = 0.0796 0.0263 0.0000 ( 28207 PWs)   bands (ev):

[...]

          k =-0.0955-0.0527 0.0000 ( 28248 PWs)   bands (ev):

[...]

          k =-0.0955-0.1580 0.0000 ( 28248 PWs)   bands (ev):

   -85.7480 -85.7480 -85.2770 -85.2769 -85.0888 -85.0887 -45.4326 -45.4325
   -44.9544 -44.9544 -44.9469 -44.9469 -44.6225 -44.6224 -44.5093 -44.5092
   -44.5084 -44.5083 -44.4019 -44.4019 -44.3085 -44.3084 -44.2041 -44.2041
    -5.8026  -5.8026  -4.2870  -4.2870  -4.0207  -4.0207  -3.7096  -3.7096
    -3.3146  -3.3146  -3.0537  -3.0537  -2.7908  -2.7908  -2.5821  -2.5821
    -2.5087  -2.5087  -2.3848  -2.3848  -2.1407  -2.1407  -2.0350  -2.0350
    -1.7554  -1.7554  -1.6993  -1.6993  -1.6509  -1.6509  -1.6090  -1.6090
    -1.5501  -1.5501  -1.4230  -1.4230  -1.3454  -1.3453  -1.2656  -1.2656
    -1.1059  -1.1059  -0.6671  -0.6671  -0.3915  -0.3915  -0.2777  -0.2777
    -0.1750  -0.1750  -0.1158  -0.1158  -0.0132  -0.0132   0.1980   0.1980
     0.3794   0.3794   1.1751   1.1752   1.5817   1.5817   1.6762   1.6762
     2.9984   2.9984   3.1876   3.1876   3.8567   3.8567   5.1873   5.1873
     6.0832

     the Fermi energy is     1.1529 ev

!    total energy              =   -1947.46182492 Ry
     estimated scf accuracy    <       0.00000919 Ry
     smearing contrib. (-TS)   =      -0.04790268 Ry
     internal energy E=F+TS    =   -1947.41392224 Ry

     The total energy is F=E-TS. E is the sum of the following terms:
     one-electron contribution =  -16056.59001026 Ry
     hartree contribution      =    8088.62157940 Ry
     xc contribution           =    -511.23921476 Ry
     ewald contribution        =    6531.79371582 Ry
     electric field correction =       0.00000756 Ry

     convergence has been achieved in  12 iterations

     negative rho (up, down):  2.188E-04 0.000E+00

     Forces acting on atoms (cartesian axes, Ry/au):

     atom    1 type  1   force =     0.00000859    0.00753359   -0.00483636
     atom    2 type  1   force =    -0.00000639    0.00753190   -0.00483677
     atom    3 type  2   force =     0.00000232    0.01421237    0.02544672
     atom    4 type  2   force =     0.00000171    0.01420568    0.02544168
     atom    5 type  1   force =    -0.00001926   -0.00292074   -0.00514541
     atom    6 type  1   force =     0.00001720   -0.00291755   -0.00514830
     atom    7 type  2   force =    -0.00000260   -0.01550844   -0.01494622
     atom    8 type  2   force =     0.00000319   -0.01549658   -0.01493417
     atom    9 type  1   force =     0.00000099   -0.00197209    0.00198313
     atom   10 type  1   force =    -0.00000788   -0.00196359    0.00198020
     atom   11 type  2   force =     0.00000112   -0.00135515   -0.00250469
     atom   12 type  2   force =     0.00000099   -0.00134940   -0.00249982

     Total force =     0.053738     Total SCF correction =     0.013701
     SCF correction compared to forces is large: reduce conv_thr to get better values

     Writing output data file ./Cu2Os2/Cu2Os2_beef.save/

     General routines

     Parallel routines

   This run was terminated on:   1:49:46  11Jul2022

   JOB DONE.