     Program PWSCF v.6.6 starts on 23Jun2022 at 18:36:12

     R & G space division:  proc/nbgrp/npool/nimage =      37
     Fft bands division:     nmany     =       1
     Reading input from Cu2Pd2.in
Warning: card &CELL ignored
Warning: card / ignored

     Current dimensions of program PWSCF are:
     Max number of different atomic species (ntypx) = 10
     Max number of k-points (npk) =  40000
     Max angular momentum in pseudopotentials (lmaxx) =  3
     Presently stress not available with electric field and gates

     Message from routine cell_base_init:
     DEPRECATED: use true lattice parameter, not A to a.u. conversion factor
     file Cu.pbe-dn-rrkjus_psl.1.0.0.UPF: wavefunction(s)  3D renormalized
     file Pd.pbe-n-rrkjus_psl.1.0.0.UPF: wavefunction(s)  4D renormalized

     IMPORTANT: XC functional enforced from input :
     Exchange-correlation= BEEF-VDW
                           (   1   4  43  14   2   0   0)
     Any further DFT definition will be discarded
     Please, verify this is what you really want

     Subspace diagonalization in iterative solution of the eigenvalue problem:
     a serial algorithm will be used

     Found symmetry operation: I + (  0.5000 -0.5000  0.0000)
     This is a supercell, fractional translations are disabled

     bravais-lattice index     =            0
     lattice parameter (alat)  =       1.8897  a.u.
     unit-cell volume          =    4294.9938 (a.u.)^3
     number of atoms/cell      =           12
     number of atomic types    =            2
     number of electrons       =       126.00
     number of Kohn-Sham states=           76
     kinetic-energy cutoff     =      55.1240  Ry
     charge density cutoff     =     551.2396  Ry
     convergence threshold     =      1.0E-05
     mixing beta               =       0.1000
     number of iterations used =           10  plain     mixing
     Exchange-correlation= BEEF-VDW
                           (   1   4  43  14   2   0   0)

     celldm(1)=   1.889726  celldm(2)=   0.000000  celldm(3)=   0.000000
     celldm(4)=   0.000000  celldm(5)=   0.000000  celldm(6)=   0.000000

     crystal axes: (cart. coord. in units of alat)
               a(1) = (   5.270348   0.000000   0.000000 )
               a(2) = (   1.756787   4.968930   0.000000 )
               a(3) = (   0.000000   0.000000  24.303222 )

     reciprocal axes: (cart. coord. in units 2 pi/alat)
               b(1) = (  0.189741 -0.067084  0.000000 )
               b(2) = (  0.000000  0.201251  0.000000 )
               b(3) = (  0.000000  0.000000  0.041147 )

     PseudoPot. # 1 for Cu read from file:
     ../pseudo/Cu.pbe-dn-rrkjus_psl.1.0.0.UPF
     MD5 check sum: 8469560995d0c2df1ffe68c099c04a63
     Pseudo is Ultrasoft + core correction, Zval = 11.0
     Generated using "atomic" code by A. Dal Corso v.6.3
     Using radial grid of 1199 points,  6 beta functions with:
                l(1) =   0
                l(2) =   0
                l(3) =   1
                l(4) =   1
                l(5) =   2
                l(6) =   2
     Q(r) pseudized with 0 coefficients

     PseudoPot. # 2 for Pd read from file:
     ../pseudo/Pd.pbe-n-rrkjus_psl.1.0.0.UPF
     MD5 check sum: d9f693bf1c5b493397a6bd6f2231cfc3
     Pseudo is Ultrasoft + core correction, Zval = 10.0
     Generated using "atomic" code by A. Dal Corso v.6.3
     Using radial grid of 1235 points,  6 beta functions with:
                l(1) =   0
                l(2) =   0
                l(3) =   1
                l(4) =   1
                l(5) =   2
                l(6) =   2
     Q(r) pseudized with 0 coefficients

     atomic species   valence    mass     pseudopotential
        Cu            11.00    63.54600     Cu( 1.00)
        Pd            10.00   106.42000     Pd( 1.00)

     No symmetry found

   Cartesian axes

     site n.     atom                  positions (alat units)
         1           Cu  tau(   1) = (   0.0000000   0.0000000  10.0000000  )
         2           Cu  tau(   2) = (   3.5135674   2.4844650  10.0000000  )
         3           Pd  tau(   3) = (   2.6351739   0.0000000  10.0000000  )
         4           Pd  tau(   4) = (   0.8783935   2.4844650  10.0000000  )
         5           Cu  tau(   5) = (   5.2703478   3.7266951  12.1516112  )
         6           Cu  tau(   6) = (   1.7567804   1.2422301  12.1516112  )
         7           Pd  tau(   7) = (   2.6351739   3.7266951  12.1516112  )
         8           Pd  tau(   8) = (   4.3919543   1.2422301  12.1516112  )
         9           Cu  tau(   9) = (   3.5135581   2.4844630  14.2936223  )
        10           Cu  tau(  10) = (   7.0271303   4.9689217  14.2936050  )
        11           Pd  tau(  11) = (   6.1487349   2.4844607  14.2762583  )
        12           Pd  tau(  12) = (   4.3919547   4.9689254  14.2762571  )

     number of k points=    74  Fermi-Dirac smearing, width (Ry)=  0.0100
                       cart. coord. in units 2pi/alat
        k(    1) = (   0.0000000   0.0000000   0.0000000), wk =   0.0138889
        k(    2) = (   0.0000000   0.0167709   0.0000000), wk =   0.0277778
        k(    3) = (   0.0000000   0.0335418   0.0000000), wk =   0.0277778
        k(    4) = (   0.0000000   0.0503126   0.0000000), wk =   0.0277778
        k(    5) = (   0.0000000   0.0670835   0.0000000), wk =   0.0277778
        k(    6) = (   0.0000000   0.0838544   0.0000000), wk =   0.0277778
        k(    7) = (   0.0000000  -0.1006253   0.0000000), wk =   0.0138889
        k(    8) = (   0.0158117  -0.0055903   0.0000000), wk =   0.0277778
        k(    9) = (   0.0158117   0.0111806   0.0000000), wk =   0.0277778
        k(   10) = (   0.0158117   0.0279515   0.0000000), wk =   0.0277778
        k(   11) = (   0.0158117   0.0447223   0.0000000), wk =   0.0277778
        k(   12) = (   0.0158117   0.0614932   0.0000000), wk =   0.0277778
        k(   13) = (   0.0158117   0.0782641   0.0000000), wk =   0.0277778
        k(   14) = (   0.0158117  -0.1062156   0.0000000), wk =   0.0277778
        k(   15) = (   0.0158117  -0.0894447   0.0000000), wk =   0.0277778
        k(   16) = (   0.0158117  -0.0726738   0.0000000), wk =   0.0277778
        k(   17) = (   0.0158117  -0.0559030   0.0000000), wk =   0.0277778
        k(   18) = (   0.0158117  -0.0391321   0.0000000), wk =   0.0277778
        k(   19) = (   0.0158117  -0.0223612   0.0000000), wk =   0.0277778
        k(   20) = (   0.0316235  -0.0111806   0.0000000), wk =   0.0277778
        k(   21) = (   0.0316235   0.0055903   0.0000000), wk =   0.0277778
        k(   22) = (   0.0316235   0.0223611   0.0000000), wk =   0.0277778
        k(   23) = (   0.0316235   0.0391320   0.0000000), wk =   0.0277778
        k(   24) = (   0.0316235   0.0559029   0.0000000), wk =   0.0277778
        k(   25) = (   0.0316235   0.0726738   0.0000000), wk =   0.0277778
        k(   26) = (   0.0316235  -0.1118059   0.0000000), wk =   0.0277778
        k(   27) = (   0.0316235  -0.0950350   0.0000000), wk =   0.0277778
        k(   28) = (   0.0316235  -0.0782641   0.0000000), wk =   0.0277778
        k(   29) = (   0.0316235  -0.0614933   0.0000000), wk =   0.0277778
        k(   30) = (   0.0316235  -0.0447224   0.0000000), wk =   0.0277778
        k(   31) = (   0.0316235  -0.0279515   0.0000000), wk =   0.0277778
        k(   32) = (   0.0474352  -0.0167709   0.0000000), wk =   0.0277778
        k(   33) = (   0.0474352  -0.0000000   0.0000000), wk =   0.0277778
        k(   34) = (   0.0474352   0.0167708   0.0000000), wk =   0.0277778
        k(   35) = (   0.0474352   0.0335417   0.0000000), wk =   0.0277778
        k(   36) = (   0.0474352   0.0503126   0.0000000), wk =   0.0277778
        k(   37) = (   0.0474352   0.0670835   0.0000000), wk =   0.0277778
        k(   38) = (   0.0474352  -0.1173962   0.0000000), wk =   0.0277778
        k(   39) = (   0.0474352  -0.1006253   0.0000000), wk =   0.0277778
        k(   40) = (   0.0474352  -0.0838544   0.0000000), wk =   0.0277778
        k(   41) = (   0.0474352  -0.0670836   0.0000000), wk =   0.0277778
        k(   42) = (   0.0474352  -0.0503127   0.0000000), wk =   0.0277778
        k(   43) = (   0.0474352  -0.0335418   0.0000000), wk =   0.0277778
        k(   44) = (   0.0632469  -0.0223612   0.0000000), wk =   0.0277778
        k(   45) = (   0.0632469  -0.0055903   0.0000000), wk =   0.0277778
        k(   46) = (   0.0632469   0.0111805   0.0000000), wk =   0.0277778
        k(   47) = (   0.0632469   0.0279514   0.0000000), wk =   0.0277778
        k(   48) = (   0.0632469   0.0447223   0.0000000), wk =   0.0277778
        k(   49) = (   0.0632469   0.0614932   0.0000000), wk =   0.0277778
        k(   50) = (   0.0632469  -0.1229865   0.0000000), wk =   0.0277778
        k(   51) = (   0.0632469  -0.1062156   0.0000000), wk =   0.0277778
        k(   52) = (   0.0632469  -0.0894448   0.0000000), wk =   0.0277778
        k(   53) = (   0.0632469  -0.0726739   0.0000000), wk =   0.0277778
        k(   54) = (   0.0632469  -0.0559030   0.0000000), wk =   0.0277778
        k(   55) = (   0.0632469  -0.0391321   0.0000000), wk =   0.0277778
        k(   56) = (   0.0790587  -0.0279515   0.0000000), wk =   0.0277778
        k(   57) = (   0.0790587  -0.0111807   0.0000000), wk =   0.0277778
        k(   58) = (   0.0790587   0.0055902   0.0000000), wk =   0.0277778
        k(   59) = (   0.0790587   0.0223611   0.0000000), wk =   0.0277778
        k(   60) = (   0.0790587   0.0391320   0.0000000), wk =   0.0277778
        k(   61) = (   0.0790587   0.0559029   0.0000000), wk =   0.0277778
        k(   62) = (   0.0790587  -0.1285768   0.0000000), wk =   0.0277778
        k(   63) = (   0.0790587  -0.1118059   0.0000000), wk =   0.0277778
        k(   64) = (   0.0790587  -0.0950351   0.0000000), wk =   0.0277778
        k(   65) = (   0.0790587  -0.0782642   0.0000000), wk =   0.0277778
        k(   66) = (   0.0790587  -0.0614933   0.0000000), wk =   0.0277778
        k(   67) = (   0.0790587  -0.0447224   0.0000000), wk =   0.0277778
        k(   68) = (  -0.0948704   0.0335418   0.0000000), wk =   0.0138889
        k(   69) = (  -0.0948704   0.0503127   0.0000000), wk =   0.0277778
        k(   70) = (  -0.0948704   0.0670836   0.0000000), wk =   0.0277778
        k(   71) = (  -0.0948704   0.0838545   0.0000000), wk =   0.0277778
        k(   72) = (  -0.0948704   0.1006254   0.0000000), wk =   0.0277778
        k(   73) = (  -0.0948704   0.1173962   0.0000000), wk =   0.0277778
        k(   74) = (  -0.0948704  -0.0670834   0.0000000), wk =   0.0138889

     Initial potential from superposition of free atoms

     starting charge  125.99519, renormalised to  126.00000

     negative rho (up, down):  9.424E-04 0.000E+00

     %%%%%%%%%%%%%%%%%%%%%%%%%%%%%%%%%%%%%%%%%%%%%%%%%%%%%%%%%%%%%%%%%%%%%%%%
     %                                                                      %
     % You are using vdW-DF, which was implemented by the Thonhauser group. %
     % Please cite the following two papers that made this development      %
     % possible and the two reviews that describe the various versions:     %
     %                                                                      %
     %   T. Thonhauser et al., PRL 115, 136402 (2015).                      %
     %   T. Thonhauser et al., PRB 76, 125112 (2007).                       %
     %   K. Berland et al., Rep. Prog. Phys. 78, 066501 (2015).             %
     %   D.C. Langreth et al., J. Phys.: Condens. Matter 21, 084203 (2009). %
     %                                                                      %
     %                                                                      %
     % If you are calculating the stress with vdW-DF, please also cite:     %
     %                                                                      %
     %   R. Sabatini et al., J. Phys.: Condens. Matter 24, 424209 (2012).   %
     %                                                                      %
     %%%%%%%%%%%%%%%%%%%%%%%%%%%%%%%%%%%%%%%%%%%%%%%%%%%%%%%%%%%%%%%%%%%%%%%%

     Adding external electric field

     Computed dipole along edir(3) :
        Dipole               -0.0000 Ry au,         -0.0000 Debye
        Dipole field         -0.0000 Ry au,

        Potential amp.        0.0000 Ry
        Total length         44.7783 bohr

     Starting wfcs are  108 randomized atomic wfcs

     Self-consistent Calculation

     iteration #  1     ecut=    55.12 Ry     beta= 0.10
     Davidson diagonalization with overlap
     ethr =  1.00E-02,  avg # of iterations =  2.3

     Threshold (ethr) on eigenvalues was too large:
     Diagonalizing with lowered threshold

     Davidson diagonalization with overlap
     ethr =  3.18E-04,  avg # of iterations =  5.4

[...]

     total energy              =   -1155.22913027 Ry
     estimated scf accuracy    <       0.45111583 Ry

[...]

     iteration #  3     ecut=    55.12 Ry     beta= 0.10
     Davidson diagonalization with overlap
     c_bands:  1 eigenvalues not converged
     ethr =  1.17E-04,  avg # of iterations =  4.9

[...]

     iteration #  9     ecut=    55.12 Ry     beta= 0.10
     Davidson diagonalization with overlap
     c_bands:  1 eigenvalues not converged
     c_bands:  1 eigenvalues not converged
     ethr =  7.43E-07,  avg # of iterations =  2.5

[...]

     total energy              =   -1155.22350128 Ry
     estimated scf accuracy    <       0.00011611 Ry

     iteration # 12     ecut=    55.12 Ry     beta= 0.10
     Davidson diagonalization with overlap
     ethr =  7.28E-08,  avg # of iterations =  2.0

[...]

     Adding external electric field

     Computed dipole along edir(3) :
        Dipole                0.0018 Ry au,          0.0046 Debye
        Dipole field          0.0000 Ry au,

        Potential amp.       -0.0005 Ry
        Total length         44.7783 bohr

     End of self-consistent calculation

          k = 0.0000 0.0000 0.0000 ( 29743 PWs)   bands (ev):

    -7.1119  -5.4748  -5.0535  -5.0405  -4.9308  -4.5148  -4.3737  -4.3542
    -4.3111  -4.2444  -4.1874  -4.0117  -3.6620  -3.6369  -3.6264  -3.5965
    -3.5626  -3.4851  -3.3774  -3.3205  -3.2918  -3.2082  -3.1009  -2.9582
    -2.8177  -2.5730  -2.5367  -2.5077  -2.4235  -2.2626  -2.1282  -2.0351
    -1.9703  -1.9501  -1.8221  -1.7864  -1.7851  -1.7686  -1.7417  -1.7226
    -1.7019  -1.6738  -1.6596  -1.6529  -1.6259  -1.5407  -1.4932  -1.4779
    -1.4453  -1.2310  -1.1838  -1.1596  -1.1088  -1.0384  -1.0370  -0.9029
    -0.8946  -0.8471  -0.7807  -0.7589  -0.7492  -0.6201  -0.5998   0.7172
     1.0450   1.2217   1.2812   1.4786   1.6262   1.6753   1.6823   3.7918
     4.0508   4.1090   4.4396   4.4643

[...]

          k = 0.0791-0.0447 0.0000 ( 29673 PWs)   bands (ev):

[...]

          k =-0.0949 0.0335 0.0000 ( 29724 PWs)   bands (ev):

[...]

          k =-0.0949-0.0671 0.0000 ( 29654 PWs)   bands (ev):

    -5.3108  -5.1729  -4.3455  -4.3208  -4.2459  -4.1954  -3.9948  -3.9844
    -3.9362  -3.8843  -3.7983  -3.5182  -3.4165  -3.3884  -3.3869  -3.1816
    -3.1782  -3.0667  -3.0301  -3.0118  -3.0092  -2.9219  -2.8524  -2.8403
    -2.7818  -2.6341  -2.6083  -2.5844  -2.5838  -2.5004  -2.4715  -2.4710
    -2.4538  -2.4527  -2.3953  -2.3604  -2.3314  -2.3174  -2.2348  -2.2120
    -2.1928  -2.0967  -2.0721  -2.0606  -2.0311  -1.9616  -1.9420  -1.9394
    -1.8758  -1.8248  -1.8183  -1.7841  -1.7657  -1.7290  -1.6856  -1.4699
    -1.4051  -1.2895  -1.1188  -1.0904  -1.0386  -0.9272  -0.9221  -0.7286
    -0.1677   0.7059   0.8598   1.2732   1.7015   1.8862   3.3689   3.8385
     3.8804   3.8837   5.6095   5.7393

     the Fermi energy is    -0.5810 ev

!    total energy              =   -1155.22351979 Ry
     estimated scf accuracy    <       0.00000197 Ry
     smearing contrib. (-TS)   =      -0.04119715 Ry
     internal energy E=F+TS    =   -1155.18232264 Ry

     The total energy is F=E-TS. E is the sum of the following terms:
     one-electron contribution =   -9230.46958744 Ry
     hartree contribution      =    4729.54247688 Ry
     xc contribution           =    -410.51931119 Ry
     ewald contribution        =    3756.26409909 Ry
     electric field correction =       0.00000001 Ry

     convergence has been achieved in  12 iterations

     negative rho (up, down):  9.051E-04 0.000E+00

     Forces acting on atoms (cartesian axes, Ry/au):

     atom    1 type  1   force =    -0.00000331    0.00000021    0.00170624
     atom    2 type  1   force =     0.00000085    0.00000119    0.00170633
     atom    3 type  2   force =     0.00000010   -0.00000016    0.00355570
     atom    4 type  2   force =    -0.00000037    0.00000222    0.00355369
     atom    5 type  1   force =    -0.00000770   -0.00000959   -0.00379341
     atom    6 type  1   force =     0.00000865    0.00000631   -0.00379647
     atom    7 type  2   force =    -0.00000131    0.00000092   -0.00213997
     atom    8 type  2   force =     0.00000071   -0.00000231   -0.00214168
     atom    9 type  1   force =     0.00000350    0.00000452   -0.00021137
     atom   10 type  1   force =    -0.00000345   -0.00000399   -0.00021106
     atom   11 type  2   force =     0.00000002    0.00000148    0.00088814
     atom   12 type  2   force =     0.00000230   -0.00000080    0.00088386

     Total force =     0.008410     Total SCF correction =     0.001796
     SCF correction compared to forces is large: reduce conv_thr to get better values

     Writing output data file ./Cu2Pd2/Cu2Pd2_beef.save/

     General routines

     Parallel routines

   This run was terminated on:  18:57:30  23Jun2022

   JOB DONE.