     Program PWSCF v.6.6 starts on 11Jul2022 at  2:36:22

     R & G space division:  proc/nbgrp/npool/nimage =      37
     Fft bands division:     nmany     =       1
     Reading input from Cu2Ru2.in
Warning: card &CELL ignored
Warning: card / ignored

     Current dimensions of program PWSCF are:
     Max number of different atomic species (ntypx) = 10
     Max number of k-points (npk) =  40000
     Max angular momentum in pseudopotentials (lmaxx) =  3
     Presently stress not available with electric field and gates

     Message from routine cell_base_init:
     DEPRECATED: use true lattice parameter, not A to a.u. conversion factor
     file Cu.pbe-dn-rrkjus_psl.1.0.0.UPF: wavefunction(s)  3D renormalized

     IMPORTANT: XC functional enforced from input :
     Exchange-correlation= BEEF-VDW
                           (   1   4  43  14   2   0   0)
     Any further DFT definition will be discarded
     Please, verify this is what you really want

     Subspace diagonalization in iterative solution of the eigenvalue problem:
     a serial algorithm will be used

     bravais-lattice index     =            0
     lattice parameter (alat)  =       1.8897  a.u.
     unit-cell volume          =    4034.2817 (a.u.)^3
     number of atoms/cell      =           12
     number of atomic types    =            2
     number of electrons       =       162.00
     number of Kohn-Sham states=           97
     kinetic-energy cutoff     =      55.1240  Ry
     charge density cutoff     =     551.2396  Ry
     convergence threshold     =      1.0E-05
     mixing beta               =       0.1000
     number of iterations used =           10  plain     mixing
     Exchange-correlation= BEEF-VDW
                           (   1   4  43  14   2   0   0)

     celldm(1)=   1.889726  celldm(2)=   0.000000  celldm(3)=   0.000000
     celldm(4)=   0.000000  celldm(5)=   0.000000  celldm(6)=   0.000000

     crystal axes: (cart. coord. in units of alat)
               a(1) = (   5.140575   0.000000   0.000000 )
               a(2) = (  -2.570287   4.779117   0.000000 )
               a(3) = (   0.000000   0.000000  24.333823 )

     reciprocal axes: (cart. coord. in units 2 pi/alat)
               b(1) = (  0.194531  0.104622 -0.000000 )
               b(2) = (  0.000000  0.209244  0.000000 )
               b(3) = (  0.000000 -0.000000  0.041095 )

     PseudoPot. # 1 for Cu read from file:
     ../pseudo/Cu.pbe-dn-rrkjus_psl.1.0.0.UPF
     MD5 check sum: 8469560995d0c2df1ffe68c099c04a63
     Pseudo is Ultrasoft + core correction, Zval = 11.0
     Generated using "atomic" code by A. Dal Corso v.6.3
     Using radial grid of 1199 points,  6 beta functions with:
                l(1) =   0
                l(2) =   0
                l(3) =   1
                l(4) =   1
                l(5) =   2
                l(6) =   2
     Q(r) pseudized with 0 coefficients

     PseudoPot. # 2 for Ru read from file:
     ../pseudo/Ru.pbe-spn-rrkjus_psl.1.0.0.UPF
     MD5 check sum: fbaca725316a1a65f98761fd4ac95971
     Pseudo is Ultrasoft + core correction, Zval = 16.0
     Generated using "atomic" code by A. Dal Corso v.6.2.2
     Using radial grid of 1233 points,  6 beta functions with:
                l(1) =   0
                l(2) =   0
                l(3) =   1
                l(4) =   1
                l(5) =   2
                l(6) =   2
     Q(r) pseudized with 0 coefficients

     atomic species   valence    mass     pseudopotential
        Cu            11.00    63.54600     Cu( 1.00)
        Ru            16.00   101.07000     Ru( 1.00)

     No symmetry found

   Cartesian axes

     site n.     atom                  positions (alat units)
         1           Cu  tau(   1) = (   0.0000000   0.0000000  10.0000000  )
         2           Cu  tau(   2) = (   2.5702875   0.0000000  10.0000000  )
         3           Ru  tau(   3) = (   1.2851437   2.3895585  10.0000000  )
         4           Ru  tau(   4) = (  -1.2851437   2.3895585  10.0000000  )
         5           Cu  tau(   5) = (   2.5702875   1.3823428  12.1669117  )
         6           Cu  tau(   6) = (   0.0000000   1.3823428  12.1669117  )
         7           Ru  tau(   7) = (  -1.2851437   3.7719013  12.1669117  )
         8           Ru  tau(   8) = (   1.2851437   3.7719013  12.1669117  )
         9           Cu  tau(   9) = (   0.0000623   2.6254811  14.3630417  )
        10           Cu  tau(  10) = (   2.5700588   2.6254508  14.3630576  )
        11           Ru  tau(  11) = (   3.8553837   0.2296147  14.2617821  )
        12           Ru  tau(  12) = (   1.2850824   0.2294096  14.2618678  )

     number of k points=    74  Fermi-Dirac smearing, width (Ry)=  0.0100
                       cart. coord. in units 2pi/alat
        k(    1) = (   0.0000000   0.0000000   0.0000000), wk =   0.0138889
        k(    2) = (   0.0000000   0.0174370   0.0000000), wk =   0.0277778
        k(    3) = (   0.0000000   0.0348739   0.0000000), wk =   0.0277778
        k(    4) = (   0.0000000   0.0523109   0.0000000), wk =   0.0277778
        k(    5) = (   0.0000000   0.0697479   0.0000000), wk =   0.0277778
        k(    6) = (   0.0000000   0.0871849   0.0000000), wk =   0.0277778
        k(    7) = (   0.0000000  -0.1046218   0.0000000), wk =   0.0138889
        k(    8) = (   0.0162109   0.0087185   0.0000000), wk =   0.0277778
        k(    9) = (   0.0162109   0.0261555   0.0000000), wk =   0.0277778
        k(   10) = (   0.0162109   0.0435924   0.0000000), wk =   0.0277778
        k(   11) = (   0.0162109   0.0610294   0.0000000), wk =   0.0277778
        k(   12) = (   0.0162109   0.0784664   0.0000000), wk =   0.0277778
        k(   13) = (   0.0162109   0.0959033   0.0000000), wk =   0.0277778
        k(   14) = (   0.0162109  -0.0959034   0.0000000), wk =   0.0277778
        k(   15) = (   0.0162109  -0.0784664   0.0000000), wk =   0.0277778
        k(   16) = (   0.0162109  -0.0610294   0.0000000), wk =   0.0277778
        k(   17) = (   0.0162109  -0.0435924   0.0000000), wk =   0.0277778
        k(   18) = (   0.0162109  -0.0261555   0.0000000), wk =   0.0277778
        k(   19) = (   0.0162109  -0.0087185   0.0000000), wk =   0.0277778
        k(   20) = (   0.0324218   0.0174370   0.0000000), wk =   0.0277778
        k(   21) = (   0.0324218   0.0348739   0.0000000), wk =   0.0277778
        k(   22) = (   0.0324218   0.0523109   0.0000000), wk =   0.0277778
        k(   23) = (   0.0324218   0.0697479   0.0000000), wk =   0.0277778
        k(   24) = (   0.0324218   0.0871849   0.0000000), wk =   0.0277778
        k(   25) = (   0.0324218   0.1046218   0.0000000), wk =   0.0277778
        k(   26) = (   0.0324218  -0.0871849   0.0000000), wk =   0.0277778
        k(   27) = (   0.0324218  -0.0697479   0.0000000), wk =   0.0277778
        k(   28) = (   0.0324218  -0.0523109   0.0000000), wk =   0.0277778
        k(   29) = (   0.0324218  -0.0348739   0.0000000), wk =   0.0277778
        k(   30) = (   0.0324218  -0.0174370   0.0000000), wk =   0.0277778
        k(   31) = (   0.0324218  -0.0000000   0.0000000), wk =   0.0277778
        k(   32) = (   0.0486327   0.0261555   0.0000000), wk =   0.0277778
        k(   33) = (   0.0486327   0.0435924   0.0000000), wk =   0.0277778
        k(   34) = (   0.0486327   0.0610294   0.0000000), wk =   0.0277778
        k(   35) = (   0.0486327   0.0784664   0.0000000), wk =   0.0277778
        k(   36) = (   0.0486327   0.0959033   0.0000000), wk =   0.0277778
        k(   37) = (   0.0486327   0.1133403   0.0000000), wk =   0.0277778
        k(   38) = (   0.0486327  -0.0784664   0.0000000), wk =   0.0277778
        k(   39) = (   0.0486327  -0.0610294   0.0000000), wk =   0.0277778
        k(   40) = (   0.0486327  -0.0435924   0.0000000), wk =   0.0277778
        k(   41) = (   0.0486327  -0.0261555   0.0000000), wk =   0.0277778
        k(   42) = (   0.0486327  -0.0087185   0.0000000), wk =   0.0277778
        k(   43) = (   0.0486327   0.0087185   0.0000000), wk =   0.0277778
        k(   44) = (   0.0648436   0.0348739   0.0000000), wk =   0.0277778
        k(   45) = (   0.0648436   0.0523109   0.0000000), wk =   0.0277778
        k(   46) = (   0.0648436   0.0697479   0.0000000), wk =   0.0277778
        k(   47) = (   0.0648436   0.0871849   0.0000000), wk =   0.0277778
        k(   48) = (   0.0648436   0.1046218   0.0000000), wk =   0.0277778
        k(   49) = (   0.0648436   0.1220588   0.0000000), wk =   0.0277778
        k(   50) = (   0.0648436  -0.0697479   0.0000000), wk =   0.0277778
        k(   51) = (   0.0648436  -0.0523109   0.0000000), wk =   0.0277778
        k(   52) = (   0.0648436  -0.0348740   0.0000000), wk =   0.0277778
        k(   53) = (   0.0648436  -0.0174370   0.0000000), wk =   0.0277778
        k(   54) = (   0.0648436  -0.0000000   0.0000000), wk =   0.0277778
        k(   55) = (   0.0648436   0.0174370   0.0000000), wk =   0.0277778
        k(   56) = (   0.0810545   0.0435924   0.0000000), wk =   0.0277778
        k(   57) = (   0.0810545   0.0610294   0.0000000), wk =   0.0277778
        k(   58) = (   0.0810545   0.0784664   0.0000000), wk =   0.0277778
        k(   59) = (   0.0810545   0.0959033   0.0000000), wk =   0.0277778
        k(   60) = (   0.0810545   0.1133403   0.0000000), wk =   0.0277778
        k(   61) = (   0.0810545   0.1307773   0.0000000), wk =   0.0277778
        k(   62) = (   0.0810545  -0.0610294   0.0000000), wk =   0.0277778
        k(   63) = (   0.0810545  -0.0435924   0.0000000), wk =   0.0277778
        k(   64) = (   0.0810545  -0.0261555   0.0000000), wk =   0.0277778
        k(   65) = (   0.0810545  -0.0087185   0.0000000), wk =   0.0277778
        k(   66) = (   0.0810545   0.0087185   0.0000000), wk =   0.0277778
        k(   67) = (   0.0810545   0.0261555   0.0000000), wk =   0.0277778
        k(   68) = (  -0.0972654  -0.0523109   0.0000000), wk =   0.0138889
        k(   69) = (  -0.0972654  -0.0348739   0.0000000), wk =   0.0277778
        k(   70) = (  -0.0972654  -0.0174370   0.0000000), wk =   0.0277778
        k(   71) = (  -0.0972654   0.0000000   0.0000000), wk =   0.0277778
        k(   72) = (  -0.0972654   0.0174370   0.0000000), wk =   0.0277778
        k(   73) = (  -0.0972654   0.0348740   0.0000000), wk =   0.0277778
        k(   74) = (  -0.0972654  -0.1569327   0.0000000), wk =   0.0138889

     Initial potential from superposition of free atoms

     starting charge  161.99479, renormalised to  162.00000

     negative rho (up, down):  1.324E-03 0.000E+00

     %%%%%%%%%%%%%%%%%%%%%%%%%%%%%%%%%%%%%%%%%%%%%%%%%%%%%%%%%%%%%%%%%%%%%%%%
     %                                                                      %
     % You are using vdW-DF, which was implemented by the Thonhauser group. %
     % Please cite the following two papers that made this development      %
     % possible and the two reviews that describe the various versions:     %
     %                                                                      %
     %   T. Thonhauser et al., PRL 115, 136402 (2015).                      %
     %   T. Thonhauser et al., PRB 76, 125112 (2007).                       %
     %   K. Berland et al., Rep. Prog. Phys. 78, 066501 (2015).             %
     %   D.C. Langreth et al., J. Phys.: Condens. Matter 21, 084203 (2009). %
     %                                                                      %
     %                                                                      %
     % If you are calculating the stress with vdW-DF, please also cite:     %
     %                                                                      %
     %   R. Sabatini et al., J. Phys.: Condens. Matter 24, 424209 (2012).   %
     %                                                                      %
     %%%%%%%%%%%%%%%%%%%%%%%%%%%%%%%%%%%%%%%%%%%%%%%%%%%%%%%%%%%%%%%%%%%%%%%%

     Adding external electric field

     Computed dipole along edir(3) :
        Dipole               -0.0000 Ry au,         -0.0001 Debye
        Dipole field         -0.0000 Ry au,

        Potential amp.        0.0000 Ry
        Total length         44.8347 bohr

     Starting wfcs are  114 randomized atomic wfcs

     Self-consistent Calculation

     iteration #  1     ecut=    55.12 Ry     beta= 0.10
     Davidson diagonalization with overlap
     ethr =  1.00E-02,  avg # of iterations =  4.5

[...]

     total energy              =   -1930.77231998 Ry
     estimated scf accuracy    <      11.36939406 Ry

[...]

     iteration #  8     ecut=    55.12 Ry     beta= 0.10
     Davidson diagonalization with overlap
     c_bands:  1 eigenvalues not converged
     ethr =  1.36E-05,  avg # of iterations =  5.4

[...]

     total energy              =   -1932.17588069 Ry
     estimated scf accuracy    <       0.00001259 Ry

     iteration # 15     ecut=    55.12 Ry     beta= 0.10
     Davidson diagonalization with overlap
     ethr =  7.77E-09,  avg # of iterations =  4.0

[...]

     Adding external electric field

     Computed dipole along edir(3) :
        Dipole                0.0124 Ry au,          0.0315 Debye
        Dipole field          0.0000 Ry au,

        Potential amp.       -0.0035 Ry
        Total length         44.8347 bohr

     End of self-consistent calculation

          k = 0.0000 0.0000 0.0000 ( 27887 PWs)   bands (ev):

   -72.2805 -72.1854 -71.8696 -71.7738 -71.7647 -71.6683 -42.5788 -42.5389
   -42.4814 -42.2876 -42.2381 -42.1475 -42.0581 -41.7837 -41.7367 -41.7197
   -41.6948 -41.6581 -41.6314 -41.5693 -41.5406 -41.4909 -41.4602 -41.4391
    -6.6629  -4.9451  -4.7326  -4.6109  -4.4709  -4.1193  -3.7579  -3.6653
    -3.6395  -3.6074  -3.5309  -3.4716  -3.4366  -3.3596  -2.9884  -2.7091
    -2.4790  -2.4059  -2.3916  -2.3297  -2.2395  -2.1813  -2.0966  -1.9234
    -1.8408  -1.8097  -1.7384  -1.7339  -1.7020  -1.6638  -1.4984  -1.4918
    -1.4478  -1.2544  -1.1545  -1.1484  -1.1149  -1.0552  -0.9028  -0.8631
    -0.7867  -0.6317  -0.4924  -0.2649  -0.2400  -0.2357  -0.1371  -0.0132
     0.0467   0.1885   0.4389   0.5891   0.6950   1.1900   1.2334   1.2932
     1.3923   1.4251   1.4659   1.5797   1.5876   1.6641   2.1110   2.1594
     2.2135   2.6205   2.8264   2.8909   3.2878   4.0115   4.3248   4.3620
     4.7870

[...]

          k = 0.0811 0.0262 0.0000 ( 27839 PWs)   bands (ev):

[...]

          k =-0.0973-0.0523 0.0000 ( 27834 PWs)   bands (ev):

[...]

          k =-0.0973-0.1569 0.0000 ( 27834 PWs)   bands (ev):

   -72.2332 -72.2331 -71.8220 -71.8218 -71.7170 -71.7164 -42.5306 -42.5306
   -42.1456 -42.1456 -42.1034 -42.1033 -41.8971 -41.8969 -41.8466 -41.8461
   -41.7399 -41.7397 -41.6757 -41.6757 -41.6142 -41.6138 -41.5008 -41.5005
    -4.9562  -4.9561  -3.7767  -3.7766  -3.7183  -3.7182  -3.3070  -3.3069
    -3.1180  -3.1180  -2.9447  -2.9447  -2.6981  -2.6981  -2.5799  -2.5798
    -2.4769  -2.4769  -2.3498  -2.3498  -2.1888  -2.1887  -2.0397  -2.0396
    -1.8554  -1.8553  -1.8386  -1.8384  -1.7760  -1.7759  -1.6973  -1.6971
    -1.6401  -1.6400  -1.4882  -1.4881  -1.4245  -1.4244  -1.1593  -1.1591
    -1.0291  -1.0289  -0.6883  -0.6882  -0.5105  -0.5104  -0.4433  -0.4431
    -0.3330  -0.3329  -0.2446  -0.2446  -0.1807  -0.1806  -0.0736  -0.0735
     0.1959   0.1959   0.8615   0.8616   1.0354   1.0354   1.2452   1.2453
     2.7048   2.7048   2.8197   2.8198   3.7426   3.7427   4.9502   4.9504
     5.8715

     the Fermi energy is     0.8412 ev

!    total energy              =   -1932.17588083 Ry
     estimated scf accuracy    <       0.00000255 Ry
     smearing contrib. (-TS)   =      -0.06265753 Ry
     internal energy E=F+TS    =   -1932.11322331 Ry

     The total energy is F=E-TS. E is the sum of the following terms:
     one-electron contribution =  -16407.89417067 Ry
     hartree contribution      =    8274.03805346 Ry
     xc contribution           =    -455.50400665 Ry
     ewald contribution        =    6657.24690008 Ry
     electric field correction =       0.00000048 Ry

     convergence has been achieved in  15 iterations

     negative rho (up, down):  1.215E-03 0.000E+00

     Forces acting on atoms (cartesian axes, Ry/au):

     atom    1 type  1   force =     0.00002154    0.00426972   -0.00261233
     atom    2 type  1   force =    -0.00002018    0.00427158   -0.00261772
     atom    3 type  2   force =    -0.00000272    0.00394023    0.01411320
     atom    4 type  2   force =     0.00000071    0.00394905    0.01406011
     atom    5 type  1   force =    -0.00013769    0.00056335   -0.00577320
     atom    6 type  1   force =     0.00013634    0.00056814   -0.00576819
     atom    7 type  2   force =    -0.00001021   -0.00762559   -0.00565399
     atom    8 type  2   force =     0.00000277   -0.00754782   -0.00558838
     atom    9 type  1   force =    -0.00004957   -0.00098721   -0.00030245
     atom   10 type  1   force =     0.00005413   -0.00097932   -0.00028947
     atom   11 type  2   force =     0.00000315   -0.00024745    0.00022460
     atom   12 type  2   force =     0.00000175   -0.00017468    0.00020784

     Total force =     0.026945     Total SCF correction =     0.001812

     Writing output data file ./Cu2Ru2/Cu2Ru2_beef.save/

     General routines

     Parallel routines

   This run was terminated on:   3:21:21  11Jul2022

   JOB DONE.