     Program PWSCF v.6.6 starts on 11Jul2022 at  1:49:49

     R & G space division:  proc/nbgrp/npool/nimage =      37
     Fft bands division:     nmany     =       1
     Reading input from Cu2Rh2.in
Warning: card &CELL ignored
Warning: card / ignored

     Current dimensions of program PWSCF are:
     Max number of different atomic species (ntypx) = 10
     Max number of k-points (npk) =  40000
     Max angular momentum in pseudopotentials (lmaxx) =  3
     Presently stress not available with electric field and gates

     Message from routine cell_base_init:
     DEPRECATED: use true lattice parameter, not A to a.u. conversion factor
     file Cu.pbe-dn-rrkjus_psl.1.0.0.UPF: wavefunction(s)  3D renormalized
     file Rh.pbe-spn-rrkjus_psl.1.0.0.UPF: wavefunction(s)  4S 5S renormalized

     IMPORTANT: XC functional enforced from input :
     Exchange-correlation= BEEF-VDW
                           (   1   4  43  14   2   0   0)
     Any further DFT definition will be discarded
     Please, verify this is what you really want

     Subspace diagonalization in iterative solution of the eigenvalue problem:
     a serial algorithm will be used

     bravais-lattice index     =            0
     lattice parameter (alat)  =       1.8897  a.u.
     unit-cell volume          =    4065.4990 (a.u.)^3
     number of atoms/cell      =           12
     number of atomic types    =            2
     number of electrons       =       168.00
     number of Kohn-Sham states=          101
     kinetic-energy cutoff     =      55.1240  Ry
     charge density cutoff     =     551.2396  Ry
     convergence threshold     =      1.0E-05
     mixing beta               =       0.1000
     number of iterations used =           10  plain     mixing
     Exchange-correlation= BEEF-VDW
                           (   1   4  43  14   2   0   0)

     celldm(1)=   1.889726  celldm(2)=   0.000000  celldm(3)=   0.000000
     celldm(4)=   0.000000  celldm(5)=   0.000000  celldm(6)=   0.000000

     crystal axes: (cart. coord. in units of alat)
               a(1) = (   5.331832   0.000000   0.000000 )
               a(2) = (   2.630392   4.637830   0.000000 )
               a(3) = (   0.000000   0.000000  24.362736 )

     reciprocal axes: (cart. coord. in units 2 pi/alat)
               b(1) = (  0.187553 -0.106372  0.000000 )
               b(2) = (  0.000000  0.215618  0.000000 )
               b(3) = (  0.000000  0.000000  0.041046 )

     PseudoPot. # 1 for Cu read from file:
     ../pseudo/Cu.pbe-dn-rrkjus_psl.1.0.0.UPF
     MD5 check sum: 8469560995d0c2df1ffe68c099c04a63
     Pseudo is Ultrasoft + core correction, Zval = 11.0
     Generated using "atomic" code by A. Dal Corso v.6.3
     Using radial grid of 1199 points,  6 beta functions with:
                l(1) =   0
                l(2) =   0
                l(3) =   1
                l(4) =   1
                l(5) =   2
                l(6) =   2
     Q(r) pseudized with 0 coefficients

     PseudoPot. # 2 for Rh read from file:
     ../pseudo/Rh.pbe-spn-rrkjus_psl.1.0.0.UPF
     MD5 check sum: 912a852783f0c9b7bd5e9eb06cc0cc10
     Pseudo is Ultrasoft + core correction, Zval = 17.0
     Generated using "atomic" code by A. Dal Corso v.6.3
     Using radial grid of 1233 points,  6 beta functions with:
                l(1) =   0
                l(2) =   0
                l(3) =   1
                l(4) =   1
                l(5) =   2
                l(6) =   2
     Q(r) pseudized with 0 coefficients

     atomic species   valence    mass     pseudopotential
        Cu            11.00    63.54600     Cu( 1.00)
        Rh            17.00   102.90550     Rh( 1.00)

     No symmetry found

   Cartesian axes

     site n.     atom                  positions (alat units)
         1           Cu  tau(   1) = (   0.0000000   0.0000000  10.0000000  )
         2           Cu  tau(   2) = (   3.9811118   2.3189150  10.0000000  )
         3           Rh  tau(   3) = (   2.6659159   0.0000000  10.0000000  )
         4           Rh  tau(   4) = (   1.3151959   2.3189150  10.0000000  )
         5           Cu  tau(   5) = (   5.3318317   3.1056814  12.1813679  )
         6           Cu  tau(   6) = (   1.3507199   0.7867663  12.1813679  )
         7           Rh  tau(   7) = (   2.6659159   3.1056814  12.1813679  )
         8           Rh  tau(   8) = (   4.0166358   0.7867663  12.1813679  )
         9           Cu  tau(   9) = (   2.5856351   1.5059427  14.3653116  )
        10           Cu  tau(  10) = (   6.5666166   3.8250822  14.3653239  )
        11           Rh  tau(  11) = (   5.2629475   1.5127206  14.3450632  )
        12           Rh  tau(  12) = (   3.9121106   3.8315687  14.3450526  )

     number of k points=    74  Fermi-Dirac smearing, width (Ry)=  0.0100
                       cart. coord. in units 2pi/alat
        k(    1) = (   0.0000000   0.0000000   0.0000000), wk =   0.0138889
        k(    2) = (   0.0000000   0.0179682   0.0000000), wk =   0.0277778
        k(    3) = (   0.0000000   0.0359363   0.0000000), wk =   0.0277778
        k(    4) = (   0.0000000   0.0539045   0.0000000), wk =   0.0277778
        k(    5) = (   0.0000000   0.0718727   0.0000000), wk =   0.0277778
        k(    6) = (   0.0000000   0.0898409   0.0000000), wk =   0.0277778
        k(    7) = (   0.0000000  -0.1078090   0.0000000), wk =   0.0138889
        k(    8) = (   0.0156294  -0.0088644   0.0000000), wk =   0.0277778
        k(    9) = (   0.0156294   0.0091038   0.0000000), wk =   0.0277778
        k(   10) = (   0.0156294   0.0270720   0.0000000), wk =   0.0277778
        k(   11) = (   0.0156294   0.0450401   0.0000000), wk =   0.0277778
        k(   12) = (   0.0156294   0.0630083   0.0000000), wk =   0.0277778
        k(   13) = (   0.0156294   0.0809765   0.0000000), wk =   0.0277778
        k(   14) = (   0.0156294  -0.1166734   0.0000000), wk =   0.0277778
        k(   15) = (   0.0156294  -0.0987052   0.0000000), wk =   0.0277778
        k(   16) = (   0.0156294  -0.0807371   0.0000000), wk =   0.0277778
        k(   17) = (   0.0156294  -0.0627689   0.0000000), wk =   0.0277778
        k(   18) = (   0.0156294  -0.0448007   0.0000000), wk =   0.0277778
        k(   19) = (   0.0156294  -0.0268325   0.0000000), wk =   0.0277778
        k(   20) = (   0.0312588  -0.0177287   0.0000000), wk =   0.0277778
        k(   21) = (   0.0312588   0.0002394   0.0000000), wk =   0.0277778
        k(   22) = (   0.0312588   0.0182076   0.0000000), wk =   0.0277778
        k(   23) = (   0.0312588   0.0361758   0.0000000), wk =   0.0277778
        k(   24) = (   0.0312588   0.0541440   0.0000000), wk =   0.0277778
        k(   25) = (   0.0312588   0.0721121   0.0000000), wk =   0.0277778
        k(   26) = (   0.0312588  -0.1255378   0.0000000), wk =   0.0277778
        k(   27) = (   0.0312588  -0.1075696   0.0000000), wk =   0.0277778
        k(   28) = (   0.0312588  -0.0896014   0.0000000), wk =   0.0277778
        k(   29) = (   0.0312588  -0.0716333   0.0000000), wk =   0.0277778
        k(   30) = (   0.0312588  -0.0536651   0.0000000), wk =   0.0277778
        k(   31) = (   0.0312588  -0.0356969   0.0000000), wk =   0.0277778
        k(   32) = (   0.0468882  -0.0265931   0.0000000), wk =   0.0277778
        k(   33) = (   0.0468882  -0.0086249   0.0000000), wk =   0.0277778
        k(   34) = (   0.0468882   0.0093432   0.0000000), wk =   0.0277778
        k(   35) = (   0.0468882   0.0273114   0.0000000), wk =   0.0277778
        k(   36) = (   0.0468882   0.0452796   0.0000000), wk =   0.0277778
        k(   37) = (   0.0468882   0.0632478   0.0000000), wk =   0.0277778
        k(   38) = (   0.0468882  -0.1344022   0.0000000), wk =   0.0277778
        k(   39) = (   0.0468882  -0.1164340   0.0000000), wk =   0.0277778
        k(   40) = (   0.0468882  -0.0984658   0.0000000), wk =   0.0277778
        k(   41) = (   0.0468882  -0.0804976   0.0000000), wk =   0.0277778
        k(   42) = (   0.0468882  -0.0625295   0.0000000), wk =   0.0277778
        k(   43) = (   0.0468882  -0.0445613   0.0000000), wk =   0.0277778
        k(   44) = (   0.0625176  -0.0354575   0.0000000), wk =   0.0277778
        k(   45) = (   0.0625176  -0.0174893   0.0000000), wk =   0.0277778
        k(   46) = (   0.0625176   0.0004789   0.0000000), wk =   0.0277778
        k(   47) = (   0.0625176   0.0184470   0.0000000), wk =   0.0277778
        k(   48) = (   0.0625176   0.0364152   0.0000000), wk =   0.0277778
        k(   49) = (   0.0625176   0.0543834   0.0000000), wk =   0.0277778
        k(   50) = (   0.0625176  -0.1432665   0.0000000), wk =   0.0277778
        k(   51) = (   0.0625176  -0.1252984   0.0000000), wk =   0.0277778
        k(   52) = (   0.0625176  -0.1073302   0.0000000), wk =   0.0277778
        k(   53) = (   0.0625176  -0.0893620   0.0000000), wk =   0.0277778
        k(   54) = (   0.0625176  -0.0713938   0.0000000), wk =   0.0277778
        k(   55) = (   0.0625176  -0.0534257   0.0000000), wk =   0.0277778
        k(   56) = (   0.0781470  -0.0443219   0.0000000), wk =   0.0277778
        k(   57) = (   0.0781470  -0.0263537   0.0000000), wk =   0.0277778
        k(   58) = (   0.0781470  -0.0083855   0.0000000), wk =   0.0277778
        k(   59) = (   0.0781470   0.0095827   0.0000000), wk =   0.0277778
        k(   60) = (   0.0781470   0.0275508   0.0000000), wk =   0.0277778
        k(   61) = (   0.0781470   0.0455190   0.0000000), wk =   0.0277778
        k(   62) = (   0.0781470  -0.1521309   0.0000000), wk =   0.0277778
        k(   63) = (   0.0781470  -0.1341627   0.0000000), wk =   0.0277778
        k(   64) = (   0.0781470  -0.1161946   0.0000000), wk =   0.0277778
        k(   65) = (   0.0781470  -0.0982264   0.0000000), wk =   0.0277778
        k(   66) = (   0.0781470  -0.0802582   0.0000000), wk =   0.0277778
        k(   67) = (   0.0781470  -0.0622900   0.0000000), wk =   0.0277778
        k(   68) = (  -0.0937764   0.0531862   0.0000000), wk =   0.0138889
        k(   69) = (  -0.0937764   0.0711544   0.0000000), wk =   0.0277778
        k(   70) = (  -0.0937764   0.0891226   0.0000000), wk =   0.0277778
        k(   71) = (  -0.0937764   0.1070907   0.0000000), wk =   0.0277778
        k(   72) = (  -0.0937764   0.1250589   0.0000000), wk =   0.0277778
        k(   73) = (  -0.0937764   0.1430271   0.0000000), wk =   0.0277778
        k(   74) = (  -0.0937764  -0.0546228   0.0000000), wk =   0.0138889

     Initial potential from superposition of free atoms

     starting charge  167.99568, renormalised to  168.00000

     negative rho (up, down):  1.062E-03 0.000E+00

     %%%%%%%%%%%%%%%%%%%%%%%%%%%%%%%%%%%%%%%%%%%%%%%%%%%%%%%%%%%%%%%%%%%%%%%%
     %                                                                      %
     % You are using vdW-DF, which was implemented by the Thonhauser group. %
     % Please cite the following two papers that made this development      %
     % possible and the two reviews that describe the various versions:     %
     %                                                                      %
     %   T. Thonhauser et al., PRL 115, 136402 (2015).                      %
     %   T. Thonhauser et al., PRB 76, 125112 (2007).                       %
     %   K. Berland et al., Rep. Prog. Phys. 78, 066501 (2015).             %
     %   D.C. Langreth et al., J. Phys.: Condens. Matter 21, 084203 (2009). %
     %                                                                      %
     %                                                                      %
     % If you are calculating the stress with vdW-DF, please also cite:     %
     %                                                                      %
     %   R. Sabatini et al., J. Phys.: Condens. Matter 24, 424209 (2012).   %
     %                                                                      %
     %%%%%%%%%%%%%%%%%%%%%%%%%%%%%%%%%%%%%%%%%%%%%%%%%%%%%%%%%%%%%%%%%%%%%%%%

     Adding external electric field

     Computed dipole along edir(3) :
        Dipole               -0.0000 Ry au,         -0.0000 Debye
        Dipole field         -0.0000 Ry au,

        Potential amp.        0.0000 Ry
        Total length         44.8879 bohr

     Starting wfcs are  114 randomized atomic wfcs

     Self-consistent Calculation

     iteration #  1     ecut=    55.12 Ry     beta= 0.10
     Davidson diagonalization with overlap
     ethr =  1.00E-02,  avg # of iterations =  4.7

[...]

     total energy              =   -2107.48570981 Ry
     estimated scf accuracy    <      12.25278433 Ry

[...]

     iteration #  6     ecut=    55.12 Ry     beta= 0.10
     Davidson diagonalization with overlap
     c_bands:  1 eigenvalues not converged
     c_bands:  1 eigenvalues not converged
     ethr =  1.77E-04,  avg # of iterations =  9.9

[...]

     iteration #  8     ecut=    55.12 Ry     beta= 0.10
     Davidson diagonalization with overlap
     c_bands:  1 eigenvalues not converged
     c_bands:  1 eigenvalues not converged
     c_bands:  1 eigenvalues not converged
     ethr =  1.77E-05,  avg # of iterations =  4.2

[...]

     total energy              =   -2108.78401606 Ry
     estimated scf accuracy    <       0.00021794 Ry

     iteration # 14     ecut=    55.12 Ry     beta= 0.10
     Davidson diagonalization with overlap
     ethr =  1.30E-07,  avg # of iterations =  1.1

[...]

     Adding external electric field

     Computed dipole along edir(3) :
        Dipole               -0.0017 Ry au,         -0.0043 Debye
        Dipole field         -0.0000 Ry au,

        Potential amp.        0.0005 Ry
        Total length         44.8879 bohr

     End of self-consistent calculation

          k = 0.0000 0.0000 0.0000 ( 28027 PWs)   bands (ev):

   -77.7393 -77.7014 -77.4469 -77.4088 -77.3985 -77.3603 -45.7924 -45.7842
   -45.7427 -45.6055 -45.5750 -45.4745 -45.4349 -45.4071 -45.3161 -45.2773
   -45.2526 -45.2214 -45.2138 -45.1903 -45.1790 -45.1397 -45.1332 -45.0940
    -6.4834  -4.8569  -4.3883  -4.3780  -4.2396  -3.8798  -3.6665  -3.6188
    -3.5193  -3.5086  -3.4364  -3.3656  -3.3446  -3.3187  -2.9909  -2.6136
    -2.4211  -2.3427  -2.1387  -2.1068  -2.0705  -1.9999  -1.9830  -1.8919
    -1.8339  -1.7911  -1.7698  -1.7314  -1.7133  -1.7064  -1.5860  -1.5387
    -1.5219  -1.2261  -1.1682  -1.0817  -1.0518  -0.9660  -0.9243  -0.8468
    -0.8372  -0.7338  -0.6673  -0.4093  -0.3851  -0.3420  -0.2729  -0.2328
    -0.0175  -0.0045   0.1350   0.2786   0.3824   0.4742   0.6271   0.6516
     0.6706   0.8339   0.8684   0.9628   0.9860   0.9865   1.4305   1.6214
     1.9197   2.2402   2.3333   3.4530   3.4688   3.6512   3.6657   3.8041
     3.9787   4.9720   5.2485   5.6590   6.4333

[...]

          k = 0.0781-0.0623 0.0000 ( 28130 PWs)   bands (ev):

[...]

          k =-0.0938 0.0532 0.0000 ( 28122 PWs)   bands (ev):

[...]

          k =-0.0938-0.0546 0.0000 ( 28112 PWs)   bands (ev):

   -77.7392 -77.7014 -77.4469 -77.4088 -77.3985 -77.3603 -45.7929 -45.7849
   -45.7426 -45.6058 -45.5753 -45.4761 -45.4344 -45.4071 -45.3168 -45.2775
   -45.2530 -45.2215 -45.2143 -45.1904 -45.1789 -45.1398 -45.1332 -45.0943
    -4.8729  -4.7341  -3.7842  -3.7089  -3.5025  -3.4121  -3.2848  -3.1794
    -3.1134  -3.0792  -2.8961  -2.8850  -2.7898  -2.6446  -2.6244  -2.5219
    -2.4568  -2.4322  -2.3648  -2.3227  -2.2811  -2.1488  -1.9863  -1.9811
    -1.8175  -1.7881  -1.7841  -1.7584  -1.7490  -1.7438  -1.6900  -1.6802
    -1.6280  -1.5847  -1.5549  -1.5223  -1.4908  -1.4457  -1.3612  -1.3277
    -1.3182  -1.3106  -1.2818  -1.2144  -1.1235  -1.1210  -1.0607  -0.9555
    -0.6900  -0.5073  -0.4270  -0.3847  -0.3749  -0.3702   0.1656   0.2691
     0.3008   0.4577   0.5079   0.5216   0.6047   0.7104   0.9339   1.1498
     1.7081   2.0134   2.7754   2.8559   3.9000   4.3176   4.6466   4.9810
     5.3540   5.8066   6.5598   6.6005   7.1475

     the Fermi energy is     0.6132 ev

!    total energy              =   -2108.78403507 Ry
     estimated scf accuracy    <       0.00000962 Ry
     smearing contrib. (-TS)   =      -0.08490804 Ry
     internal energy E=F+TS    =   -2108.69912703 Ry

     The total energy is F=E-TS. E is the sum of the following terms:
     one-electron contribution =  -17544.55599884 Ry
     hartree contribution      =    8845.12671226 Ry
     xc contribution           =    -459.93965674 Ry
     ewald contribution        =    7050.66981627 Ry
     electric field correction =       0.00000001 Ry

     convergence has been achieved in  14 iterations

     negative rho (up, down):  1.155E-03 0.000E+00

     Forces acting on atoms (cartesian axes, Ry/au):

     atom    1 type  1   force =     0.00474360    0.00313348   -0.00220189
     atom    2 type  1   force =     0.00507435    0.00258896   -0.00220208
     atom    3 type  2   force =     0.00252859    0.00147274    0.00697413
     atom    4 type  2   force =     0.00261085    0.00152268    0.00706677
     atom    5 type  1   force =    -0.00168374   -0.00096163   -0.00225572
     atom    6 type  1   force =    -0.00166508   -0.00098905   -0.00226157
     atom    7 type  2   force =    -0.00443809   -0.00258688   -0.00079224
     atom    8 type  2   force =    -0.00443994   -0.00258363   -0.00080076
     atom    9 type  1   force =    -0.00013618   -0.00038794   -0.00081138
     atom   10 type  1   force =    -0.00039462    0.00007234   -0.00081824
     atom   11 type  2   force =    -0.00106102   -0.00061916   -0.00090170
     atom   12 type  2   force =    -0.00113872   -0.00066192   -0.00099531

     Total force =     0.016408     Total SCF correction =     0.010626
     SCF correction compared to forces is large: reduce conv_thr to get better values

     Writing output data file ./Cu2Rh2/Cu2Rh2_beef.save/

     General routines

     Parallel routines

   This run was terminated on:   2:36:20  11Jul2022

   JOB DONE.