     Program PWSCF v.6.6 starts on 24Jun2022 at 11: 0: 0

     R & G space division:  proc/nbgrp/npool/nimage =      37
     Fft bands division:     nmany     =       1
     Reading input from Cu2Ta2.in
Warning: card &CELL ignored
Warning: card / ignored

     Current dimensions of program PWSCF are:
     Max number of different atomic species (ntypx) = 10
     Max number of k-points (npk) =  40000
     Max angular momentum in pseudopotentials (lmaxx) =  3
     Presently stress not available with electric field and gates

     Message from routine cell_base_init:
     DEPRECATED: use true lattice parameter, not A to a.u. conversion factor
     file Cu.pbe-dn-rrkjus_psl.1.0.0.UPF: wavefunction(s)  3D renormalized
     file Ta.pbe-spfn-rrkjus_psl.1.0.0.UPF: wavefunction(s)  5S 5P renormalized

     IMPORTANT: XC functional enforced from input :
     Exchange-correlation= BEEF-VDW
                           (   1   4  43  14   2   0   0)
     Any further DFT definition will be discarded
     Please, verify this is what you really want

     Subspace diagonalization in iterative solution of the eigenvalue problem:
     a serial algorithm will be used

     Found symmetry operation: I + ( -0.5000 -0.5000  0.0000)
     This is a supercell, fractional translations are disabled

     bravais-lattice index     =            0
     lattice parameter (alat)  =       1.8897  a.u.
     unit-cell volume          =    4437.7303 (a.u.)^3
     number of atoms/cell      =           12
     number of atomic types    =            2
     number of electrons       =       228.00
     number of Kohn-Sham states=          137
     kinetic-energy cutoff     =      55.1240  Ry
     charge density cutoff     =     551.2396  Ry
     convergence threshold     =      1.0E-05
     mixing beta               =       0.1000
     number of iterations used =           10  plain     mixing
     Exchange-correlation= BEEF-VDW
                           (   1   4  43  14   2   0   0)

     celldm(1)=   1.889726  celldm(2)=   0.000000  celldm(3)=   0.000000
     celldm(4)=   0.000000  celldm(5)=   0.000000  celldm(6)=   0.000000

     crystal axes: (cart. coord. in units of alat)
               a(1) = (   5.540645   0.000000   0.000000 )
               a(2) = (   2.703497   4.836305   0.000000 )
               a(3) = (   0.000000   0.000000  24.540894 )

     reciprocal axes: (cart. coord. in units 2 pi/alat)
               b(1) = (  0.180484 -0.100891  0.000000 )
               b(2) = (  0.000000  0.206769  0.000000 )
               b(3) = (  0.000000  0.000000  0.040748 )

     PseudoPot. # 1 for Cu read from file:
     ../pseudo/Cu.pbe-dn-rrkjus_psl.1.0.0.UPF
     MD5 check sum: 8469560995d0c2df1ffe68c099c04a63
     Pseudo is Ultrasoft + core correction, Zval = 11.0
     Generated using "atomic" code by A. Dal Corso v.6.3
     Using radial grid of 1199 points,  6 beta functions with:
                l(1) =   0
                l(2) =   0
                l(3) =   1
                l(4) =   1
                l(5) =   2
                l(6) =   2
     Q(r) pseudized with 0 coefficients

     PseudoPot. # 2 for Ta read from file:
     ../pseudo/Ta.pbe-spfn-rrkjus_psl.1.0.0.UPF
     MD5 check sum: 39d7d349fe394e56adf8454eb9315fbb
     Pseudo is Ultrasoft + core correction, Zval = 27.0
     Generated using "atomic" code by A. Dal Corso v.6.3
     Using radial grid of 1273 points,  8 beta functions with:
                l(1) =   0
                l(2) =   0
                l(3) =   1
                l(4) =   1
                l(5) =   2
                l(6) =   2
                l(7) =   3
                l(8) =   3
     Q(r) pseudized with 0 coefficients

     atomic species   valence    mass     pseudopotential
        Cu            11.00    63.54600     Cu( 1.00)
        Ta            27.00   180.94788     Ta( 1.00)

     No symmetry found

   Cartesian axes

     site n.     atom                  positions (alat units)
         1           Cu  tau(   1) = (   0.0000000   0.0000000  10.0000000  )
         2           Cu  tau(   2) = (   4.1220712   2.4181527  10.0000000  )
         3           Ta  tau(   3) = (   2.7703226   0.0000000  10.0000000  )
         4           Ta  tau(   4) = (   1.3517487   2.4181527  10.0000000  )
         5           Cu  tau(   5) = (   5.5406451   3.2503383  12.2704470  )
         6           Cu  tau(   6) = (   1.4185739   0.8321856  12.2704470  )
         7           Ta  tau(   7) = (   2.7703226   3.2503383  12.2704470  )
         8           Ta  tau(   8) = (   4.1888964   0.8321856  12.2704470  )
         9           Cu  tau(   9) = (   2.8194786   1.6540090  14.5470440  )
        10           Cu  tau(  10) = (   6.9415526   4.0721593  14.5470422  )
        11           Ta  tau(  11) = (   5.6028770   1.6616756  14.4500390  )
        12           Ta  tau(  12) = (   4.1843031   4.0798287  14.4500382  )

     number of k points=    74  Fermi-Dirac smearing, width (Ry)=  0.0100
                       cart. coord. in units 2pi/alat
        k(    1) = (   0.0000000   0.0000000   0.0000000), wk =   0.0138889
        k(    2) = (   0.0000000   0.0172308   0.0000000), wk =   0.0277778
        k(    3) = (   0.0000000   0.0344616   0.0000000), wk =   0.0277778
        k(    4) = (   0.0000000   0.0516924   0.0000000), wk =   0.0277778
        k(    5) = (   0.0000000   0.0689231   0.0000000), wk =   0.0277778
        k(    6) = (   0.0000000   0.0861539   0.0000000), wk =   0.0277778
        k(    7) = (   0.0000000  -0.1033847   0.0000000), wk =   0.0138889
        k(    8) = (   0.0150404  -0.0084076   0.0000000), wk =   0.0277778
        k(    9) = (   0.0150404   0.0088232   0.0000000), wk =   0.0277778
        k(   10) = (   0.0150404   0.0260540   0.0000000), wk =   0.0277778
        k(   11) = (   0.0150404   0.0432848   0.0000000), wk =   0.0277778
        k(   12) = (   0.0150404   0.0605156   0.0000000), wk =   0.0277778
        k(   13) = (   0.0150404   0.0777464   0.0000000), wk =   0.0277778
        k(   14) = (   0.0150404  -0.1117923   0.0000000), wk =   0.0277778
        k(   15) = (   0.0150404  -0.0945615   0.0000000), wk =   0.0277778
        k(   16) = (   0.0150404  -0.0773307   0.0000000), wk =   0.0277778
        k(   17) = (   0.0150404  -0.0600999   0.0000000), wk =   0.0277778
        k(   18) = (   0.0150404  -0.0428691   0.0000000), wk =   0.0277778
        k(   19) = (   0.0150404  -0.0256384   0.0000000), wk =   0.0277778
        k(   20) = (   0.0300807  -0.0168151   0.0000000), wk =   0.0277778
        k(   21) = (   0.0300807   0.0004156   0.0000000), wk =   0.0277778
        k(   22) = (   0.0300807   0.0176464   0.0000000), wk =   0.0277778
        k(   23) = (   0.0300807   0.0348772   0.0000000), wk =   0.0277778
        k(   24) = (   0.0300807   0.0521080   0.0000000), wk =   0.0277778
        k(   25) = (   0.0300807   0.0693388   0.0000000), wk =   0.0277778
        k(   26) = (   0.0300807  -0.1201999   0.0000000), wk =   0.0277778
        k(   27) = (   0.0300807  -0.1029691   0.0000000), wk =   0.0277778
        k(   28) = (   0.0300807  -0.0857383   0.0000000), wk =   0.0277778
        k(   29) = (   0.0300807  -0.0685075   0.0000000), wk =   0.0277778
        k(   30) = (   0.0300807  -0.0512767   0.0000000), wk =   0.0277778
        k(   31) = (   0.0300807  -0.0340459   0.0000000), wk =   0.0277778
        k(   32) = (   0.0451211  -0.0252227   0.0000000), wk =   0.0277778
        k(   33) = (   0.0451211  -0.0079919   0.0000000), wk =   0.0277778
        k(   34) = (   0.0451211   0.0092389   0.0000000), wk =   0.0277778
        k(   35) = (   0.0451211   0.0264696   0.0000000), wk =   0.0277778
        k(   36) = (   0.0451211   0.0437004   0.0000000), wk =   0.0277778
        k(   37) = (   0.0451211   0.0609312   0.0000000), wk =   0.0277778
        k(   38) = (   0.0451211  -0.1286074   0.0000000), wk =   0.0277778
        k(   39) = (   0.0451211  -0.1113766   0.0000000), wk =   0.0277778
        k(   40) = (   0.0451211  -0.0941459   0.0000000), wk =   0.0277778
        k(   41) = (   0.0451211  -0.0769151   0.0000000), wk =   0.0277778
        k(   42) = (   0.0451211  -0.0596843   0.0000000), wk =   0.0277778
        k(   43) = (   0.0451211  -0.0424535   0.0000000), wk =   0.0277778
        k(   44) = (   0.0601615  -0.0336303   0.0000000), wk =   0.0277778
        k(   45) = (   0.0601615  -0.0163995   0.0000000), wk =   0.0277778
        k(   46) = (   0.0601615   0.0008313   0.0000000), wk =   0.0277778
        k(   47) = (   0.0601615   0.0180621   0.0000000), wk =   0.0277778
        k(   48) = (   0.0601615   0.0352928   0.0000000), wk =   0.0277778
        k(   49) = (   0.0601615   0.0525236   0.0000000), wk =   0.0277778
        k(   50) = (   0.0601615  -0.1370150   0.0000000), wk =   0.0277778
        k(   51) = (   0.0601615  -0.1197842   0.0000000), wk =   0.0277778
        k(   52) = (   0.0601615  -0.1025534   0.0000000), wk =   0.0277778
        k(   53) = (   0.0601615  -0.0853226   0.0000000), wk =   0.0277778
        k(   54) = (   0.0601615  -0.0680919   0.0000000), wk =   0.0277778
        k(   55) = (   0.0601615  -0.0508611   0.0000000), wk =   0.0277778
        k(   56) = (   0.0752018  -0.0420379   0.0000000), wk =   0.0277778
        k(   57) = (   0.0752018  -0.0248071   0.0000000), wk =   0.0277778
        k(   58) = (   0.0752018  -0.0075763   0.0000000), wk =   0.0277778
        k(   59) = (   0.0752018   0.0096545   0.0000000), wk =   0.0277778
        k(   60) = (   0.0752018   0.0268853   0.0000000), wk =   0.0277778
        k(   61) = (   0.0752018   0.0441161   0.0000000), wk =   0.0277778
        k(   62) = (   0.0752018  -0.1454226   0.0000000), wk =   0.0277778
        k(   63) = (   0.0752018  -0.1281918   0.0000000), wk =   0.0277778
        k(   64) = (   0.0752018  -0.1109610   0.0000000), wk =   0.0277778
        k(   65) = (   0.0752018  -0.0937302   0.0000000), wk =   0.0277778
        k(   66) = (   0.0752018  -0.0764994   0.0000000), wk =   0.0277778
        k(   67) = (   0.0752018  -0.0592686   0.0000000), wk =   0.0277778
        k(   68) = (  -0.0902422   0.0504454   0.0000000), wk =   0.0138889
        k(   69) = (  -0.0902422   0.0676762   0.0000000), wk =   0.0277778
        k(   70) = (  -0.0902422   0.0849070   0.0000000), wk =   0.0277778
        k(   71) = (  -0.0902422   0.1021378   0.0000000), wk =   0.0277778
        k(   72) = (  -0.0902422   0.1193686   0.0000000), wk =   0.0277778
        k(   73) = (  -0.0902422   0.1365994   0.0000000), wk =   0.0277778
        k(   74) = (  -0.0902422  -0.0529393   0.0000000), wk =   0.0138889

     Initial potential from superposition of free atoms

     starting charge  227.99355, renormalised to  228.00000

     negative rho (up, down):  1.828E-04 0.000E+00

     %%%%%%%%%%%%%%%%%%%%%%%%%%%%%%%%%%%%%%%%%%%%%%%%%%%%%%%%%%%%%%%%%%%%%%%%
     %                                                                      %
     % You are using vdW-DF, which was implemented by the Thonhauser group. %
     % Please cite the following two papers that made this development      %
     % possible and the two reviews that describe the various versions:     %
     %                                                                      %
     %   T. Thonhauser et al., PRL 115, 136402 (2015).                      %
     %   T. Thonhauser et al., PRB 76, 125112 (2007).                       %
     %   K. Berland et al., Rep. Prog. Phys. 78, 066501 (2015).             %
     %   D.C. Langreth et al., J. Phys.: Condens. Matter 21, 084203 (2009). %
     %                                                                      %
     %                                                                      %
     % If you are calculating the stress with vdW-DF, please also cite:     %
     %                                                                      %
     %   R. Sabatini et al., J. Phys.: Condens. Matter 24, 424209 (2012).   %
     %                                                                      %
     %%%%%%%%%%%%%%%%%%%%%%%%%%%%%%%%%%%%%%%%%%%%%%%%%%%%%%%%%%%%%%%%%%%%%%%%

     Adding external electric field

     Computed dipole along edir(3) :
        Dipole               -0.0000 Ry au,         -0.0001 Debye
        Dipole field         -0.0000 Ry au,

        Potential amp.        0.0000 Ry
        Total length         45.2162 bohr

     Starting wfcs are  156 randomized atomic wfcs

     Self-consistent Calculation

     iteration #  1     ecut=    55.12 Ry     beta= 0.10
     Davidson diagonalization with overlap
     ethr =  1.00E-02,  avg # of iterations =  3.3

[...]

     total energy              =   -4835.73198759 Ry
     estimated scf accuracy    <       2.44117505 Ry

[...]

     iteration #  5     ecut=    55.12 Ry     beta= 0.10
     Davidson diagonalization with overlap
     c_bands:  2 eigenvalues not converged
     c_bands:  1 eigenvalues not converged
     c_bands:  1 eigenvalues not converged
     c_bands:  1 eigenvalues not converged
     ethr =  1.25E-04,  avg # of iterations =  9.4

[...]

     iteration #  8     ecut=    55.12 Ry     beta= 0.10
     Davidson diagonalization with overlap
     c_bands:  1 eigenvalues not converged
     c_bands:  1 eigenvalues not converged
     ethr =  6.29E-06,  avg # of iterations =  7.3

[...]

     total energy              =   -4835.83562108 Ry
     estimated scf accuracy    <       0.00004146 Ry

     iteration # 13     ecut=    55.12 Ry     beta= 0.10
     Davidson diagonalization with overlap
     ethr =  1.82E-08,  avg # of iterations =  2.2

[...]

     Adding external electric field

     Computed dipole along edir(3) :
        Dipole               -0.0131 Ry au,         -0.0334 Debye
        Dipole field         -0.0000 Ry au,

        Potential amp.        0.0034 Ry
        Total length         45.2162 bohr

     End of self-consistent calculation

          k = 0.0000 0.0000 0.0000 ( 30745 PWs)   bands (ev):

   -66.9927 -66.9325 -66.9039 -66.8433 -66.6223 -66.5607 -33.5612 -33.5102
   -33.4892 -33.3905 -33.3796 -33.3599 -33.3231 -33.2892 -33.2522 -33.2261
   -33.1514 -33.0547 -32.9422 -32.6678 -32.6377 -32.6098 -32.5450 -32.4563
   -18.7020 -18.7003 -18.6997 -18.6981 -18.6666 -18.6551 -18.6493 -18.6443
   -18.6432 -18.6211 -18.6170 -18.6072 -18.6014 -18.5991 -18.5983 -18.5964
   -18.5808 -18.5749 -18.5676 -18.5619 -18.5558 -18.5523 -18.5506 -18.5295
   -18.5256 -18.5167 -18.4898 -18.4778 -18.3149 -18.3115 -18.2825 -18.2810
   -18.2807 -18.2797 -18.2683 -18.2656 -18.2425 -18.2414 -18.2327 -18.2260
   -18.2042 -18.2034  -6.3902  -4.6516  -3.6130  -3.3723  -3.2384  -3.0415
    -2.9387  -2.9141  -2.7845  -2.6268  -2.5458  -2.5041  -2.4756  -2.4327
    -2.4274  -1.8203  -1.8170  -1.7216  -1.6822  -1.6790  -1.6043  -1.5903
    -1.5314  -1.5206  -1.4560  -1.4341  -1.3472  -1.3253  -1.2760  -1.0480
    -1.0081  -0.8175  -0.6478  -0.2027  -0.1701  -0.0878   0.0233   0.1041
     0.1705   0.3580   0.4137   0.7629   0.7812   0.9606   1.3837   1.4096
     1.7428   1.9523   2.0867   2.1032   2.6356   2.7923   2.9169   2.9610
     3.1209   3.1963   3.5154   3.8422   3.9885   4.3707   4.4670   4.8874
     4.9626   5.0292   5.2649   5.3111   5.3968   5.4569   5.5123   5.5662
     5.8318

[...]

          k = 0.0752-0.0593 0.0000 ( 30627 PWs)   bands (ev):

[...]

          k =-0.0902 0.0504 0.0000 ( 30628 PWs)   bands (ev):

[...]

          k =-0.0902-0.0529 0.0000 ( 30682 PWs)   bands (ev):

   -66.9927 -66.9325 -66.9038 -66.8433 -66.6223 -66.5606 -33.5637 -33.5124
   -33.4940 -33.3939 -33.3784 -33.3595 -33.3310 -33.2878 -33.2564 -33.2212
   -33.1508 -33.0488 -32.9493 -32.6679 -32.6370 -32.6098 -32.5462 -32.4571
   -18.7023 -18.7002 -18.6996 -18.6982 -18.6667 -18.6555 -18.6493 -18.6443
   -18.6433 -18.6213 -18.6171 -18.6072 -18.6016 -18.5991 -18.5982 -18.5964
   -18.5808 -18.5749 -18.5677 -18.5623 -18.5559 -18.5524 -18.5506 -18.5296
   -18.5257 -18.5167 -18.4898 -18.4779 -18.3150 -18.3116 -18.2826 -18.2812
   -18.2809 -18.2801 -18.2683 -18.2656 -18.2426 -18.2415 -18.2327 -18.2260
   -18.2043 -18.2035  -4.5741  -4.4948  -3.2669  -2.9462  -2.6370  -2.5327
    -2.4902  -2.4539  -2.3978  -2.2899  -2.2076  -2.0879  -2.0459  -1.9532
    -1.9312  -1.9260  -1.8206  -1.8102  -1.6824  -1.5898  -1.5300  -1.5041
    -1.5007  -1.4944  -1.4808  -1.4658  -1.4006  -1.2911  -1.2625  -1.2228
    -1.1785  -1.0947  -1.0864  -1.0617  -0.9846  -0.8360  -0.7160  -0.3428
    -0.1859  -0.1282  -0.1279  -0.0402   0.0248   0.0571   0.0957   0.4019
     0.5151   0.9203   1.0117   1.6121   1.6680   1.6711   2.6520   2.7517
     2.9357   3.0725   3.4661   3.9164   4.1377   4.4386   4.5199   4.7110
     4.8717   4.9031   5.2728   5.4780   5.8352   6.0407   6.4244   6.5490
     6.7920

     the Fermi energy is     1.6497 ev

!    total energy              =   -4835.83562534 Ry
     estimated scf accuracy    <       0.00000864 Ry
     smearing contrib. (-TS)   =      -0.04851566 Ry
     internal energy E=F+TS    =   -4835.78710968 Ry

     The total energy is F=E-TS. E is the sum of the following terms:
     one-electron contribution =  -31811.70833579 Ry
     hartree contribution      =   16075.37022742 Ry
     xc contribution           =    -688.97224166 Ry
     ewald contribution        =   11589.52323986 Ry
     electric field correction =       0.00000049 Ry

     convergence has been achieved in  13 iterations

     negative rho (up, down):  2.884E-04 0.000E+00

     Forces acting on atoms (cartesian axes, Ry/au):

     atom    1 type  1   force =     0.00477311    0.00280587   -0.00376967
     atom    2 type  1   force =     0.00477440    0.00279491   -0.00377998
     atom    3 type  2   force =    -0.00119116   -0.00069781    0.01678261
     atom    4 type  2   force =    -0.00119506   -0.00070968    0.01678921
     atom    5 type  1   force =     0.00220140    0.00128164   -0.01068975
     atom    6 type  1   force =     0.00218749    0.00128783   -0.01069016
     atom    7 type  2   force =    -0.00790565   -0.00462331   -0.01077439
     atom    8 type  2   force =    -0.00789303   -0.00463612   -0.01077714
     atom    9 type  1   force =    -0.00077820   -0.00045207   -0.00016138
     atom   10 type  1   force =    -0.00078099   -0.00046318   -0.00015916
     atom   11 type  2   force =     0.00291486    0.00171029    0.00861064
     atom   12 type  2   force =     0.00289284    0.00170163    0.00861918

     Total force =     0.038358     Total SCF correction =     0.038656
     SCF correction compared to forces is large: reduce conv_thr to get better values

     Writing output data file ./Cu2Ta2/Cu2Ta2_beef.save/

     General routines

     Parallel routines

   This run was terminated on:  12:17: 8  24Jun2022

   JOB DONE.