     Program PWSCF v.6.6 starts on 23Jun2022 at 21:21:33

     R & G space division:  proc/nbgrp/npool/nimage =      37
     Fft bands division:     nmany     =       1
     Reading input from Cu2Tc2.in
Warning: card &CELL ignored
Warning: card / ignored

     Current dimensions of program PWSCF are:
     Max number of different atomic species (ntypx) = 10
     Max number of k-points (npk) =  40000
     Max angular momentum in pseudopotentials (lmaxx) =  3
     Presently stress not available with electric field and gates

     Message from routine cell_base_init:
     DEPRECATED: use true lattice parameter, not A to a.u. conversion factor
     file Cu.pbe-dn-rrkjus_psl.1.0.0.UPF: wavefunction(s)  3D renormalized
     file Tc.pbe-spn-rrkjus_psl.0.3.0.UPF: wavefunction(s)  4S 4P renormalized

     IMPORTANT: XC functional enforced from input :
     Exchange-correlation= BEEF-VDW
                           (   1   4  43  14   2   0   0)
     Any further DFT definition will be discarded
     Please, verify this is what you really want

     Subspace diagonalization in iterative solution of the eigenvalue problem:
     a serial algorithm will be used

     Found symmetry operation: I + ( -0.5000  0.0000  0.0000)
     This is a supercell, fractional translations are disabled

     bravais-lattice index     =            0
     lattice parameter (alat)  =       1.8897  a.u.
     unit-cell volume          =    4062.9636 (a.u.)^3
     number of atoms/cell      =           12
     number of atomic types    =            2
     number of electrons       =       156.00
     number of Kohn-Sham states=           94
     kinetic-energy cutoff     =      55.1240  Ry
     charge density cutoff     =     551.2396  Ry
     convergence threshold     =      1.0E-05
     mixing beta               =       0.1000
     number of iterations used =           10  plain     mixing
     Exchange-correlation= BEEF-VDW
                           (   1   4  43  14   2   0   0)

     celldm(1)=   1.889726  celldm(2)=   0.000000  celldm(3)=   0.000000
     celldm(4)=   0.000000  celldm(5)=   0.000000  celldm(6)=   0.000000

     crystal axes: (cart. coord. in units of alat)
               a(1) = (   5.081374   0.000000   0.000000 )
               a(2) = (  -2.540687   4.868989   0.000000 )
               a(3) = (   0.000000   0.000000  24.334726 )

     reciprocal axes: (cart. coord. in units 2 pi/alat)
               b(1) = (  0.196797  0.102691 -0.000000 )
               b(2) = (  0.000000  0.205381  0.000000 )
               b(3) = (  0.000000 -0.000000  0.041094 )

     PseudoPot. # 1 for Cu read from file:
     ../pseudo/Cu.pbe-dn-rrkjus_psl.1.0.0.UPF
     MD5 check sum: 8469560995d0c2df1ffe68c099c04a63
     Pseudo is Ultrasoft + core correction, Zval = 11.0
     Generated using "atomic" code by A. Dal Corso v.6.3
     Using radial grid of 1199 points,  6 beta functions with:
                l(1) =   0
                l(2) =   0
                l(3) =   1
                l(4) =   1
                l(5) =   2
                l(6) =   2
     Q(r) pseudized with 0 coefficients

     PseudoPot. # 2 for Tc read from file:
     ../pseudo/Tc.pbe-spn-rrkjus_psl.0.3.0.UPF
     MD5 check sum: 5f147c0bf103030af994b79b1f5562e4
     Pseudo is Ultrasoft + core correction, Zval = 15.0
     Generated using "atomic" code by A. Dal Corso v.6.2.2
     Using radial grid of 1231 points,  6 beta functions with:
                l(1) =   0
                l(2) =   0
                l(3) =   1
                l(4) =   1
                l(5) =   2
                l(6) =   2
     Q(r) pseudized with 0 coefficients

     atomic species   valence    mass     pseudopotential
        Cu            11.00    63.54600     Cu( 1.00)
        Tc            15.00    97.90721     Tc( 1.00)

     No symmetry found

   Cartesian axes

     site n.     atom                  positions (alat units)
         1           Cu  tau(   1) = (   0.0000000   0.0000000  10.0000000  )
         2           Cu  tau(   2) = (   2.5406872   0.0000000  10.0000000  )
         3           Tc  tau(   3) = (   1.2703436   2.4344945  10.0000000  )
         4           Tc  tau(   4) = (  -1.2703436   2.4344945  10.0000000  )
         5           Cu  tau(   5) = (   2.5406872   1.3257560  12.1673630  )
         6           Cu  tau(   6) = (   0.0000000   1.3257560  12.1673630  )
         7           Tc  tau(   7) = (  -1.2703436   3.7602506  12.1673630  )
         8           Tc  tau(   8) = (   1.2703436   3.7602506  12.1673630  )
         9           Cu  tau(   9) = (  -0.0000268   2.6444423  14.3572101  )
        10           Cu  tau(  10) = (   2.5406219   2.6444530  14.3572083  )
        11           Tc  tau(  11) = (   3.8109656   0.2103034  14.2858983  )
        12           Tc  tau(  12) = (   1.2702811   0.2103397  14.2859172  )

     number of k points=    74  Fermi-Dirac smearing, width (Ry)=  0.0100
                       cart. coord. in units 2pi/alat
        k(    1) = (   0.0000000   0.0000000   0.0000000), wk =   0.0138889
        k(    2) = (   0.0000000   0.0171151   0.0000000), wk =   0.0277778
        k(    3) = (   0.0000000   0.0342302   0.0000000), wk =   0.0277778
        k(    4) = (   0.0000000   0.0513454   0.0000000), wk =   0.0277778
        k(    5) = (   0.0000000   0.0684605   0.0000000), wk =   0.0277778
        k(    6) = (   0.0000000   0.0855756   0.0000000), wk =   0.0277778
        k(    7) = (   0.0000000  -0.1026907   0.0000000), wk =   0.0138889
        k(    8) = (   0.0163998   0.0085576   0.0000000), wk =   0.0277778
        k(    9) = (   0.0163998   0.0256727   0.0000000), wk =   0.0277778
        k(   10) = (   0.0163998   0.0427878   0.0000000), wk =   0.0277778
        k(   11) = (   0.0163998   0.0599029   0.0000000), wk =   0.0277778
        k(   12) = (   0.0163998   0.0770180   0.0000000), wk =   0.0277778
        k(   13) = (   0.0163998   0.0941332   0.0000000), wk =   0.0277778
        k(   14) = (   0.0163998  -0.0941332   0.0000000), wk =   0.0277778
        k(   15) = (   0.0163998  -0.0770180   0.0000000), wk =   0.0277778
        k(   16) = (   0.0163998  -0.0599029   0.0000000), wk =   0.0277778
        k(   17) = (   0.0163998  -0.0427878   0.0000000), wk =   0.0277778
        k(   18) = (   0.0163998  -0.0256727   0.0000000), wk =   0.0277778
        k(   19) = (   0.0163998  -0.0085576   0.0000000), wk =   0.0277778
        k(   20) = (   0.0327995   0.0171151   0.0000000), wk =   0.0277778
        k(   21) = (   0.0327995   0.0342302   0.0000000), wk =   0.0277778
        k(   22) = (   0.0327995   0.0513454   0.0000000), wk =   0.0277778
        k(   23) = (   0.0327995   0.0684605   0.0000000), wk =   0.0277778
        k(   24) = (   0.0327995   0.0855756   0.0000000), wk =   0.0277778
        k(   25) = (   0.0327995   0.1026907   0.0000000), wk =   0.0277778
        k(   26) = (   0.0327995  -0.0855756   0.0000000), wk =   0.0277778
        k(   27) = (   0.0327995  -0.0684605   0.0000000), wk =   0.0277778
        k(   28) = (   0.0327995  -0.0513454   0.0000000), wk =   0.0277778
        k(   29) = (   0.0327995  -0.0342302   0.0000000), wk =   0.0277778
        k(   30) = (   0.0327995  -0.0171151   0.0000000), wk =   0.0277778
        k(   31) = (   0.0327995  -0.0000000   0.0000000), wk =   0.0277778
        k(   32) = (   0.0491993   0.0256727   0.0000000), wk =   0.0277778
        k(   33) = (   0.0491993   0.0427878   0.0000000), wk =   0.0277778
        k(   34) = (   0.0491993   0.0599029   0.0000000), wk =   0.0277778
        k(   35) = (   0.0491993   0.0770180   0.0000000), wk =   0.0277778
        k(   36) = (   0.0491993   0.0941332   0.0000000), wk =   0.0277778
        k(   37) = (   0.0491993   0.1112483   0.0000000), wk =   0.0277778
        k(   38) = (   0.0491993  -0.0770180   0.0000000), wk =   0.0277778
        k(   39) = (   0.0491993  -0.0599029   0.0000000), wk =   0.0277778
        k(   40) = (   0.0491993  -0.0427878   0.0000000), wk =   0.0277778
        k(   41) = (   0.0491993  -0.0256727   0.0000000), wk =   0.0277778
        k(   42) = (   0.0491993  -0.0085576   0.0000000), wk =   0.0277778
        k(   43) = (   0.0491993   0.0085576   0.0000000), wk =   0.0277778
        k(   44) = (   0.0655991   0.0342302   0.0000000), wk =   0.0277778
        k(   45) = (   0.0655991   0.0513454   0.0000000), wk =   0.0277778
        k(   46) = (   0.0655991   0.0684605   0.0000000), wk =   0.0277778
        k(   47) = (   0.0655991   0.0855756   0.0000000), wk =   0.0277778
        k(   48) = (   0.0655991   0.1026907   0.0000000), wk =   0.0277778
        k(   49) = (   0.0655991   0.1198058   0.0000000), wk =   0.0277778
        k(   50) = (   0.0655991  -0.0684605   0.0000000), wk =   0.0277778
        k(   51) = (   0.0655991  -0.0513454   0.0000000), wk =   0.0277778
        k(   52) = (   0.0655991  -0.0342302   0.0000000), wk =   0.0277778
        k(   53) = (   0.0655991  -0.0171151   0.0000000), wk =   0.0277778
        k(   54) = (   0.0655991   0.0000000   0.0000000), wk =   0.0277778
        k(   55) = (   0.0655991   0.0171151   0.0000000), wk =   0.0277778
        k(   56) = (   0.0819988   0.0427878   0.0000000), wk =   0.0277778
        k(   57) = (   0.0819988   0.0599029   0.0000000), wk =   0.0277778
        k(   58) = (   0.0819988   0.0770180   0.0000000), wk =   0.0277778
        k(   59) = (   0.0819988   0.0941332   0.0000000), wk =   0.0277778
        k(   60) = (   0.0819988   0.1112483   0.0000000), wk =   0.0277778
        k(   61) = (   0.0819988   0.1283634   0.0000000), wk =   0.0277778
        k(   62) = (   0.0819988  -0.0599029   0.0000000), wk =   0.0277778
        k(   63) = (   0.0819988  -0.0427878   0.0000000), wk =   0.0277778
        k(   64) = (   0.0819988  -0.0256727   0.0000000), wk =   0.0277778
        k(   65) = (   0.0819988  -0.0085576   0.0000000), wk =   0.0277778
        k(   66) = (   0.0819988   0.0085576   0.0000000), wk =   0.0277778
        k(   67) = (   0.0819988   0.0256727   0.0000000), wk =   0.0277778
        k(   68) = (  -0.0983986  -0.0513454   0.0000000), wk =   0.0138889
        k(   69) = (  -0.0983986  -0.0342302   0.0000000), wk =   0.0277778
        k(   70) = (  -0.0983986  -0.0171151   0.0000000), wk =   0.0277778
        k(   71) = (  -0.0983986   0.0000000   0.0000000), wk =   0.0277778
        k(   72) = (  -0.0983986   0.0171151   0.0000000), wk =   0.0277778
        k(   73) = (  -0.0983986   0.0342302   0.0000000), wk =   0.0277778
        k(   74) = (  -0.0983986  -0.1540361   0.0000000), wk =   0.0138889

     Initial potential from superposition of free atoms

     starting charge  155.99483, renormalised to  156.00000

     negative rho (up, down):  5.884E-03 0.000E+00

     %%%%%%%%%%%%%%%%%%%%%%%%%%%%%%%%%%%%%%%%%%%%%%%%%%%%%%%%%%%%%%%%%%%%%%%%
     %                                                                      %
     % You are using vdW-DF, which was implemented by the Thonhauser group. %
     % Please cite the following two papers that made this development      %
     % possible and the two reviews that describe the various versions:     %
     %                                                                      %
     %   T. Thonhauser et al., PRL 115, 136402 (2015).                      %
     %   T. Thonhauser et al., PRB 76, 125112 (2007).                       %
     %   K. Berland et al., Rep. Prog. Phys. 78, 066501 (2015).             %
     %   D.C. Langreth et al., J. Phys.: Condens. Matter 21, 084203 (2009). %
     %                                                                      %
     %                                                                      %
     % If you are calculating the stress with vdW-DF, please also cite:     %
     %                                                                      %
     %   R. Sabatini et al., J. Phys.: Condens. Matter 24, 424209 (2012).   %
     %                                                                      %
     %%%%%%%%%%%%%%%%%%%%%%%%%%%%%%%%%%%%%%%%%%%%%%%%%%%%%%%%%%%%%%%%%%%%%%%%

     Adding external electric field

     Computed dipole along edir(3) :
        Dipole               -0.0000 Ry au,         -0.0001 Debye
        Dipole field         -0.0000 Ry au,

        Potential amp.        0.0000 Ry
        Total length         44.8363 bohr

     Starting wfcs are  132 randomized atomic wfcs

     Self-consistent Calculation

     iteration #  1     ecut=    55.12 Ry     beta= 0.10
     Davidson diagonalization with overlap
     ethr =  1.00E-02,  avg # of iterations =  2.0

[...]

     total energy              =   -1830.97027764 Ry
     estimated scf accuracy    <       6.33154381 Ry

[...]

     total energy              =   -1831.63553033 Ry
     estimated scf accuracy    <       0.00001051 Ry

     iteration # 15     ecut=    55.12 Ry     beta= 0.10
     Davidson diagonalization with overlap
     ethr =  6.74E-09,  avg # of iterations =  3.7

[...]

     Adding external electric field

     Computed dipole along edir(3) :
        Dipole               -0.0061 Ry au,         -0.0154 Debye
        Dipole field         -0.0000 Ry au,

        Potential amp.        0.0017 Ry
        Total length         44.8363 bohr

     End of self-consistent calculation

          k = 0.0000 0.0000 0.0000 ( 28159 PWs)   bands (ev):

   -66.5097 -66.3490 -66.0318 -66.0096 -65.8706 -65.8485 -38.9149 -38.7218
   -38.5611 -38.5358 -38.5205 -38.3687 -38.2236 -37.9156 -37.8942 -37.8801
   -37.7711 -37.7504 -37.7358 -37.6911 -37.6080 -37.4836 -37.3189 -37.3077
    -6.6160  -4.8463  -4.6774  -4.5648  -4.4174  -4.0429  -3.6227  -3.6223
    -3.5067  -3.4658  -3.4307  -3.4292  -3.2948  -3.2228  -2.9100  -2.5453
    -2.5291  -2.3936  -2.3388  -2.3132  -2.2827  -2.1223  -1.9313  -1.9262
    -1.8173  -1.8109  -1.7325  -1.7138  -1.6543  -1.5025  -1.4319  -1.3856
    -1.3558  -1.1392  -1.1371  -1.1252  -1.0675  -0.9022  -0.9001  -0.8590
    -0.8041  -0.5188  -0.1379  -0.1287   0.0298   0.1004   0.1946   0.2063
     0.2156   0.8491   1.0461   1.1497   1.3727   1.4764   1.7765   1.8695
     1.9116   2.2011   2.2147   2.3118   2.4378   2.5192   2.6396   2.6926
     2.9907   3.0156   3.3535   3.4407   3.7824   4.4316

[...]

          k = 0.0820 0.0257 0.0000 ( 28084 PWs)   bands (ev):

[...]

          k =-0.0984-0.0513 0.0000 ( 28054 PWs)   bands (ev):

[...]

          k =-0.0984-0.1540 0.0000 ( 28054 PWs)   bands (ev):

   -66.4300 -66.4299 -65.9523 -65.9514 -65.9298 -65.9295 -38.6425 -38.6425
   -38.3212 -38.3211 -38.2973 -38.2971 -37.9452 -37.9446 -37.9322 -37.9320
   -37.8442 -37.8435 -37.8229 -37.8229 -37.8088 -37.8088 -37.5463 -37.5462
    -4.8863  -4.8862  -3.6678  -3.6677  -3.5837  -3.5837  -3.1452  -3.1452
    -3.0408  -3.0408  -2.9076  -2.9076  -2.6197  -2.6197  -2.5688  -2.5688
    -2.4401  -2.4401  -2.2004  -2.2004  -2.1032  -2.1031  -1.8974  -1.8974
    -1.8414  -1.8414  -1.8103  -1.8103  -1.7846  -1.7846  -1.6805  -1.6804
    -1.5359  -1.5359  -1.4997  -1.4996  -1.3867  -1.3867  -0.8324  -0.8323
    -0.8118  -0.8117  -0.4084  -0.4084  -0.0862  -0.0861  -0.0078  -0.0077
     0.1448   0.1448   0.2075   0.2076   0.3008   0.3009   0.4276   0.4276
     0.5867   0.5869   1.4622   1.4623   1.7099   1.7100   1.9272   1.9273
     3.1250   3.1250   3.2699   3.2701   4.1083   4.1084

     the Fermi energy is     0.8784 ev

!    total energy              =   -1831.63554266 Ry
     estimated scf accuracy    <       0.00000380 Ry
     smearing contrib. (-TS)   =      -0.05231382 Ry
     internal energy E=F+TS    =   -1831.58322884 Ry

     The total energy is F=E-TS. E is the sum of the following terms:
     one-electron contribution =  -15014.17889518 Ry
     hartree contribution      =    7578.09338349 Ry
     xc contribution           =    -512.49009149 Ry
     ewald contribution        =    6116.99237423 Ry
     electric field correction =       0.00000011 Ry

     convergence has been achieved in  15 iterations

     negative rho (up, down):  6.062E-03 0.000E+00

     Forces acting on atoms (cartesian axes, Ry/au):

     atom    1 type  1   force =    -0.00001607    0.00075758   -0.00673031
     atom    2 type  1   force =    -0.00000953    0.00075397   -0.00672873
     atom    3 type  2   force =    -0.00002181    0.00094527    0.01225202
     atom    4 type  2   force =    -0.00002505    0.00093477    0.01224189
     atom    5 type  1   force =    -0.00021328    0.00384727   -0.00413975
     atom    6 type  1   force =     0.00019611    0.00384686   -0.00414205
     atom    7 type  2   force =     0.00005787   -0.00362119   -0.00226618
     atom    8 type  2   force =     0.00006014   -0.00355434   -0.00217841
     atom    9 type  1   force =     0.00002643   -0.00055136    0.00232279
     atom   10 type  1   force =    -0.00003489   -0.00055242    0.00232489
     atom   11 type  2   force =    -0.00000859   -0.00137682   -0.00142736
     atom   12 type  2   force =    -0.00001134   -0.00142960   -0.00152879

     Total force =     0.022645     Total SCF correction =     0.005904
     SCF correction compared to forces is large: reduce conv_thr to get better values

     Writing output data file ./Cu2Tc2/Cu2Tc2_beef.save/

     General routines

     Parallel routines

   This run was terminated on:  22:20:47  23Jun2022

   JOB DONE.