     Program PWSCF v.6.6 starts on 23Jun2022 at 19: 1:18

     R & G space division:  proc/nbgrp/npool/nimage =      37
     Fft bands division:     nmany     =       1
     Reading input from Cu2W2.in
Warning: card &CELL ignored
Warning: card / ignored

     Current dimensions of program PWSCF are:
     Max number of different atomic species (ntypx) = 10
     Max number of k-points (npk) =  40000
     Max angular momentum in pseudopotentials (lmaxx) =  3
     Presently stress not available with electric field and gates

     Message from routine cell_base_init:
     DEPRECATED: use true lattice parameter, not A to a.u. conversion factor
     Message from routine emend_upf/check:
     BEWARE !!! Possible out of bounds while fixing pseudo
     Message from routine emend_upf/check:
     BEWARE !!! Possible out of bounds while fixing pseudo
     Message from routine read_upf:
     Pseudo file W.pbe-spn-rrkjus_psl.0.2.3.UPF has been fixed on the fly.
     To avoid this message in the future, permanently fix
     your pseudo files following these instructions:
     file Cu.pbe-dn-rrkjus_psl.1.0.0.UPF: wavefunction(s)  3D renormalized

     IMPORTANT: XC functional enforced from input :
     Exchange-correlation= BEEF-VDW
                           (   1   4  43  14   2   0   0)
     Any further DFT definition will be discarded
     Please, verify this is what you really want

     Subspace diagonalization in iterative solution of the eigenvalue problem:
     a serial algorithm will be used

     Found symmetry operation: I + ( -0.5000  0.0000  0.0000)
     This is a supercell, fractional translations are disabled

     bravais-lattice index     =            0
     lattice parameter (alat)  =       1.8897  a.u.
     unit-cell volume          =    4220.4489 (a.u.)^3
     number of atoms/cell      =           12
     number of atomic types    =            2
     number of electrons       =       150.00
     number of Kohn-Sham states=           90
     kinetic-energy cutoff     =      55.1240  Ry
     charge density cutoff     =     551.2396  Ry
     convergence threshold     =      1.0E-05
     mixing beta               =       0.1000
     number of iterations used =           10  plain     mixing
     Exchange-correlation= BEEF-VDW
                           (   1   4  43  14   2   0   0)

     celldm(1)=   1.889726  celldm(2)=   0.000000  celldm(3)=   0.000000
     celldm(4)=   0.000000  celldm(5)=   0.000000  celldm(6)=   0.000000

     crystal axes: (cart. coord. in units of alat)
               a(1) = (   5.312732   0.000000   0.000000 )
               a(2) = (  -2.656366   4.818134   0.000000 )
               a(3) = (   0.000000   0.000000  24.432356 )

     reciprocal axes: (cart. coord. in units 2 pi/alat)
               b(1) = (  0.188227  0.103775 -0.000000 )
               b(2) = (  0.000000  0.207549  0.000000 )
               b(3) = (  0.000000 -0.000000  0.040929 )

     PseudoPot. # 1 for Cu read from file:
     ../pseudo/Cu.pbe-dn-rrkjus_psl.1.0.0.UPF
     MD5 check sum: 8469560995d0c2df1ffe68c099c04a63
     Pseudo is Ultrasoft + core correction, Zval = 11.0
     Generated using "atomic" code by A. Dal Corso v.6.3
     Using radial grid of 1199 points,  6 beta functions with:
                l(1) =   0
                l(2) =   0
                l(3) =   1
                l(4) =   1
                l(5) =   2
                l(6) =   2
     Q(r) pseudized with 0 coefficients

     PseudoPot. # 2 for W  read from file:
     ../pseudo/W.pbe-spn-rrkjus_psl.0.2.3.UPF
     MD5 check sum: 25b665cf2bbae626ad8d9f1bc024df95
     Pseudo is Ultrasoft + core correction, Zval = 14.0
     Generated using "atomic" code by A. Dal Corso v.5.0.2 svn rev. 10551
     Using radial grid of 1273 points,  6 beta functions with:
                l(1) =   0
                l(2) =   0
                l(3) =   1
                l(4) =   1
                l(5) =   2
                l(6) =   2
     Q(r) pseudized with 0 coefficients

     atomic species   valence    mass     pseudopotential
        Cu            11.00    63.54600     Cu( 1.00)
        W             14.00   183.84000     W ( 1.00)

     No symmetry found

   Cartesian axes

     site n.     atom                  positions (alat units)
         1           Cu  tau(   1) = (   0.0000000   0.0000000  10.0000000  )
         2           Cu  tau(   2) = (   2.6563662   0.0000000  10.0000000  )
         3           W   tau(   3) = (   1.3281831   2.4090672  10.0000000  )
         4           W   tau(   4) = (  -1.3281831   2.4090672  10.0000000  )
         5           Cu  tau(   5) = (   2.6563662   1.4645256  12.2161782  )
         6           Cu  tau(   6) = (  -0.0000000   1.4645256  12.2161782  )
         7           W   tau(   7) = (  -1.3281831   3.8735928  12.2161782  )
         8           W   tau(   8) = (   1.3281831   3.8735928  12.2161782  )
         9           Cu  tau(   9) = (  -0.0000020   2.9180078  14.4472329  )
        10           Cu  tau(  10) = (   2.6563647   2.9180047  14.4472315  )
        11           W   tau(  11) = (   3.9845511   0.5211297  14.3724458  )
        12           W   tau(  12) = (   1.3281807   0.5211305  14.3724444  )

     number of k points=    74  Fermi-Dirac smearing, width (Ry)=  0.0100
                       cart. coord. in units 2pi/alat
        k(    1) = (   0.0000000   0.0000000   0.0000000), wk =   0.0138889
        k(    2) = (   0.0000000   0.0172958   0.0000000), wk =   0.0277778
        k(    3) = (   0.0000000   0.0345915   0.0000000), wk =   0.0277778
        k(    4) = (   0.0000000   0.0518873   0.0000000), wk =   0.0277778
        k(    5) = (   0.0000000   0.0691831   0.0000000), wk =   0.0277778
        k(    6) = (   0.0000000   0.0864788   0.0000000), wk =   0.0277778
        k(    7) = (   0.0000000  -0.1037746   0.0000000), wk =   0.0138889
        k(    8) = (   0.0156856   0.0086479   0.0000000), wk =   0.0277778
        k(    9) = (   0.0156856   0.0259437   0.0000000), wk =   0.0277778
        k(   10) = (   0.0156856   0.0432394   0.0000000), wk =   0.0277778
        k(   11) = (   0.0156856   0.0605352   0.0000000), wk =   0.0277778
        k(   12) = (   0.0156856   0.0778310   0.0000000), wk =   0.0277778
        k(   13) = (   0.0156856   0.0951267   0.0000000), wk =   0.0277778
        k(   14) = (   0.0156856  -0.0951267   0.0000000), wk =   0.0277778
        k(   15) = (   0.0156856  -0.0778310   0.0000000), wk =   0.0277778
        k(   16) = (   0.0156856  -0.0605352   0.0000000), wk =   0.0277778
        k(   17) = (   0.0156856  -0.0432394   0.0000000), wk =   0.0277778
        k(   18) = (   0.0156856  -0.0259437   0.0000000), wk =   0.0277778
        k(   19) = (   0.0156856  -0.0086479   0.0000000), wk =   0.0277778
        k(   20) = (   0.0313712   0.0172958   0.0000000), wk =   0.0277778
        k(   21) = (   0.0313712   0.0345915   0.0000000), wk =   0.0277778
        k(   22) = (   0.0313712   0.0518873   0.0000000), wk =   0.0277778
        k(   23) = (   0.0313712   0.0691831   0.0000000), wk =   0.0277778
        k(   24) = (   0.0313712   0.0864788   0.0000000), wk =   0.0277778
        k(   25) = (   0.0313712   0.1037746   0.0000000), wk =   0.0277778
        k(   26) = (   0.0313712  -0.0864788   0.0000000), wk =   0.0277778
        k(   27) = (   0.0313712  -0.0691831   0.0000000), wk =   0.0277778
        k(   28) = (   0.0313712  -0.0518873   0.0000000), wk =   0.0277778
        k(   29) = (   0.0313712  -0.0345915   0.0000000), wk =   0.0277778
        k(   30) = (   0.0313712  -0.0172958   0.0000000), wk =   0.0277778
        k(   31) = (   0.0313712  -0.0000000   0.0000000), wk =   0.0277778
        k(   32) = (   0.0470568   0.0259437   0.0000000), wk =   0.0277778
        k(   33) = (   0.0470568   0.0432394   0.0000000), wk =   0.0277778
        k(   34) = (   0.0470568   0.0605352   0.0000000), wk =   0.0277778
        k(   35) = (   0.0470568   0.0778310   0.0000000), wk =   0.0277778
        k(   36) = (   0.0470568   0.0951267   0.0000000), wk =   0.0277778
        k(   37) = (   0.0470568   0.1124225   0.0000000), wk =   0.0277778
        k(   38) = (   0.0470568  -0.0778310   0.0000000), wk =   0.0277778
        k(   39) = (   0.0470568  -0.0605352   0.0000000), wk =   0.0277778
        k(   40) = (   0.0470568  -0.0432394   0.0000000), wk =   0.0277778
        k(   41) = (   0.0470568  -0.0259437   0.0000000), wk =   0.0277778
        k(   42) = (   0.0470568  -0.0086479   0.0000000), wk =   0.0277778
        k(   43) = (   0.0470568   0.0086479   0.0000000), wk =   0.0277778
        k(   44) = (   0.0627424   0.0345915   0.0000000), wk =   0.0277778
        k(   45) = (   0.0627424   0.0518873   0.0000000), wk =   0.0277778
        k(   46) = (   0.0627424   0.0691831   0.0000000), wk =   0.0277778
        k(   47) = (   0.0627424   0.0864788   0.0000000), wk =   0.0277778
        k(   48) = (   0.0627424   0.1037746   0.0000000), wk =   0.0277778
        k(   49) = (   0.0627424   0.1210704   0.0000000), wk =   0.0277778
        k(   50) = (   0.0627424  -0.0691831   0.0000000), wk =   0.0277778
        k(   51) = (   0.0627424  -0.0518873   0.0000000), wk =   0.0277778
        k(   52) = (   0.0627424  -0.0345915   0.0000000), wk =   0.0277778
        k(   53) = (   0.0627424  -0.0172958   0.0000000), wk =   0.0277778
        k(   54) = (   0.0627424   0.0000000   0.0000000), wk =   0.0277778
        k(   55) = (   0.0627424   0.0172958   0.0000000), wk =   0.0277778
        k(   56) = (   0.0784279   0.0432394   0.0000000), wk =   0.0277778
        k(   57) = (   0.0784279   0.0605352   0.0000000), wk =   0.0277778
        k(   58) = (   0.0784279   0.0778310   0.0000000), wk =   0.0277778
        k(   59) = (   0.0784279   0.0951267   0.0000000), wk =   0.0277778
        k(   60) = (   0.0784279   0.1124225   0.0000000), wk =   0.0277778
        k(   61) = (   0.0784279   0.1297183   0.0000000), wk =   0.0277778
        k(   62) = (   0.0784279  -0.0605352   0.0000000), wk =   0.0277778
        k(   63) = (   0.0784279  -0.0432394   0.0000000), wk =   0.0277778
        k(   64) = (   0.0784279  -0.0259437   0.0000000), wk =   0.0277778
        k(   65) = (   0.0784279  -0.0086479   0.0000000), wk =   0.0277778
        k(   66) = (   0.0784279   0.0086479   0.0000000), wk =   0.0277778
        k(   67) = (   0.0784279   0.0259437   0.0000000), wk =   0.0277778
        k(   68) = (  -0.0941135  -0.0518873   0.0000000), wk =   0.0138889
        k(   69) = (  -0.0941135  -0.0345915   0.0000000), wk =   0.0277778
        k(   70) = (  -0.0941135  -0.0172958   0.0000000), wk =   0.0277778
        k(   71) = (  -0.0941135   0.0000000   0.0000000), wk =   0.0277778
        k(   72) = (  -0.0941135   0.0172958   0.0000000), wk =   0.0277778
        k(   73) = (  -0.0941135   0.0345915   0.0000000), wk =   0.0277778
        k(   74) = (  -0.0941135  -0.1556619   0.0000000), wk =   0.0138889

     Initial potential from superposition of free atoms

     starting charge  149.99528, renormalised to  150.00000

     negative rho (up, down):  7.608E-04 0.000E+00

     %%%%%%%%%%%%%%%%%%%%%%%%%%%%%%%%%%%%%%%%%%%%%%%%%%%%%%%%%%%%%%%%%%%%%%%%
     %                                                                      %
     % You are using vdW-DF, which was implemented by the Thonhauser group. %
     % Please cite the following two papers that made this development      %
     % possible and the two reviews that describe the various versions:     %
     %                                                                      %
     %   T. Thonhauser et al., PRL 115, 136402 (2015).                      %
     %   T. Thonhauser et al., PRB 76, 125112 (2007).                       %
     %   K. Berland et al., Rep. Prog. Phys. 78, 066501 (2015).             %
     %   D.C. Langreth et al., J. Phys.: Condens. Matter 21, 084203 (2009). %
     %                                                                      %
     %                                                                      %
     % If you are calculating the stress with vdW-DF, please also cite:     %
     %                                                                      %
     %   R. Sabatini et al., J. Phys.: Condens. Matter 24, 424209 (2012).   %
     %                                                                      %
     %%%%%%%%%%%%%%%%%%%%%%%%%%%%%%%%%%%%%%%%%%%%%%%%%%%%%%%%%%%%%%%%%%%%%%%%

     Adding external electric field

     Computed dipole along edir(3) :
        Dipole               -0.0000 Ry au,         -0.0001 Debye
        Dipole field         -0.0000 Ry au,

        Potential amp.        0.0000 Ry
        Total length         45.0162 bohr

     Starting wfcs are  132 randomized atomic wfcs

     Self-consistent Calculation

     iteration #  1     ecut=    55.12 Ry     beta= 0.10
     Davidson diagonalization with overlap
     ethr =  1.00E-02,  avg # of iterations =  2.0

     Threshold (ethr) on eigenvalues was too large:
     Diagonalizing with lowered threshold

     Davidson diagonalization with overlap
     ethr =  9.89E-04,  avg # of iterations =  2.2

[...]

     total energy              =   -1698.75104165 Ry
     estimated scf accuracy    <       1.68419126 Ry

[...]

     total energy              =   -1698.79964596 Ry
     estimated scf accuracy    <       0.00008677 Ry

     iteration # 13     ecut=    55.12 Ry     beta= 0.10
     Davidson diagonalization with overlap
     ethr =  5.78E-08,  avg # of iterations =  4.6

[...]

     Adding external electric field

     Computed dipole along edir(3) :
        Dipole               -0.0148 Ry au,         -0.0375 Debye
        Dipole field         -0.0000 Ry au,

        Potential amp.        0.0040 Ry
        Total length         45.0162 bohr

     End of self-consistent calculation

          k = 0.0000 0.0000 0.0000 ( 29179 PWs)   bands (ev):

   -73.4273 -73.3627 -73.3438 -73.3213 -73.2812 -73.2398 -38.0386 -37.9236
   -37.8289 -37.8014 -37.7814 -37.5944 -37.5390 -37.4708 -37.4617 -37.4398
   -37.4142 -37.3331 -37.3139 -37.0470 -36.9383 -36.9198 -36.7345 -36.7085
    -7.4379  -5.4955  -4.5754  -4.5114  -4.2496  -4.0798  -3.8722  -3.8050
    -3.5139  -3.4266  -3.3939  -3.2953  -3.2654  -3.2294  -3.0434  -2.4060
    -2.4021  -2.3961  -2.3681  -2.2884  -2.0807  -2.0528  -2.0321  -1.9621
    -1.9404  -1.8629  -1.6791  -1.6450  -1.6253  -1.6181  -1.4145  -1.3632
    -1.3584  -1.3145  -1.1478  -1.0084  -0.8528  -0.7172  -0.6656  -0.5781
    -0.5454  -0.4869  -0.2745  -0.1413   0.3817   0.5403   0.8088   0.8179
     0.9289   1.3813   1.7295   1.7688   1.8518   2.0834   2.2260   2.6328
     2.6688   2.7011   2.8956   2.9237   3.5307   3.6296   3.9143   3.9430
     4.2693   4.3435

[...]

          k = 0.0784 0.0259 0.0000 ( 29197 PWs)   bands (ev):

[...]

          k =-0.0941-0.0519 0.0000 ( 29198 PWs)   bands (ev):

[...]

          k =-0.0941-0.1557 0.0000 ( 29198 PWs)   bands (ev):

   -73.3857 -73.3857 -73.3221 -73.3220 -73.2807 -73.2806 -37.8538 -37.8537
   -37.5343 -37.5343 -37.5013 -37.5013 -37.4737 -37.4737 -37.3981 -37.3981
   -37.3775 -37.3775 -37.2994 -37.2994 -37.2730 -37.2730 -36.9929 -36.9929
    -5.4991  -5.4991  -3.9280  -3.9279  -3.5390  -3.5390  -3.3182  -3.3182
    -3.1640  -3.1640  -2.8942  -2.8942  -2.6617  -2.6617  -2.6283  -2.6283
    -2.4373  -2.4373  -2.2336  -2.2336  -2.1677  -2.1677  -1.9794  -1.9794
    -1.9473  -1.9473  -1.9257  -1.9257  -1.8886  -1.8886  -1.7728  -1.7728
    -1.6851  -1.6851  -1.4369  -1.4369  -1.0026  -1.0026  -0.9005  -0.9005
    -0.4032  -0.4032  -0.1947  -0.1947   0.4378   0.4378   0.5314   0.5314
     0.8045   0.8045   1.0142   1.0142   1.1143   1.1143   1.2671   1.2671
     1.5505   1.5506   2.3658   2.3658   2.9723   2.9723   3.1353   3.1353
     3.9321   3.9322

     the Fermi energy is     1.1138 ev

!    total energy              =   -1698.79964487 Ry
     estimated scf accuracy    <       0.00000689 Ry
     smearing contrib. (-TS)   =      -0.05377880 Ry
     internal energy E=F+TS    =   -1698.74586607 Ry

     The total energy is F=E-TS. E is the sum of the following terms:
     one-electron contribution =  -13278.70448044 Ry
     hartree contribution      =    6700.09617663 Ry
     xc contribution           =    -522.97608625 Ry
     ewald contribution        =    5402.83852333 Ry
     electric field correction =       0.00000065 Ry

     convergence has been achieved in  13 iterations

     negative rho (up, down):  1.821E-03 0.000E+00

     Forces acting on atoms (cartesian axes, Ry/au):

     atom    1 type  1   force =     0.00000485    0.00357441   -0.00482666
     atom    2 type  1   force =     0.00000619    0.00355131   -0.00481306
     atom    3 type  2   force =     0.00001660    0.00067328    0.01912419
     atom    4 type  2   force =    -0.00001682    0.00068330    0.01911157
     atom    5 type  1   force =     0.00000743    0.00348747   -0.00899568
     atom    6 type  1   force =    -0.00000540    0.00349327   -0.00899757
     atom    7 type  2   force =    -0.00000572   -0.00710251   -0.00445864
     atom    8 type  2   force =     0.00000433   -0.00710429   -0.00446275
     atom    9 type  1   force =    -0.00000108   -0.00008572    0.00042403
     atom   10 type  1   force =    -0.00000005   -0.00007647    0.00043383
     atom   11 type  2   force =    -0.00000567   -0.00054125   -0.00127729
     atom   12 type  2   force =    -0.00000465   -0.00055279   -0.00126194

     Total force =     0.033689     Total SCF correction =     0.013578
     SCF correction compared to forces is large: reduce conv_thr to get better values

     Writing output data file ./Cu2W2/Cu2W2_beef.save/

     General routines

     Parallel routines

   This run was terminated on:  19:28:48  23Jun2022

   JOB DONE.