     Program PWSCF v.6.6 starts on 11Jul2022 at  3:21:25

     R & G space division:  proc/nbgrp/npool/nimage =      37
     Fft bands division:     nmany     =       1
     Reading input from Cu2Y2.in
Warning: card &CELL ignored
Warning: card / ignored

     Current dimensions of program PWSCF are:
     Max number of different atomic species (ntypx) = 10
     Max number of k-points (npk) =  40000
     Max angular momentum in pseudopotentials (lmaxx) =  3
     Presently stress not available with electric field and gates

     Message from routine cell_base_init:
     DEPRECATED: use true lattice parameter, not A to a.u. conversion factor
     file Cu.pbe-dn-rrkjus_psl.1.0.0.UPF: wavefunction(s)  3D renormalized
     file Y.pbe-spn-rrkjus_psl.1.0.0.UPF: wavefunction(s)  4S renormalized

     IMPORTANT: XC functional enforced from input :
     Exchange-correlation= BEEF-VDW
                           (   1   4  43  14   2   0   0)
     Any further DFT definition will be discarded
     Please, verify this is what you really want

     Subspace diagonalization in iterative solution of the eigenvalue problem:
     a serial algorithm will be used

     bravais-lattice index     =            0
     lattice parameter (alat)  =       1.8897  a.u.
     unit-cell volume          =    5804.7773 (a.u.)^3
     number of atoms/cell      =           12
     number of atomic types    =            2
     number of electrons       =       132.00
     number of Kohn-Sham states=           79
     kinetic-energy cutoff     =      55.1240  Ry
     charge density cutoff     =     551.2396  Ry
     convergence threshold     =      1.0E-05
     mixing beta               =       0.1000
     number of iterations used =           10  plain     mixing
     Exchange-correlation= BEEF-VDW
                           (   1   4  43  14   2   0   0)

     celldm(1)=   1.889726  celldm(2)=   0.000000  celldm(3)=   0.000000
     celldm(4)=   0.000000  celldm(5)=   0.000000  celldm(6)=   0.000000

     crystal axes: (cart. coord. in units of alat)
               a(1) = (   6.048507   0.000000   0.000000 )
               a(2) = (   2.016303   5.702540   0.000000 )
               a(3) = (   0.000000   0.000000  24.938626 )

     reciprocal axes: (cart. coord. in units 2 pi/alat)
               b(1) = (  0.165330 -0.058457  0.000000 )
               b(2) = (  0.000000  0.175360  0.000000 )
               b(3) = (  0.000000  0.000000  0.040098 )

     PseudoPot. # 1 for Cu read from file:
     ../pseudo/Cu.pbe-dn-rrkjus_psl.1.0.0.UPF
     MD5 check sum: 8469560995d0c2df1ffe68c099c04a63
     Pseudo is Ultrasoft + core correction, Zval = 11.0
     Generated using "atomic" code by A. Dal Corso v.6.3
     Using radial grid of 1199 points,  6 beta functions with:
                l(1) =   0
                l(2) =   0
                l(3) =   1
                l(4) =   1
                l(5) =   2
                l(6) =   2
     Q(r) pseudized with 0 coefficients

     PseudoPot. # 2 for Y  read from file:
     ../pseudo/Y.pbe-spn-rrkjus_psl.1.0.0.UPF
     MD5 check sum: 5fe32e6a006803c2ec2edff47948a3c8
     Pseudo is Ultrasoft + core correction, Zval = 11.0
     Generated using "atomic" code by A. Dal Corso v.6.2.2
     Using radial grid of 1223 points,  6 beta functions with:
                l(1) =   0
                l(2) =   0
                l(3) =   1
                l(4) =   1
                l(5) =   2
                l(6) =   2
     Q(r) pseudized with 0 coefficients

     atomic species   valence    mass     pseudopotential
        Cu            11.00    63.54600     Cu( 1.00)
        Y             11.00    88.90584     Y ( 1.00)

     No symmetry found

   Cartesian axes

     site n.     atom                  positions (alat units)
         1           Cu  tau(   1) = (   0.0000000   0.0000000  10.0000000  )
         2           Cu  tau(   2) = (   4.0324051   2.8512699  10.0000000  )
         3           Y   tau(   3) = (   3.0242535   0.0000000  10.0000000  )
         4           Y   tau(   4) = (   1.0081515   2.8512699  10.0000000  )
         5           Cu  tau(   5) = (   6.0485071   4.2768338  12.4693132  )
         6           Cu  tau(   6) = (   2.0161020   1.4255639  12.4693132  )
         7           Y   tau(   7) = (   3.0242535   4.2768338  12.4693132  )
         8           Y   tau(   8) = (   5.0403556   1.4255639  12.4693132  )
         9           Cu  tau(   9) = (   4.0322116   2.8512163  14.7558195  )
        10           Cu  tau(  10) = (   8.0646860   5.7023881  14.7558193  )
        11           Y   tau(  11) = (   7.0564863   2.8511438  14.9316346  )
        12           Y   tau(  12) = (   5.0404290   5.7024596  14.9316272  )

     number of k points=    74  Fermi-Dirac smearing, width (Ry)=  0.0100
                       cart. coord. in units 2pi/alat
        k(    1) = (   0.0000000   0.0000000   0.0000000), wk =   0.0138889
        k(    2) = (   0.0000000   0.0146134   0.0000000), wk =   0.0277778
        k(    3) = (   0.0000000   0.0292267   0.0000000), wk =   0.0277778
        k(    4) = (   0.0000000   0.0438401   0.0000000), wk =   0.0277778
        k(    5) = (   0.0000000   0.0584535   0.0000000), wk =   0.0277778
        k(    6) = (   0.0000000   0.0730669   0.0000000), wk =   0.0277778
        k(    7) = (   0.0000000  -0.0876802   0.0000000), wk =   0.0138889
        k(    8) = (   0.0137775  -0.0048714   0.0000000), wk =   0.0277778
        k(    9) = (   0.0137775   0.0097419   0.0000000), wk =   0.0277778
        k(   10) = (   0.0137775   0.0243553   0.0000000), wk =   0.0277778
        k(   11) = (   0.0137775   0.0389687   0.0000000), wk =   0.0277778
        k(   12) = (   0.0137775   0.0535820   0.0000000), wk =   0.0277778
        k(   13) = (   0.0137775   0.0681954   0.0000000), wk =   0.0277778
        k(   14) = (   0.0137775  -0.0925517   0.0000000), wk =   0.0277778
        k(   15) = (   0.0137775  -0.0779383   0.0000000), wk =   0.0277778
        k(   16) = (   0.0137775  -0.0633249   0.0000000), wk =   0.0277778
        k(   17) = (   0.0137775  -0.0487116   0.0000000), wk =   0.0277778
        k(   18) = (   0.0137775  -0.0340982   0.0000000), wk =   0.0277778
        k(   19) = (   0.0137775  -0.0194848   0.0000000), wk =   0.0277778
        k(   20) = (   0.0275550  -0.0097429   0.0000000), wk =   0.0277778
        k(   21) = (   0.0275550   0.0048705   0.0000000), wk =   0.0277778
        k(   22) = (   0.0275550   0.0194838   0.0000000), wk =   0.0277778
        k(   23) = (   0.0275550   0.0340972   0.0000000), wk =   0.0277778
        k(   24) = (   0.0275550   0.0487106   0.0000000), wk =   0.0277778
        k(   25) = (   0.0275550   0.0633240   0.0000000), wk =   0.0277778
        k(   26) = (   0.0275550  -0.0974231   0.0000000), wk =   0.0277778
        k(   27) = (   0.0275550  -0.0828098   0.0000000), wk =   0.0277778
        k(   28) = (   0.0275550  -0.0681964   0.0000000), wk =   0.0277778
        k(   29) = (   0.0275550  -0.0535830   0.0000000), wk =   0.0277778
        k(   30) = (   0.0275550  -0.0389696   0.0000000), wk =   0.0277778
        k(   31) = (   0.0275550  -0.0243563   0.0000000), wk =   0.0277778
        k(   32) = (   0.0413325  -0.0146143   0.0000000), wk =   0.0277778
        k(   33) = (   0.0413325  -0.0000010   0.0000000), wk =   0.0277778
        k(   34) = (   0.0413325   0.0146124   0.0000000), wk =   0.0277778
        k(   35) = (   0.0413325   0.0292258   0.0000000), wk =   0.0277778
        k(   36) = (   0.0413325   0.0438391   0.0000000), wk =   0.0277778
        k(   37) = (   0.0413325   0.0584525   0.0000000), wk =   0.0277778
        k(   38) = (   0.0413325  -0.1022946   0.0000000), wk =   0.0277778
        k(   39) = (   0.0413325  -0.0876812   0.0000000), wk =   0.0277778
        k(   40) = (   0.0413325  -0.0730678   0.0000000), wk =   0.0277778
        k(   41) = (   0.0413325  -0.0584545   0.0000000), wk =   0.0277778
        k(   42) = (   0.0413325  -0.0438411   0.0000000), wk =   0.0277778
        k(   43) = (   0.0413325  -0.0292277   0.0000000), wk =   0.0277778
        k(   44) = (   0.0551100  -0.0194858   0.0000000), wk =   0.0277778
        k(   45) = (   0.0551100  -0.0048724   0.0000000), wk =   0.0277778
        k(   46) = (   0.0551100   0.0097410   0.0000000), wk =   0.0277778
        k(   47) = (   0.0551100   0.0243543   0.0000000), wk =   0.0277778
        k(   48) = (   0.0551100   0.0389677   0.0000000), wk =   0.0277778
        k(   49) = (   0.0551100   0.0535811   0.0000000), wk =   0.0277778
        k(   50) = (   0.0551100  -0.1071660   0.0000000), wk =   0.0277778
        k(   51) = (   0.0551100  -0.0925526   0.0000000), wk =   0.0277778
        k(   52) = (   0.0551100  -0.0779393   0.0000000), wk =   0.0277778
        k(   53) = (   0.0551100  -0.0633259   0.0000000), wk =   0.0277778
        k(   54) = (   0.0551100  -0.0487125   0.0000000), wk =   0.0277778
        k(   55) = (   0.0551100  -0.0340992   0.0000000), wk =   0.0277778
        k(   56) = (   0.0688875  -0.0243572   0.0000000), wk =   0.0277778
        k(   57) = (   0.0688875  -0.0097439   0.0000000), wk =   0.0277778
        k(   58) = (   0.0688875   0.0048695   0.0000000), wk =   0.0277778
        k(   59) = (   0.0688875   0.0194829   0.0000000), wk =   0.0277778
        k(   60) = (   0.0688875   0.0340962   0.0000000), wk =   0.0277778
        k(   61) = (   0.0688875   0.0487096   0.0000000), wk =   0.0277778
        k(   62) = (   0.0688875  -0.1120375   0.0000000), wk =   0.0277778
        k(   63) = (   0.0688875  -0.0974241   0.0000000), wk =   0.0277778
        k(   64) = (   0.0688875  -0.0828107   0.0000000), wk =   0.0277778
        k(   65) = (   0.0688875  -0.0681974   0.0000000), wk =   0.0277778
        k(   66) = (   0.0688875  -0.0535840   0.0000000), wk =   0.0277778
        k(   67) = (   0.0688875  -0.0389706   0.0000000), wk =   0.0277778
        k(   68) = (  -0.0826650   0.0292287   0.0000000), wk =   0.0138889
        k(   69) = (  -0.0826650   0.0438421   0.0000000), wk =   0.0277778
        k(   70) = (  -0.0826650   0.0584554   0.0000000), wk =   0.0277778
        k(   71) = (  -0.0826650   0.0730688   0.0000000), wk =   0.0277778
        k(   72) = (  -0.0826650   0.0876822   0.0000000), wk =   0.0277778
        k(   73) = (  -0.0826650   0.1022955   0.0000000), wk =   0.0277778
        k(   74) = (  -0.0826650  -0.0584515   0.0000000), wk =   0.0138889

     Initial potential from superposition of free atoms

     starting charge  131.97411, renormalised to  132.00000

     negative rho (up, down):  2.799E-04 0.000E+00

     %%%%%%%%%%%%%%%%%%%%%%%%%%%%%%%%%%%%%%%%%%%%%%%%%%%%%%%%%%%%%%%%%%%%%%%%
     %                                                                      %
     % You are using vdW-DF, which was implemented by the Thonhauser group. %
     % Please cite the following two papers that made this development      %
     % possible and the two reviews that describe the various versions:     %
     %                                                                      %
     %   T. Thonhauser et al., PRL 115, 136402 (2015).                      %
     %   T. Thonhauser et al., PRB 76, 125112 (2007).                       %
     %   K. Berland et al., Rep. Prog. Phys. 78, 066501 (2015).             %
     %   D.C. Langreth et al., J. Phys.: Condens. Matter 21, 084203 (2009). %
     %                                                                      %
     %                                                                      %
     % If you are calculating the stress with vdW-DF, please also cite:     %
     %                                                                      %
     %   R. Sabatini et al., J. Phys.: Condens. Matter 24, 424209 (2012).   %
     %                                                                      %
     %%%%%%%%%%%%%%%%%%%%%%%%%%%%%%%%%%%%%%%%%%%%%%%%%%%%%%%%%%%%%%%%%%%%%%%%

     Adding external electric field

     Computed dipole along edir(3) :
        Dipole                0.0013 Ry au,          0.0033 Debye
        Dipole field          0.0000 Ry au,

        Potential amp.       -0.0003 Ry
        Total length         45.9490 bohr

     Starting wfcs are  132 randomized atomic wfcs

     Self-consistent Calculation

     iteration #  1     ecut=    55.12 Ry     beta= 0.10
     Davidson diagonalization with overlap
     ethr =  1.00E-02,  avg # of iterations =  2.0

[...]

     total energy              =   -1248.85656488 Ry
     estimated scf accuracy    <       2.15635777 Ry

[...]

     iteration # 10     ecut=    55.12 Ry     beta= 0.10
     Davidson diagonalization with overlap
     c_bands:  1 eigenvalues not converged
     c_bands:  1 eigenvalues not converged
     c_bands:  1 eigenvalues not converged
     c_bands:  1 eigenvalues not converged
     ethr =  2.78E-06,  avg # of iterations = 10.0

[...]

     iteration # 11     ecut=    55.12 Ry     beta= 0.10
     Davidson diagonalization with overlap
     c_bands:  1 eigenvalues not converged
     ethr =  1.28E-06,  avg # of iterations =  2.6

[...]

     total energy              =   -1248.96411834 Ry
     estimated scf accuracy    <       0.00004212 Ry

     iteration # 15     ecut=    55.12 Ry     beta= 0.10
     Davidson diagonalization with overlap
     ethr =  3.19E-08,  avg # of iterations =  2.1

[...]

     Adding external electric field

     Computed dipole along edir(3) :
        Dipole                0.0376 Ry au,          0.0956 Debye
        Dipole field          0.0001 Ry au,

        Potential amp.       -0.0075 Ry
        Total length         45.9490 bohr

     End of self-consistent calculation

          k = 0.0000 0.0000 0.0000 ( 40211 PWs)   bands (ev):

   -42.7477 -42.7193 -42.7189 -42.6906 -42.2147 -42.1858 -22.7734 -22.7637
   -22.7404 -22.7314 -22.7265 -22.6841 -22.6503 -22.6311 -22.6186 -22.5868
   -22.4155 -22.3826 -22.3573 -22.1763 -22.1144 -22.1115 -22.0745 -21.9793
    -5.0409  -3.7380  -3.0763  -3.0057  -2.9337  -2.6662  -2.6389  -2.6210
    -2.6148  -2.5988  -2.5087  -2.4493  -2.4292  -2.2971  -2.2685  -2.2568
    -2.2521  -2.2477  -2.2047  -2.1903  -2.1663  -2.1592  -2.1339  -2.0527
    -2.0424  -2.0237  -2.0087  -1.9771  -1.8930  -1.8501  -1.8189  -1.7880
    -1.4412  -1.2679  -1.2649  -1.1533   0.2588   0.3758   0.3768   0.8653
     0.8815   1.1252   1.1800   1.1832   1.3341   1.6131   1.7537   1.8648
     1.9261   1.9514   2.0044   2.1350   2.3413   2.5628   2.7432

[...]

          k = 0.0689-0.0390 0.0000 ( 40096 PWs)   bands (ev):

[...]

          k =-0.0827 0.0292 0.0000 ( 40072 PWs)   bands (ev):

[...]

          k =-0.0827-0.0585 0.0000 ( 40042 PWs)   bands (ev):

   -42.7470 -42.7194 -42.7186 -42.6911 -42.2152 -42.1852 -22.7786 -22.7767
   -22.7453 -22.7236 -22.7226 -22.6847 -22.6826 -22.6338 -22.6091 -22.5790
   -22.4152 -22.3824 -22.3572 -22.1526 -22.1321 -22.1199 -22.0748 -21.9812
    -3.4566  -3.3906  -2.7552  -2.6759  -2.4438  -2.4043  -2.3952  -2.3368
    -2.3300  -2.3232  -2.2977  -2.2967  -2.2885  -2.2191  -2.2016  -2.1779
    -2.1497  -2.1451  -2.1380  -2.1286  -2.1244  -2.0963  -2.0874  -2.0482
    -2.0289  -2.0095  -1.9914  -1.9666  -1.9113  -1.8875  -1.8599  -1.7933
    -1.7445  -1.4214  -1.4118  -1.3657  -1.2561  -0.3754  -0.3678  -0.3198
    -0.1956   0.1543   0.1890   0.4994   0.6491   1.1020   1.1754   1.3392
     1.6099   1.9671   2.1149   2.2031   2.3561   2.5007   2.7011

     the Fermi energy is     0.8365 ev

!    total energy              =   -1248.96412251 Ry
     estimated scf accuracy    <       0.00000808 Ry
     smearing contrib. (-TS)   =      -0.05419743 Ry
     internal energy E=F+TS    =   -1248.90992508 Ry

     The total energy is F=E-TS. E is the sum of the following terms:
     one-electron contribution =   -7586.36603338 Ry
     hartree contribution      =    3861.48719194 Ry
     xc contribution           =    -386.32395297 Ry
     ewald contribution        =    2862.29286627 Ry
     electric field correction =       0.00000306 Ry

     convergence has been achieved in  15 iterations

     negative rho (up, down):  1.310E-04 0.000E+00

     Forces acting on atoms (cartesian axes, Ry/au):

     atom    1 type  1   force =     0.00000279   -0.00001909    0.01301540
     atom    2 type  1   force =    -0.00000647    0.00001369    0.01302531
     atom    3 type  2   force =    -0.00000412   -0.00000403   -0.00189875
     atom    4 type  2   force =    -0.00000706   -0.00000740   -0.00190033
     atom    5 type  1   force =     0.00001052    0.00000084    0.00234463
     atom    6 type  1   force =    -0.00000481    0.00000963    0.00235312
     atom    7 type  2   force =     0.00000329    0.00000159   -0.01227003
     atom    8 type  2   force =     0.00000304    0.00000094   -0.01226976
     atom    9 type  1   force =    -0.00001539    0.00000997   -0.00153033
     atom   10 type  1   force =     0.00001694   -0.00000931   -0.00152609
     atom   11 type  2   force =    -0.00000382    0.00000322    0.00032789
     atom   12 type  2   force =     0.00000508   -0.00000006    0.00032894

     Total force =     0.025755     Total SCF correction =     0.009994
     SCF correction compared to forces is large: reduce conv_thr to get better values

     Writing output data file ./Cu2Y2/Cu2Y2_beef.save/

     General routines

     Parallel routines

   This run was terminated on:   4:22:33  11Jul2022

   JOB DONE.