     Program PWSCF v.6.6 starts on 10Jul2022 at 13: 9:54

     R & G space division:  proc/nbgrp/npool/nimage =      37
     Fft bands division:     nmany     =       1
     Reading input from Cu2Zr2.in
Warning: card &CELL ignored
Warning: card / ignored

     Current dimensions of program PWSCF are:
     Max number of different atomic species (ntypx) = 10
     Max number of k-points (npk) =  40000
     Max angular momentum in pseudopotentials (lmaxx) =  3
     Presently stress not available with electric field and gates

     Message from routine cell_base_init:
     DEPRECATED: use true lattice parameter, not A to a.u. conversion factor
     file Cu.pbe-dn-rrkjus_psl.1.0.0.UPF: wavefunction(s)  3D renormalized
     file Zr.pbe-spn-rrkjus_psl.1.0.0.UPF: wavefunction(s)  4S renormalized

     IMPORTANT: XC functional enforced from input :
     Exchange-correlation= BEEF-VDW
                           (   1   4  43  14   2   0   0)
     Any further DFT definition will be discarded
     Please, verify this is what you really want

     Subspace diagonalization in iterative solution of the eigenvalue problem:
     a serial algorithm will be used

     Found symmetry operation: I + ( -0.5000  0.5000  0.0000)
     This is a supercell, fractional translations are disabled

     bravais-lattice index     =            0
     lattice parameter (alat)  =       1.8897  a.u.
     unit-cell volume          =    5058.4277 (a.u.)^3
     number of atoms/cell      =           12
     number of atomic types    =            2
     number of electrons       =       138.00
     number of Kohn-Sham states=           83
     kinetic-energy cutoff     =      55.1240  Ry
     charge density cutoff     =     551.2396  Ry
     convergence threshold     =      1.0E-05
     mixing beta               =       0.1000
     number of iterations used =           10  plain     mixing
     Exchange-correlation= BEEF-VDW
                           (   1   4  43  14   2   0   0)

     celldm(1)=   1.889726  celldm(2)=   0.000000  celldm(3)=   0.000000
     celldm(4)=   0.000000  celldm(5)=   0.000000  celldm(6)=   0.000000

     crystal axes: (cart. coord. in units of alat)
               a(1) = (   5.682414   0.000000   0.000000 )
               a(2) = (   1.907147   5.352814   0.000000 )
               a(3) = (   0.000000   0.000000  24.643592 )

     reciprocal axes: (cart. coord. in units 2 pi/alat)
               b(1) = (  0.175982 -0.062700  0.000000 )
               b(2) = (  0.000000  0.186818  0.000000 )
               b(3) = (  0.000000  0.000000  0.040579 )

     PseudoPot. # 1 for Cu read from file:
     ../pseudo/Cu.pbe-dn-rrkjus_psl.1.0.0.UPF
     MD5 check sum: 8469560995d0c2df1ffe68c099c04a63
     Pseudo is Ultrasoft + core correction, Zval = 11.0
     Generated using "atomic" code by A. Dal Corso v.6.3
     Using radial grid of 1199 points,  6 beta functions with:
                l(1) =   0
                l(2) =   0
                l(3) =   1
                l(4) =   1
                l(5) =   2
                l(6) =   2
     Q(r) pseudized with 0 coefficients

     PseudoPot. # 2 for Zr read from file:
     ../pseudo/Zr.pbe-spn-rrkjus_psl.1.0.0.UPF
     MD5 check sum: 3d17ee99aa1707c2ccb6b09ed65e51a1
     Pseudo is Ultrasoft + core correction, Zval = 12.0
     Generated using "atomic" code by A. Dal Corso v.6.2.2
     Using radial grid of 1225 points,  6 beta functions with:
                l(1) =   0
                l(2) =   0
                l(3) =   1
                l(4) =   1
                l(5) =   2
                l(6) =   2
     Q(r) pseudized with 0 coefficients

     atomic species   valence    mass     pseudopotential
        Cu            11.00    63.54600     Cu( 1.00)
        Zr            12.00    91.22400     Zr( 1.00)

     No symmetry found

   Cartesian axes

     site n.     atom                  positions (alat units)
         1           Cu  tau(   1) = (   0.0000000   0.0000000  10.0000000  )
         2           Cu  tau(   2) = (   3.7947805   2.6764068  10.0000000  )
         3           Zr  tau(   3) = (   2.8412068   0.0000000  10.0000000  )
         4           Zr  tau(   4) = (   0.9535737   2.6764068  10.0000000  )
         5           Cu  tau(   5) = (   5.6824137   4.0077287  12.3217958  )
         6           Cu  tau(   6) = (   1.8876332   1.3313219  12.3217958  )
         7           Zr  tau(   7) = (   2.8412068   4.0077287  12.3217958  )
         8           Zr  tau(   8) = (   4.7288400   1.3313219  12.3217958  )
         9           Cu  tau(   9) = (   3.7751487   2.6625519  14.5544670  )
        10           Cu  tau(  10) = (   7.5698862   5.3389456  14.5544586  )
        11           Zr  tau(  11) = (   6.6179996   2.6637083  14.5985903  )
        12           Zr  tau(  12) = (   4.7303503   5.3401276  14.5985871  )

     number of k points=    74  Fermi-Dirac smearing, width (Ry)=  0.0100
                       cart. coord. in units 2pi/alat
        k(    1) = (   0.0000000   0.0000000   0.0000000), wk =   0.0138889
        k(    2) = (   0.0000000   0.0155681   0.0000000), wk =   0.0277778
        k(    3) = (   0.0000000   0.0311363   0.0000000), wk =   0.0277778
        k(    4) = (   0.0000000   0.0467044   0.0000000), wk =   0.0277778
        k(    5) = (   0.0000000   0.0622725   0.0000000), wk =   0.0277778
        k(    6) = (   0.0000000   0.0778407   0.0000000), wk =   0.0277778
        k(    7) = (   0.0000000  -0.0934088   0.0000000), wk =   0.0138889
        k(    8) = (   0.0146651  -0.0052250   0.0000000), wk =   0.0277778
        k(    9) = (   0.0146651   0.0103431   0.0000000), wk =   0.0277778
        k(   10) = (   0.0146651   0.0259113   0.0000000), wk =   0.0277778
        k(   11) = (   0.0146651   0.0414794   0.0000000), wk =   0.0277778
        k(   12) = (   0.0146651   0.0570475   0.0000000), wk =   0.0277778
        k(   13) = (   0.0146651   0.0726157   0.0000000), wk =   0.0277778
        k(   14) = (   0.0146651  -0.0986338   0.0000000), wk =   0.0277778
        k(   15) = (   0.0146651  -0.0830657   0.0000000), wk =   0.0277778
        k(   16) = (   0.0146651  -0.0674976   0.0000000), wk =   0.0277778
        k(   17) = (   0.0146651  -0.0519294   0.0000000), wk =   0.0277778
        k(   18) = (   0.0146651  -0.0363613   0.0000000), wk =   0.0277778
        k(   19) = (   0.0146651  -0.0207932   0.0000000), wk =   0.0277778
        k(   20) = (   0.0293303  -0.0104500   0.0000000), wk =   0.0277778
        k(   21) = (   0.0293303   0.0051181   0.0000000), wk =   0.0277778
        k(   22) = (   0.0293303   0.0206862   0.0000000), wk =   0.0277778
        k(   23) = (   0.0293303   0.0362544   0.0000000), wk =   0.0277778
        k(   24) = (   0.0293303   0.0518225   0.0000000), wk =   0.0277778
        k(   25) = (   0.0293303   0.0673906   0.0000000), wk =   0.0277778
        k(   26) = (   0.0293303  -0.1038589   0.0000000), wk =   0.0277778
        k(   27) = (   0.0293303  -0.0882907   0.0000000), wk =   0.0277778
        k(   28) = (   0.0293303  -0.0727226   0.0000000), wk =   0.0277778
        k(   29) = (   0.0293303  -0.0571544   0.0000000), wk =   0.0277778
        k(   30) = (   0.0293303  -0.0415863   0.0000000), wk =   0.0277778
        k(   31) = (   0.0293303  -0.0260182   0.0000000), wk =   0.0277778
        k(   32) = (   0.0439954  -0.0156751   0.0000000), wk =   0.0277778
        k(   33) = (   0.0439954  -0.0001069   0.0000000), wk =   0.0277778
        k(   34) = (   0.0439954   0.0154612   0.0000000), wk =   0.0277778
        k(   35) = (   0.0439954   0.0310293   0.0000000), wk =   0.0277778
        k(   36) = (   0.0439954   0.0465975   0.0000000), wk =   0.0277778
        k(   37) = (   0.0439954   0.0621656   0.0000000), wk =   0.0277778
        k(   38) = (   0.0439954  -0.1090839   0.0000000), wk =   0.0277778
        k(   39) = (   0.0439954  -0.0935157   0.0000000), wk =   0.0277778
        k(   40) = (   0.0439954  -0.0779476   0.0000000), wk =   0.0277778
        k(   41) = (   0.0439954  -0.0623795   0.0000000), wk =   0.0277778
        k(   42) = (   0.0439954  -0.0468113   0.0000000), wk =   0.0277778
        k(   43) = (   0.0439954  -0.0312432   0.0000000), wk =   0.0277778
        k(   44) = (   0.0586605  -0.0209001   0.0000000), wk =   0.0277778
        k(   45) = (   0.0586605  -0.0053319   0.0000000), wk =   0.0277778
        k(   46) = (   0.0586605   0.0102362   0.0000000), wk =   0.0277778
        k(   47) = (   0.0586605   0.0258043   0.0000000), wk =   0.0277778
        k(   48) = (   0.0586605   0.0413725   0.0000000), wk =   0.0277778
        k(   49) = (   0.0586605   0.0569406   0.0000000), wk =   0.0277778
        k(   50) = (   0.0586605  -0.1143089   0.0000000), wk =   0.0277778
        k(   51) = (   0.0586605  -0.0987408   0.0000000), wk =   0.0277778
        k(   52) = (   0.0586605  -0.0831726   0.0000000), wk =   0.0277778
        k(   53) = (   0.0586605  -0.0676045   0.0000000), wk =   0.0277778
        k(   54) = (   0.0586605  -0.0520363   0.0000000), wk =   0.0277778
        k(   55) = (   0.0586605  -0.0364682   0.0000000), wk =   0.0277778
        k(   56) = (   0.0733256  -0.0261251   0.0000000), wk =   0.0277778
        k(   57) = (   0.0733256  -0.0105570   0.0000000), wk =   0.0277778
        k(   58) = (   0.0733256   0.0050112   0.0000000), wk =   0.0277778
        k(   59) = (   0.0733256   0.0205793   0.0000000), wk =   0.0277778
        k(   60) = (   0.0733256   0.0361474   0.0000000), wk =   0.0277778
        k(   61) = (   0.0733256   0.0517156   0.0000000), wk =   0.0277778
        k(   62) = (   0.0733256  -0.1195339   0.0000000), wk =   0.0277778
        k(   63) = (   0.0733256  -0.1039658   0.0000000), wk =   0.0277778
        k(   64) = (   0.0733256  -0.0883976   0.0000000), wk =   0.0277778
        k(   65) = (   0.0733256  -0.0728295   0.0000000), wk =   0.0277778
        k(   66) = (   0.0733256  -0.0572614   0.0000000), wk =   0.0277778
        k(   67) = (   0.0733256  -0.0416932   0.0000000), wk =   0.0277778
        k(   68) = (  -0.0879908   0.0313501   0.0000000), wk =   0.0138889
        k(   69) = (  -0.0879908   0.0469183   0.0000000), wk =   0.0277778
        k(   70) = (  -0.0879908   0.0624864   0.0000000), wk =   0.0277778
        k(   71) = (  -0.0879908   0.0780545   0.0000000), wk =   0.0277778
        k(   72) = (  -0.0879908   0.0936227   0.0000000), wk =   0.0277778
        k(   73) = (  -0.0879908   0.1091908   0.0000000), wk =   0.0277778
        k(   74) = (  -0.0879908  -0.0620587   0.0000000), wk =   0.0138889

     Initial potential from superposition of free atoms

     starting charge  137.98571, renormalised to  138.00000

     negative rho (up, down):  3.185E-04 0.000E+00

     %%%%%%%%%%%%%%%%%%%%%%%%%%%%%%%%%%%%%%%%%%%%%%%%%%%%%%%%%%%%%%%%%%%%%%%%
     %                                                                      %
     % You are using vdW-DF, which was implemented by the Thonhauser group. %
     % Please cite the following two papers that made this development      %
     % possible and the two reviews that describe the various versions:     %
     %                                                                      %
     %   T. Thonhauser et al., PRL 115, 136402 (2015).                      %
     %   T. Thonhauser et al., PRB 76, 125112 (2007).                       %
     %   K. Berland et al., Rep. Prog. Phys. 78, 066501 (2015).             %
     %   D.C. Langreth et al., J. Phys.: Condens. Matter 21, 084203 (2009). %
     %                                                                      %
     %                                                                      %
     % If you are calculating the stress with vdW-DF, please also cite:     %
     %                                                                      %
     %   R. Sabatini et al., J. Phys.: Condens. Matter 24, 424209 (2012).   %
     %                                                                      %
     %%%%%%%%%%%%%%%%%%%%%%%%%%%%%%%%%%%%%%%%%%%%%%%%%%%%%%%%%%%%%%%%%%%%%%%%

     Adding external electric field

     Computed dipole along edir(3) :
        Dipole                0.0002 Ry au,          0.0004 Debye
        Dipole field          0.0000 Ry au,

        Potential amp.       -0.0000 Ry
        Total length         45.4054 bohr

     Starting wfcs are  132 randomized atomic wfcs

     Self-consistent Calculation

     iteration #  1     ecut=    55.12 Ry     beta= 0.10
     Davidson diagonalization with overlap
     ethr =  1.00E-02,  avg # of iterations =  2.0

[...]

     total energy              =   -1343.93672778 Ry
     estimated scf accuracy    <       2.99350822 Ry

[...]

     iteration #  9     ecut=    55.12 Ry     beta= 0.10
     Davidson diagonalization with overlap
     c_bands:  1 eigenvalues not converged
     ethr =  3.72E-06,  avg # of iterations =  4.6

[...]

     iteration # 13     ecut=    55.12 Ry     beta= 0.10
     Davidson diagonalization with overlap
     c_bands:  1 eigenvalues not converged
     ethr =  9.98E-08,  avg # of iterations =  6.9

[...]

     total energy              =   -1344.15244297 Ry
     estimated scf accuracy    <       0.00005588 Ry

     iteration # 14     ecut=    55.12 Ry     beta= 0.10
     Davidson diagonalization with overlap
     ethr =  4.05E-08,  avg # of iterations =  2.2

[...]

     Adding external electric field

     Computed dipole along edir(3) :
        Dipole                0.0054 Ry au,          0.0137 Debye
        Dipole field          0.0000 Ry au,

        Potential amp.       -0.0012 Ry
        Total length         45.4054 bohr

     End of self-consistent calculation

          k = 0.0000 0.0000 0.0000 ( 34997 PWs)   bands (ev):

   -48.6773 -48.6632 -48.6428 -48.6285 -48.2531 -48.2193 -26.7462 -26.7221
   -26.7206 -26.7050 -26.6994 -26.6733 -26.6662 -26.6456 -26.6277 -26.5922
   -26.4427 -26.3148 -26.3077 -26.2116 -26.1835 -26.1427 -26.1365 -26.0309
    -5.5238  -4.0735  -3.4968  -3.4157  -3.3315  -2.9602  -2.9248  -2.8942
    -2.8858  -2.8497  -2.7919  -2.6788  -2.6190  -2.4136  -2.3975  -2.3948
    -2.3798  -2.3682  -2.2958  -2.2686  -2.2661  -2.2473  -2.2253  -2.0975
    -2.0474  -1.9878  -1.9862  -1.9673  -1.8833  -1.7986  -1.7561  -1.7010
    -1.3514  -1.1845  -1.1310  -1.0572   0.0178   0.3270   0.3312   0.5721
     0.5983   0.7416   0.8541   1.1688   1.2451   1.5986   1.6093   1.6254
     1.7250   1.8166   1.8970   1.9823   2.1526   2.2045   2.8896   2.9361
     2.9878   3.0442   3.1064

[...]

          k = 0.0733-0.0417 0.0000 ( 34976 PWs)   bands (ev):

[...]

          k =-0.0880 0.0314 0.0000 ( 34976 PWs)   bands (ev):

[...]

          k =-0.0880-0.0621 0.0000 ( 34990 PWs)   bands (ev):

   -48.6762 -48.6620 -48.6436 -48.6294 -48.2543 -48.2179 -26.7714 -26.7142
   -26.7135 -26.7043 -26.7030 -26.7008 -26.6767 -26.6423 -26.6224 -26.5862
   -26.4402 -26.3143 -26.3072 -26.1882 -26.1808 -26.1660 -26.1427 -26.0343
    -3.7560  -3.7036  -2.9490  -2.8257  -2.6074  -2.5929  -2.5887  -2.4760
    -2.4757  -2.4623  -2.4467  -2.4101  -2.3852  -2.3241  -2.2873  -2.2743
    -2.2474  -2.1812  -2.1690  -2.1441  -2.1165  -2.1104  -2.0846  -2.0385
    -2.0381  -2.0327  -2.0247  -1.9710  -1.9167  -1.8615  -1.8567  -1.8211
    -1.7008  -1.6757  -1.2765  -1.2666  -1.1514  -0.8486  -0.8242  -0.5512
    -0.4834   0.0710   0.2451   0.2589   0.2834   0.4942   0.5809   0.8145
     0.8236   1.4492   1.7277   1.7536   2.0576   2.2490   2.2698   2.3390
     2.3604   2.7608   2.7678

     the Fermi energy is     0.9524 ev

!    total energy              =   -1344.15244635 Ry
     estimated scf accuracy    <       0.00000955 Ry
     smearing contrib. (-TS)   =      -0.07323978 Ry
     internal energy E=F+TS    =   -1344.07920657 Ry

     The total energy is F=E-TS. E is the sum of the following terms:
     one-electron contribution =   -9461.29827378 Ry
     hartree contribution      =    4797.69577825 Ry
     xc contribution           =    -386.77357216 Ry
     ewald contribution        =    3706.29686105 Ry
     electric field correction =       0.00000007 Ry

     convergence has been achieved in  14 iterations

     negative rho (up, down):  3.292E-04 0.000E+00

     Forces acting on atoms (cartesian axes, Ry/au):

     atom    1 type  1   force =     0.00009843    0.00006139    0.00414280
     atom    2 type  1   force =     0.00008700    0.00006218    0.00415957
     atom    3 type  2   force =    -0.00024229   -0.00017434    0.00717886
     atom    4 type  2   force =    -0.00024424   -0.00016653    0.00718283
     atom    5 type  1   force =     0.00001139    0.00001953   -0.00333858
     atom    6 type  1   force =     0.00000605   -0.00000510   -0.00333465
     atom    7 type  2   force =     0.00004964    0.00003379   -0.01029652
     atom    8 type  2   force =     0.00005368    0.00003794   -0.01030142
     atom    9 type  1   force =     0.00010575    0.00007140    0.00168167
     atom   10 type  1   force =     0.00013949    0.00010563    0.00166514
     atom   11 type  2   force =    -0.00003189   -0.00001985    0.00062840
     atom   12 type  2   force =    -0.00003302   -0.00002604    0.00063190

     Total force =     0.019459     Total SCF correction =     0.017918
     SCF correction compared to forces is large: reduce conv_thr to get better values

     Writing output data file ./Cu2Zr2/Cu2Zr2_beef.save/

     General routines

     Parallel routines

   This run was terminated on:  13:57:16  10Jul2022

   JOB DONE.