     Program PWSCF v.6.6 starts on  9Jul2022 at 23:43:19

     R & G space division:  proc/nbgrp/npool/nimage =      37
     Fft bands division:     nmany     =       1
     Reading input from Cu2Zn2.in
Warning: card &CELL ignored
Warning: card / ignored

     Current dimensions of program PWSCF are:
     Max number of different atomic species (ntypx) = 10
     Max number of k-points (npk) =  40000
     Max angular momentum in pseudopotentials (lmaxx) =  3
     Presently stress not available with electric field and gates

     Message from routine cell_base_init:
     DEPRECATED: use true lattice parameter, not A to a.u. conversion factor
     file Cu.pbe-dn-rrkjus_psl.1.0.0.UPF: wavefunction(s)  3D renormalized
     file Zn.pbe-dnl-rrkjus_psl.1.0.0.UPF: wavefunction(s)  3D renormalized

     IMPORTANT: XC functional enforced from input :
     Exchange-correlation= BEEF-VDW
                           (   1   4  43  14   2   0   0)
     Any further DFT definition will be discarded
     Please, verify this is what you really want

     Subspace diagonalization in iterative solution of the eigenvalue problem:
     a serial algorithm will be used

     Found symmetry operation: I + ( -0.5000 -0.5000  0.0000)
     This is a supercell, fractional translations are disabled

     bravais-lattice index     =            0
     lattice parameter (alat)  =       1.8897  a.u.
     unit-cell volume          =    4026.8856 (a.u.)^3
     number of atoms/cell      =           12
     number of atomic types    =            2
     number of electrons       =       138.00
     number of Kohn-Sham states=           83
     kinetic-energy cutoff     =      55.1240  Ry
     charge density cutoff     =     551.2396  Ry
     convergence threshold     =      1.0E-05
     mixing beta               =       0.1000
     number of iterations used =           10  plain     mixing
     Exchange-correlation= BEEF-VDW
                           (   1   4  43  14   2   0   0)

     celldm(1)=   1.889726  celldm(2)=   0.000000  celldm(3)=   0.000000
     celldm(4)=   0.000000  celldm(5)=   0.000000  celldm(6)=   0.000000

     crystal axes: (cart. coord. in units of alat)
               a(1) = (   5.215996   0.000000   0.000000 )
               a(2) = (   2.252879   4.704376   0.000000 )
               a(3) = (   0.000000   0.000000  24.318316 )

     reciprocal axes: (cart. coord. in units 2 pi/alat)
               b(1) = (  0.191718 -0.091812  0.000000 )
               b(2) = (  0.000000  0.212568  0.000000 )
               b(3) = (  0.000000  0.000000  0.041121 )

     PseudoPot. # 1 for Cu read from file:
     ../pseudo/Cu.pbe-dn-rrkjus_psl.1.0.0.UPF
     MD5 check sum: 8469560995d0c2df1ffe68c099c04a63
     Pseudo is Ultrasoft + core correction, Zval = 11.0
     Generated using "atomic" code by A. Dal Corso v.6.3
     Using radial grid of 1199 points,  6 beta functions with:
                l(1) =   0
                l(2) =   0
                l(3) =   1
                l(4) =   1
                l(5) =   2
                l(6) =   2
     Q(r) pseudized with 0 coefficients

     PseudoPot. # 2 for Zn read from file:
     ../pseudo/Zn.pbe-dnl-rrkjus_psl.1.0.0.UPF
     MD5 check sum: 7f56cabf9682ed8c977c2f7d0c5985c5
     Pseudo is Ultrasoft + core correction, Zval = 12.0
     Generated using "atomic" code by A. Dal Corso v.6.2.2
     Using radial grid of 1201 points,  6 beta functions with:
                l(1) =   0
                l(2) =   0
                l(3) =   1
                l(4) =   1
                l(5) =   2
                l(6) =   2
     Q(r) pseudized with 0 coefficients

     atomic species   valence    mass     pseudopotential
        Cu            11.00    63.54600     Cu( 1.00)
        Zn            12.00    65.38000     Zn( 1.00)

     No symmetry found

   Cartesian axes

     site n.     atom                  positions (alat units)
         1           Cu  tau(   1) = (   0.0000000   0.0000000  10.0000000  )
         2           Cu  tau(   2) = (   3.7344376   2.3521882  10.0000000  )
         3           Zn  tau(   3) = (   2.6079982   0.0000000  10.0000000  )
         4           Zn  tau(   4) = (   1.1264393   2.3521882  10.0000000  )
         5           Cu  tau(   5) = (   5.2159965   3.2853690  12.1591579  )
         6           Cu  tau(   6) = (   1.4815589   0.9331808  12.1591579  )
         7           Zn  tau(   7) = (   2.6079982   3.2853690  12.1591579  )
         8           Zn  tau(   8) = (   4.0895572   0.9331808  12.1591579  )
         9           Cu  tau(   9) = (   2.9552641   1.8614179  14.2996905  )
        10           Cu  tau(  10) = (   6.6896932   4.2136016  14.2996844  )
        11           Zn  tau(  11) = (   5.5758048   1.8693152  14.4827848  )
        12           Zn  tau(  12) = (   4.0942454   4.2215048  14.4827853  )

     number of k points=    74  Fermi-Dirac smearing, width (Ry)=  0.0100
                       cart. coord. in units 2pi/alat
        k(    1) = (   0.0000000   0.0000000   0.0000000), wk =   0.0138889
        k(    2) = (   0.0000000   0.0177140   0.0000000), wk =   0.0277778
        k(    3) = (   0.0000000   0.0354280   0.0000000), wk =   0.0277778
        k(    4) = (   0.0000000   0.0531420   0.0000000), wk =   0.0277778
        k(    5) = (   0.0000000   0.0708560   0.0000000), wk =   0.0277778
        k(    6) = (   0.0000000   0.0885700   0.0000000), wk =   0.0277778
        k(    7) = (   0.0000000  -0.1062840   0.0000000), wk =   0.0138889
        k(    8) = (   0.0159765  -0.0076510   0.0000000), wk =   0.0277778
        k(    9) = (   0.0159765   0.0100630   0.0000000), wk =   0.0277778
        k(   10) = (   0.0159765   0.0277770   0.0000000), wk =   0.0277778
        k(   11) = (   0.0159765   0.0454910   0.0000000), wk =   0.0277778
        k(   12) = (   0.0159765   0.0632050   0.0000000), wk =   0.0277778
        k(   13) = (   0.0159765   0.0809190   0.0000000), wk =   0.0277778
        k(   14) = (   0.0159765  -0.1139350   0.0000000), wk =   0.0277778
        k(   15) = (   0.0159765  -0.0962210   0.0000000), wk =   0.0277778
        k(   16) = (   0.0159765  -0.0785070   0.0000000), wk =   0.0277778
        k(   17) = (   0.0159765  -0.0607930   0.0000000), wk =   0.0277778
        k(   18) = (   0.0159765  -0.0430790   0.0000000), wk =   0.0277778
        k(   19) = (   0.0159765  -0.0253650   0.0000000), wk =   0.0277778
        k(   20) = (   0.0319530  -0.0153020   0.0000000), wk =   0.0277778
        k(   21) = (   0.0319530   0.0024120   0.0000000), wk =   0.0277778
        k(   22) = (   0.0319530   0.0201260   0.0000000), wk =   0.0277778
        k(   23) = (   0.0319530   0.0378400   0.0000000), wk =   0.0277778
        k(   24) = (   0.0319530   0.0555540   0.0000000), wk =   0.0277778
        k(   25) = (   0.0319530   0.0732680   0.0000000), wk =   0.0277778
        k(   26) = (   0.0319530  -0.1215860   0.0000000), wk =   0.0277778
        k(   27) = (   0.0319530  -0.1038720   0.0000000), wk =   0.0277778
        k(   28) = (   0.0319530  -0.0861580   0.0000000), wk =   0.0277778
        k(   29) = (   0.0319530  -0.0684440   0.0000000), wk =   0.0277778
        k(   30) = (   0.0319530  -0.0507300   0.0000000), wk =   0.0277778
        k(   31) = (   0.0319530  -0.0330160   0.0000000), wk =   0.0277778
        k(   32) = (   0.0479295  -0.0229530   0.0000000), wk =   0.0277778
        k(   33) = (   0.0479295  -0.0052390   0.0000000), wk =   0.0277778
        k(   34) = (   0.0479295   0.0124751   0.0000000), wk =   0.0277778
        k(   35) = (   0.0479295   0.0301891   0.0000000), wk =   0.0277778
        k(   36) = (   0.0479295   0.0479031   0.0000000), wk =   0.0277778
        k(   37) = (   0.0479295   0.0656171   0.0000000), wk =   0.0277778
        k(   38) = (   0.0479295  -0.1292370   0.0000000), wk =   0.0277778
        k(   39) = (   0.0479295  -0.1115230   0.0000000), wk =   0.0277778
        k(   40) = (   0.0479295  -0.0938090   0.0000000), wk =   0.0277778
        k(   41) = (   0.0479295  -0.0760950   0.0000000), wk =   0.0277778
        k(   42) = (   0.0479295  -0.0583810   0.0000000), wk =   0.0277778
        k(   43) = (   0.0479295  -0.0406670   0.0000000), wk =   0.0277778
        k(   44) = (   0.0639060  -0.0306039   0.0000000), wk =   0.0277778
        k(   45) = (   0.0639060  -0.0128899   0.0000000), wk =   0.0277778
        k(   46) = (   0.0639060   0.0048241   0.0000000), wk =   0.0277778
        k(   47) = (   0.0639060   0.0225381   0.0000000), wk =   0.0277778
        k(   48) = (   0.0639060   0.0402521   0.0000000), wk =   0.0277778
        k(   49) = (   0.0639060   0.0579661   0.0000000), wk =   0.0277778
        k(   50) = (   0.0639060  -0.1368880   0.0000000), wk =   0.0277778
        k(   51) = (   0.0639060  -0.1191740   0.0000000), wk =   0.0277778
        k(   52) = (   0.0639060  -0.1014600   0.0000000), wk =   0.0277778
        k(   53) = (   0.0639060  -0.0837460   0.0000000), wk =   0.0277778
        k(   54) = (   0.0639060  -0.0660319   0.0000000), wk =   0.0277778
        k(   55) = (   0.0639060  -0.0483179   0.0000000), wk =   0.0277778
        k(   56) = (   0.0798825  -0.0382549   0.0000000), wk =   0.0277778
        k(   57) = (   0.0798825  -0.0205409   0.0000000), wk =   0.0277778
        k(   58) = (   0.0798825  -0.0028269   0.0000000), wk =   0.0277778
        k(   59) = (   0.0798825   0.0148871   0.0000000), wk =   0.0277778
        k(   60) = (   0.0798825   0.0326011   0.0000000), wk =   0.0277778
        k(   61) = (   0.0798825   0.0503151   0.0000000), wk =   0.0277778
        k(   62) = (   0.0798825  -0.1445389   0.0000000), wk =   0.0277778
        k(   63) = (   0.0798825  -0.1268249   0.0000000), wk =   0.0277778
        k(   64) = (   0.0798825  -0.1091109   0.0000000), wk =   0.0277778
        k(   65) = (   0.0798825  -0.0913969   0.0000000), wk =   0.0277778
        k(   66) = (   0.0798825  -0.0736829   0.0000000), wk =   0.0277778
        k(   67) = (   0.0798825  -0.0559689   0.0000000), wk =   0.0277778
        k(   68) = (  -0.0958590   0.0459059   0.0000000), wk =   0.0138889
        k(   69) = (  -0.0958590   0.0636199   0.0000000), wk =   0.0277778
        k(   70) = (  -0.0958590   0.0813339   0.0000000), wk =   0.0277778
        k(   71) = (  -0.0958590   0.0990479   0.0000000), wk =   0.0277778
        k(   72) = (  -0.0958590   0.1167619   0.0000000), wk =   0.0277778
        k(   73) = (  -0.0958590   0.1344759   0.0000000), wk =   0.0277778
        k(   74) = (  -0.0958590  -0.0603781   0.0000000), wk =   0.0138889

     Initial potential from superposition of free atoms

     starting charge  137.97627, renormalised to  138.00000

     negative rho (up, down):  2.248E-04 0.000E+00

     %%%%%%%%%%%%%%%%%%%%%%%%%%%%%%%%%%%%%%%%%%%%%%%%%%%%%%%%%%%%%%%%%%%%%%%%
     %                                                                      %
     % You are using vdW-DF, which was implemented by the Thonhauser group. %
     % Please cite the following two papers that made this development      %
     % possible and the two reviews that describe the various versions:     %
     %                                                                      %
     %   T. Thonhauser et al., PRL 115, 136402 (2015).                      %
     %   T. Thonhauser et al., PRB 76, 125112 (2007).                       %
     %   K. Berland et al., Rep. Prog. Phys. 78, 066501 (2015).             %
     %   D.C. Langreth et al., J. Phys.: Condens. Matter 21, 084203 (2009). %
     %                                                                      %
     %                                                                      %
     % If you are calculating the stress with vdW-DF, please also cite:     %
     %                                                                      %
     %   R. Sabatini et al., J. Phys.: Condens. Matter 24, 424209 (2012).   %
     %                                                                      %
     %%%%%%%%%%%%%%%%%%%%%%%%%%%%%%%%%%%%%%%%%%%%%%%%%%%%%%%%%%%%%%%%%%%%%%%%

     Adding external electric field

     Computed dipole along edir(3) :
        Dipole                0.0011 Ry au,          0.0029 Debye
        Dipole field          0.0000 Ry au,

        Potential amp.       -0.0003 Ry
        Total length         44.8061 bohr

     Starting wfcs are  108 randomized atomic wfcs

     Self-consistent Calculation

     iteration #  1     ecut=    55.12 Ry     beta= 0.10
     Davidson diagonalization with overlap
     ethr =  1.00E-02,  avg # of iterations =  3.1

     Threshold (ethr) on eigenvalues was too large:
     Diagonalizing with lowered threshold

     Davidson diagonalization with overlap
     ethr =  1.86E-04,  avg # of iterations =  7.0

[...]

     total energy              =   -1641.96504180 Ry
     estimated scf accuracy    <       0.28329002 Ry

[...]

     iteration #  3     ecut=    55.12 Ry     beta= 0.10
     Davidson diagonalization with overlap
     c_bands:  1 eigenvalues not converged
     ethr =  7.47E-05,  avg # of iterations =  8.4

[...]

     iteration #  6     ecut=    55.12 Ry     beta= 0.10
     Davidson diagonalization with overlap
     c_bands:  1 eigenvalues not converged
     ethr =  5.41E-06,  avg # of iterations = 11.8

[...]

     total energy              =   -1641.95689988 Ry
     estimated scf accuracy    <       0.00009509 Ry

     iteration # 10     ecut=    55.12 Ry     beta= 0.10
     Davidson diagonalization with overlap
     ethr =  6.89E-08,  avg # of iterations =  2.7

[...]

     Adding external electric field

     Computed dipole along edir(3) :
        Dipole                0.0221 Ry au,          0.0562 Debye
        Dipole field          0.0001 Ry au,

        Potential amp.       -0.0062 Ry
        Total length         44.8061 bohr

     End of self-consistent calculation

          k = 0.0000 0.0000 0.0000 ( 27943 PWs)   bands (ev):

    -9.5632  -8.3313  -8.2961  -8.2627  -8.2264  -8.1669  -8.0857  -8.0004
    -7.9848  -7.9553  -7.9422  -7.8674  -7.8305  -7.7973  -7.7688  -7.7131
    -7.6878  -7.6870  -7.6075  -7.6062  -7.5779  -7.5314  -7.5185  -7.4505
    -7.4348  -7.3999  -7.3886  -7.3605  -7.3177  -7.3099  -7.1843  -7.1196
    -5.2002  -4.7671  -4.3625  -4.2181  -4.0293  -3.7617  -3.7320  -3.7042
    -3.6639  -3.5923  -3.5262  -3.5141  -3.3535  -3.3204  -3.1916  -3.1811
    -3.1336  -3.1133  -3.0984  -3.0637  -3.0253  -2.8990  -2.8730  -2.8121
    -2.7937  -2.7651  -2.7319  -2.7270  -2.6546  -2.5416  -2.4801  -1.5548
    -1.4835  -1.3375  -1.1240  -0.9787  -0.9544  -0.7379  -0.5082   0.0658
     1.0857   1.3455   1.9103   2.0955   2.5276   2.8512   3.5300   3.5443
     3.5807   3.9100   4.0004

[...]

          k = 0.0799-0.0560 0.0000 ( 27801 PWs)   bands (ev):

[...]

          k =-0.0959 0.0459 0.0000 ( 27832 PWs)   bands (ev):

[...]

          k =-0.0959-0.0604 0.0000 ( 27852 PWs)   bands (ev):

    -8.4475  -8.2186  -8.1488  -8.1355  -8.0830  -8.0269  -7.9671  -7.9600
    -7.9525  -7.8650  -7.8165  -7.7997  -7.7925  -7.7785  -7.7453  -7.6822
    -7.6643  -7.6592  -7.6137  -7.5833  -7.5392  -7.5079  -7.4825  -7.3992
    -7.3881  -7.3786  -7.3238  -7.3218  -7.3057  -7.1994  -7.1911  -7.0099
    -5.5551  -5.3564  -5.0331  -4.5921  -4.4335  -4.2109  -4.2074  -4.0074
    -3.8829  -3.8344  -3.7729  -3.6958  -3.6947  -3.6862  -3.6266  -3.4399
    -3.3521  -3.2803  -3.2768  -3.2059  -3.1440  -3.1346  -3.0232  -2.9491
    -2.9380  -2.8588  -2.8529  -2.8316  -2.7645  -2.6990  -2.6936  -2.6793
    -2.5165  -1.6053  -1.5561  -1.3774  -1.2207  -0.8216   0.9871   1.3039
     1.3126   1.5455   4.2522   4.3227   4.3955   4.5627   4.6893   4.8114
     4.9922   5.1612   5.4860

     the Fermi energy is    -0.3400 ev

!    total energy              =   -1641.95691454 Ry
     estimated scf accuracy    <       0.00000762 Ry
     smearing contrib. (-TS)   =      -0.01948275 Ry
     internal energy E=F+TS    =   -1641.93743179 Ry

     The total energy is F=E-TS. E is the sum of the following terms:
     one-electron contribution =  -11969.86024881 Ry
     hartree contribution      =    6127.43048539 Ry
     xc contribution           =    -566.54995606 Ry
     ewald contribution        =    4767.04228617 Ry
     electric field correction =       0.00000153 Ry

     convergence has been achieved in  10 iterations

     negative rho (up, down):  1.890E-04 0.000E+00

     Forces acting on atoms (cartesian axes, Ry/au):

     atom    1 type  1   force =     0.00152702    0.00095545    0.00019037
     atom    2 type  1   force =     0.00151353    0.00095362    0.00018636
     atom    3 type  2   force =    -0.00008208   -0.00005101   -0.01824397
     atom    4 type  2   force =    -0.00007208   -0.00005154   -0.01821215
     atom    5 type  1   force =    -0.00241952   -0.00150825    0.00941720
     atom    6 type  1   force =    -0.00239746   -0.00151957    0.00940340
     atom    7 type  2   force =     0.00279467    0.00176614    0.00317541
     atom    8 type  2   force =     0.00278904    0.00175901    0.00317111
     atom    9 type  1   force =     0.00054166    0.00033277    0.00125234
     atom   10 type  1   force =     0.00054251    0.00034124    0.00125744
     atom   11 type  2   force =    -0.00237214   -0.00148911    0.00419657
     atom   12 type  2   force =    -0.00236515   -0.00148876    0.00420592

     Total force =     0.031003     Total SCF correction =     0.014569
     SCF correction compared to forces is large: reduce conv_thr to get better values

     Writing output data file ./Cu2Zn2/Cu2Zn2_beef.save/

     General routines

     Parallel routines

   This run was terminated on:   0:14:32  10Jul2022

   JOB DONE.