     Program PWSCF v.6.6 starts on 28Jun2022 at 10:25: 1

     R & G space division:  proc/nbgrp/npool/nimage =      37
     Fft bands division:     nmany     =       1
     Reading input from Fe2Au2.in
Warning: card &CELL ignored
Warning: card / ignored

     Current dimensions of program PWSCF are:
     Max number of different atomic species (ntypx) = 10
     Max number of k-points (npk) =  40000
     Max angular momentum in pseudopotentials (lmaxx) =  3
     Presently stress not available with electric field and gates

     Message from routine cell_base_init:
     DEPRECATED: use true lattice parameter, not A to a.u. conversion factor
     file Fe.pbe-n-rrkjus_psl.1.0.0.UPF: wavefunction(s)  3D renormalized

     IMPORTANT: XC functional enforced from input :
     Exchange-correlation= BEEF-VDW
                           (   1   4  43  14   2   0   0)
     Any further DFT definition will be discarded
     Please, verify this is what you really want

     Subspace diagonalization in iterative solution of the eigenvalue problem:
     a serial algorithm will be used

     bravais-lattice index     =            0
     lattice parameter (alat)  =       1.8897  a.u.
     unit-cell volume          =    4515.1476 (a.u.)^3
     number of atoms/cell      =           12
     number of atomic types    =            2
     number of electrons       =       114.00
     number of Kohn-Sham states=           68
     kinetic-energy cutoff     =      55.1240  Ry
     charge density cutoff     =     551.2396  Ry
     convergence threshold     =      1.0E-05
     mixing beta               =       0.1000
     number of iterations used =           10  plain     mixing
     Exchange-correlation= BEEF-VDW
                           (   1   4  43  14   2   0   0)

     celldm(1)=   1.889726  celldm(2)=   0.000000  celldm(3)=   0.000000
     celldm(4)=   0.000000  celldm(5)=   0.000000  celldm(6)=   0.000000

     crystal axes: (cart. coord. in units of alat)
               a(1) = (   5.585504   0.000000   0.000000 )
               a(2) = (   2.728037   4.873979   0.000000 )
               a(3) = (   0.000000   0.000000  24.577031 )

     reciprocal axes: (cart. coord. in units 2 pi/alat)
               b(1) = (  0.179035 -0.100208  0.000000 )
               b(2) = (  0.000000  0.205171  0.000000 )
               b(3) = (  0.000000  0.000000  0.040688 )

     PseudoPot. # 1 for Fe read from file:
     ../pseudo/Fe.pbe-n-rrkjus_psl.1.0.0.UPF
     MD5 check sum: e37eda618788e2416bb099156d582190
     Pseudo is Ultrasoft + core correction, Zval =  8.0
     Generated using "atomic" code by A. Dal Corso v.6.5
     Using radial grid of 1191 points,  6 beta functions with:
                l(1) =   0
                l(2) =   0
                l(3) =   1
                l(4) =   1
                l(5) =   2
                l(6) =   2
     Q(r) pseudized with 0 coefficients

     PseudoPot. # 2 for Au read from file:
     ../pseudo/Au.pbe-n-rrkjus_psl.1.0.0.UPF
     MD5 check sum: d7e77ba19504afed2c9b41c931dde4f0
     Pseudo is Ultrasoft + core correction, Zval = 11.0
     Generated using "atomic" code by A. Dal Corso v.6.3
     Using radial grid of 1279 points,  6 beta functions with:
                l(1) =   0
                l(2) =   0
                l(3) =   1
                l(4) =   1
                l(5) =   2
                l(6) =   2
     Q(r) pseudized with 0 coefficients

     atomic species   valence    mass     pseudopotential
        Fe             8.00    55.84500     Fe( 1.00)
        Au            11.00   196.96657     Au( 1.00)

     Starting magnetic structure
     atomic species   magnetization
        Fe           0.750
        Au           0.000

     No symmetry found

   Cartesian axes

     site n.     atom                  positions (alat units)
         1           Fe  tau(   1) = (   0.0000000   0.0000000  10.0000000  )
         2           Fe  tau(   2) = (   4.1567707   2.4369893  10.0000000  )
         3           Au  tau(   3) = (   2.7927520   0.0000000  10.0000000  )
         4           Au  tau(   4) = (   1.3640187   2.4369893  10.0000000  )
         5           Fe  tau(   5) = (   5.5855040   3.2746125  12.2885157  )
         6           Fe  tau(   6) = (   1.4287333   0.8376232  12.2885157  )
         7           Au  tau(   7) = (   2.7927520   3.2746125  12.2885157  )
         8           Au  tau(   8) = (   4.2214853   0.8376232  12.2885157  )
         9           Fe  tau(   9) = (   2.7481861   1.6111770  14.4247941  )
        10           Fe  tau(  10) = (   6.9053005   4.0483700  14.4253408  )
        11           Au  tau(  11) = (   5.6193296   1.6573111  14.6689417  )
        12           Au  tau(  12) = (   4.1907475   4.0940379  14.6689464  )

     number of k points=    74  Fermi-Dirac smearing, width (Ry)=  0.0100
                       cart. coord. in units 2pi/alat
        k(    1) = (   0.0000000   0.0000000   0.0000000), wk =   0.0069444
        k(    2) = (   0.0000000   0.0170976   0.0000000), wk =   0.0138889
        k(    3) = (   0.0000000   0.0341952   0.0000000), wk =   0.0138889
        k(    4) = (   0.0000000   0.0512928   0.0000000), wk =   0.0138889
        k(    5) = (   0.0000000   0.0683904   0.0000000), wk =   0.0138889
        k(    6) = (   0.0000000   0.0854880   0.0000000), wk =   0.0138889
        k(    7) = (   0.0000000  -0.1025856   0.0000000), wk =   0.0069444
        k(    8) = (   0.0149196  -0.0083507   0.0000000), wk =   0.0138889
        k(    9) = (   0.0149196   0.0087469   0.0000000), wk =   0.0138889
        k(   10) = (   0.0149196   0.0258445   0.0000000), wk =   0.0138889
        k(   11) = (   0.0149196   0.0429421   0.0000000), wk =   0.0138889
        k(   12) = (   0.0149196   0.0600397   0.0000000), wk =   0.0138889
        k(   13) = (   0.0149196   0.0771373   0.0000000), wk =   0.0138889
        k(   14) = (   0.0149196  -0.1109363   0.0000000), wk =   0.0138889
        k(   15) = (   0.0149196  -0.0938387   0.0000000), wk =   0.0138889
        k(   16) = (   0.0149196  -0.0767411   0.0000000), wk =   0.0138889
        k(   17) = (   0.0149196  -0.0596435   0.0000000), wk =   0.0138889
        k(   18) = (   0.0149196  -0.0425459   0.0000000), wk =   0.0138889
        k(   19) = (   0.0149196  -0.0254483   0.0000000), wk =   0.0138889
        k(   20) = (   0.0298391  -0.0167014   0.0000000), wk =   0.0138889
        k(   21) = (   0.0298391   0.0003962   0.0000000), wk =   0.0138889
        k(   22) = (   0.0298391   0.0174938   0.0000000), wk =   0.0138889
        k(   23) = (   0.0298391   0.0345914   0.0000000), wk =   0.0138889
        k(   24) = (   0.0298391   0.0516890   0.0000000), wk =   0.0138889
        k(   25) = (   0.0298391   0.0687866   0.0000000), wk =   0.0138889
        k(   26) = (   0.0298391  -0.1192870   0.0000000), wk =   0.0138889
        k(   27) = (   0.0298391  -0.1021894   0.0000000), wk =   0.0138889
        k(   28) = (   0.0298391  -0.0850918   0.0000000), wk =   0.0138889
        k(   29) = (   0.0298391  -0.0679942   0.0000000), wk =   0.0138889
        k(   30) = (   0.0298391  -0.0508966   0.0000000), wk =   0.0138889
        k(   31) = (   0.0298391  -0.0337990   0.0000000), wk =   0.0138889
        k(   32) = (   0.0447587  -0.0250521   0.0000000), wk =   0.0138889
        k(   33) = (   0.0447587  -0.0079545   0.0000000), wk =   0.0138889
        k(   34) = (   0.0447587   0.0091431   0.0000000), wk =   0.0138889
        k(   35) = (   0.0447587   0.0262407   0.0000000), wk =   0.0138889
        k(   36) = (   0.0447587   0.0433383   0.0000000), wk =   0.0138889
        k(   37) = (   0.0447587   0.0604359   0.0000000), wk =   0.0138889
        k(   38) = (   0.0447587  -0.1276377   0.0000000), wk =   0.0138889
        k(   39) = (   0.0447587  -0.1105401   0.0000000), wk =   0.0138889
        k(   40) = (   0.0447587  -0.0934425   0.0000000), wk =   0.0138889
        k(   41) = (   0.0447587  -0.0763449   0.0000000), wk =   0.0138889
        k(   42) = (   0.0447587  -0.0592473   0.0000000), wk =   0.0138889
        k(   43) = (   0.0447587  -0.0421497   0.0000000), wk =   0.0138889
        k(   44) = (   0.0596783  -0.0334028   0.0000000), wk =   0.0138889
        k(   45) = (   0.0596783  -0.0163052   0.0000000), wk =   0.0138889
        k(   46) = (   0.0596783   0.0007924   0.0000000), wk =   0.0138889
        k(   47) = (   0.0596783   0.0178900   0.0000000), wk =   0.0138889
        k(   48) = (   0.0596783   0.0349876   0.0000000), wk =   0.0138889
        k(   49) = (   0.0596783   0.0520852   0.0000000), wk =   0.0138889
        k(   50) = (   0.0596783  -0.1359884   0.0000000), wk =   0.0138889
        k(   51) = (   0.0596783  -0.1188908   0.0000000), wk =   0.0138889
        k(   52) = (   0.0596783  -0.1017932   0.0000000), wk =   0.0138889
        k(   53) = (   0.0596783  -0.0846956   0.0000000), wk =   0.0138889
        k(   54) = (   0.0596783  -0.0675980   0.0000000), wk =   0.0138889
        k(   55) = (   0.0596783  -0.0505004   0.0000000), wk =   0.0138889
        k(   56) = (   0.0745979  -0.0417535   0.0000000), wk =   0.0138889
        k(   57) = (   0.0745979  -0.0246559   0.0000000), wk =   0.0138889
        k(   58) = (   0.0745979  -0.0075583   0.0000000), wk =   0.0138889
        k(   59) = (   0.0745979   0.0095393   0.0000000), wk =   0.0138889
        k(   60) = (   0.0745979   0.0266369   0.0000000), wk =   0.0138889
        k(   61) = (   0.0745979   0.0437345   0.0000000), wk =   0.0138889
        k(   62) = (   0.0745979  -0.1443391   0.0000000), wk =   0.0138889
        k(   63) = (   0.0745979  -0.1272415   0.0000000), wk =   0.0138889
        k(   64) = (   0.0745979  -0.1101439   0.0000000), wk =   0.0138889
        k(   65) = (   0.0745979  -0.0930463   0.0000000), wk =   0.0138889
        k(   66) = (   0.0745979  -0.0759487   0.0000000), wk =   0.0138889
        k(   67) = (   0.0745979  -0.0588511   0.0000000), wk =   0.0138889
        k(   68) = (  -0.0895174   0.0501042   0.0000000), wk =   0.0069444
        k(   69) = (  -0.0895174   0.0672018   0.0000000), wk =   0.0138889
        k(   70) = (  -0.0895174   0.0842994   0.0000000), wk =   0.0138889
        k(   71) = (  -0.0895174   0.1013970   0.0000000), wk =   0.0138889
        k(   72) = (  -0.0895174   0.1184946   0.0000000), wk =   0.0138889
        k(   73) = (  -0.0895174   0.1355922   0.0000000), wk =   0.0138889
        k(   74) = (  -0.0895174  -0.0524814   0.0000000), wk =   0.0069444

     Initial potential from superposition of free atoms

     starting charge  113.99620, renormalised to  114.00000

     %%%%%%%%%%%%%%%%%%%%%%%%%%%%%%%%%%%%%%%%%%%%%%%%%%%%%%%%%%%%%%%%%%%%%%%%
     %                                                                      %
     % You are using vdW-DF, which was implemented by the Thonhauser group. %
     % Please cite the following two papers that made this development      %
     % possible and the two reviews that describe the various versions:     %
     %                                                                      %
     %   T. Thonhauser et al., PRL 115, 136402 (2015).                      %
     %   T. Thonhauser et al., PRB 76, 125112 (2007).                       %
     %   K. Berland et al., Rep. Prog. Phys. 78, 066501 (2015).             %
     %   D.C. Langreth et al., J. Phys.: Condens. Matter 21, 084203 (2009). %
     %                                                                      %
     %                                                                      %
     % If you are calculating the stress with vdW-DF, please also cite:     %
     %                                                                      %
     %   R. Sabatini et al., J. Phys.: Condens. Matter 24, 424209 (2012).   %
     %                                                                      %
     %%%%%%%%%%%%%%%%%%%%%%%%%%%%%%%%%%%%%%%%%%%%%%%%%%%%%%%%%%%%%%%%%%%%%%%%

     Adding external electric field

     Computed dipole along edir(3) :
        Dipole               -0.0002 Ry au,         -0.0006 Debye
        Dipole field         -0.0000 Ry au,

        Potential amp.        0.0001 Ry
        Total length         45.2828 bohr

[...]

     Starting wfcs are  108 randomized atomic wfcs

     Self-consistent Calculation

     iteration #  1     ecut=    55.12 Ry     beta= 0.10
     Davidson diagonalization with overlap
     ethr =  1.00E-02,  avg # of iterations =  2.0

[...]

     total energy              =    -894.25238803 Ry
     estimated scf accuracy    <       1.75028565 Ry

     total magnetization       =    20.12 Bohr mag/cell
     absolute magnetization    =    20.14 Bohr mag/cell

[...]

     iteration # 13     ecut=    55.12 Ry     beta= 0.10
     Davidson diagonalization with overlap
     c_bands:  1 eigenvalues not converged
     c_bands:  1 eigenvalues not converged
     c_bands:  1 eigenvalues not converged
     c_bands:  1 eigenvalues not converged
     ethr =  5.12E-06,  avg # of iterations =  5.6

[...]

     iteration # 16     ecut=    55.12 Ry     beta= 0.10
     Davidson diagonalization with overlap
     c_bands:  1 eigenvalues not converged
     c_bands:  1 eigenvalues not converged
     ethr =  7.05E-07,  avg # of iterations =  5.8

[...]

     total energy              =    -894.39486692 Ry
     estimated scf accuracy    <       0.00002101 Ry

[...]

     iteration # 25     ecut=    55.12 Ry     beta= 0.10
     Davidson diagonalization with overlap
     ethr =  1.84E-08,  avg # of iterations =  5.7

[...]

     Adding external electric field

     Computed dipole along edir(3) :
        Dipole               -0.0393 Ry au,         -0.0998 Debye
        Dipole field         -0.0001 Ry au,

        Potential amp.        0.0099 Ry
        Total length         45.2828 bohr

     Magnetic moment per site:
     atom:    1    charge:    6.4710    magn:    3.0718    constr:    0.0000
     atom:    2    charge:    6.4706    magn:    3.0722    constr:    0.0000
     atom:    3    charge:    8.9116    magn:    0.0756    constr:    0.0000
     atom:    4    charge:    8.9117    magn:    0.0755    constr:    0.0000
     atom:    5    charge:    6.5363    magn:    2.9841    constr:    0.0000
     atom:    6    charge:    6.5365    magn:    2.9839    constr:    0.0000
     atom:    7    charge:    8.9558    magn:    0.0725    constr:    0.0000
     atom:    8    charge:    8.9558    magn:    0.0725    constr:    0.0000
     atom:    9    charge:    6.5102    magn:    3.0283    constr:    0.0000
     atom:   10    charge:    6.5106    magn:    3.0279    constr:    0.0000
     atom:   11    charge:    8.9029    magn:    0.0692    constr:    0.0000
     atom:   12    charge:    8.9029    magn:    0.0692    constr:    0.0000

     End of self-consistent calculation

     Number of k-points >= 100: set verbosity='high' to print the bands.

     the Fermi energy is     0.2303 ev

!    total energy              =    -893.84609257 Ry
     estimated scf accuracy    <       0.00000500 Ry
     smearing contrib. (-TS)   =      -0.05908377 Ry
     internal energy E=F+TS    =    -893.78700881 Ry

     The total energy is F=E-TS. E is the sum of the following terms:
     one-electron contribution =   -6884.41311136 Ry
     hartree contribution      =    3526.09167893 Ry
     xc contribution           =    -392.50555799 Ry
     ewald contribution        =    2857.03997732 Ry
     electric field correction =       0.00000429 Ry

     total magnetization       =    18.43 Bohr mag/cell
     absolute magnetization    =    19.91 Bohr mag/cell

     convergence has been achieved in  25 iterations

     Forces acting on atoms (cartesian axes, Ry/au):

     atom    1 type  1   force =     0.01013729    0.00594584    0.01435435
     atom    2 type  1   force =     0.01013812    0.00593941    0.01434994
     atom    3 type  2   force =    -0.01373210   -0.00804304   -0.01896632
     atom    4 type  2   force =    -0.01372180   -0.00804477   -0.01896282
     atom    5 type  1   force =    -0.00372016   -0.00217765    0.00541866
     atom    6 type  1   force =    -0.00366722   -0.00215127    0.00546237
     atom    7 type  2   force =     0.00766160    0.00443384   -0.00346614
     atom    8 type  2   force =     0.00761864    0.00452180   -0.00347065
     atom    9 type  1   force =    -0.00041940   -0.00024911    0.00022009
     atom   10 type  1   force =    -0.00045742   -0.00026409    0.00013889
     atom   11 type  2   force =     0.00011169   -0.00001451    0.00246264
     atom   12 type  2   force =     0.00005077    0.00010354    0.00245900

     Total force =     0.046938     Total SCF correction =     0.004894
     SCF correction compared to forces is large: reduce conv_thr to get better values

     Writing output data file ./Fe2Au2/Fe2Au2_beef.save/

     General routines

     Parallel routines

   This run was terminated on:  12: 9:33  28Jun2022

   JOB DONE.