     Program PWSCF v.6.6 starts on 28Jun2022 at 10:19:57

     R & G space division:  proc/nbgrp/npool/nimage =      37
     Fft bands division:     nmany     =       1
     Reading input from Fe2Cu2.in
Warning: card &CELL ignored
Warning: card / ignored

     Current dimensions of program PWSCF are:
     Max number of different atomic species (ntypx) = 10
     Max number of k-points (npk) =  40000
     Max angular momentum in pseudopotentials (lmaxx) =  3
     Presently stress not available with electric field and gates

     Message from routine cell_base_init:
     DEPRECATED: use true lattice parameter, not A to a.u. conversion factor
     file Fe.pbe-n-rrkjus_psl.1.0.0.UPF: wavefunction(s)  3D renormalized
     file Cu.pbe-dn-rrkjus_psl.1.0.0.UPF: wavefunction(s)  3D renormalized

     IMPORTANT: XC functional enforced from input :
     Exchange-correlation= BEEF-VDW
                           (   1   4  43  14   2   0   0)
     Any further DFT definition will be discarded
     Please, verify this is what you really want

     Subspace diagonalization in iterative solution of the eigenvalue problem:
     a serial algorithm will be used

     bravais-lattice index     =            0
     lattice parameter (alat)  =       1.8897  a.u.
     unit-cell volume          =    3773.8656 (a.u.)^3
     number of atoms/cell      =           12
     number of atomic types    =            2
     number of electrons       =       114.00
     number of Kohn-Sham states=           68
     kinetic-energy cutoff     =      55.1240  Ry
     charge density cutoff     =     551.2396  Ry
     convergence threshold     =      1.0E-05
     mixing beta               =       0.1000
     number of iterations used =           10  plain     mixing
     Exchange-correlation= BEEF-VDW
                           (   1   4  43  14   2   0   0)

     celldm(1)=   1.889726  celldm(2)=   0.000000  celldm(3)=   0.000000
     celldm(4)=   0.000000  celldm(5)=   0.000000  celldm(6)=   0.000000

     crystal axes: (cart. coord. in units of alat)
               a(1) = (   5.090622   0.000000   0.000000 )
               a(2) = (  -2.545311   4.536833   0.000000 )
               a(3) = (   0.000000   0.000000  24.213985 )

     reciprocal axes: (cart. coord. in units 2 pi/alat)
               b(1) = (  0.196440  0.110209 -0.000000 )
               b(2) = (  0.000000  0.220418  0.000000 )
               b(3) = (  0.000000 -0.000000  0.041298 )

     PseudoPot. # 1 for Fe read from file:
     ../pseudo/Fe.pbe-n-rrkjus_psl.1.0.0.UPF
     MD5 check sum: e37eda618788e2416bb099156d582190
     Pseudo is Ultrasoft + core correction, Zval =  8.0
     Generated using "atomic" code by A. Dal Corso v.6.5
     Using radial grid of 1191 points,  6 beta functions with:
                l(1) =   0
                l(2) =   0
                l(3) =   1
                l(4) =   1
                l(5) =   2
                l(6) =   2
     Q(r) pseudized with 0 coefficients

     PseudoPot. # 2 for Cu read from file:
     ../pseudo/Cu.pbe-dn-rrkjus_psl.1.0.0.UPF
     MD5 check sum: 8469560995d0c2df1ffe68c099c04a63
     Pseudo is Ultrasoft + core correction, Zval = 11.0
     Generated using "atomic" code by A. Dal Corso v.6.3
     Using radial grid of 1199 points,  6 beta functions with:
                l(1) =   0
                l(2) =   0
                l(3) =   1
                l(4) =   1
                l(5) =   2
                l(6) =   2
     Q(r) pseudized with 0 coefficients

     atomic species   valence    mass     pseudopotential
        Fe             8.00    55.84500     Fe( 1.00)
        Cu            11.00    63.54600     Cu( 1.00)

     Starting magnetic structure
     atomic species   magnetization
        Fe           0.750
        Cu           0.000

     No symmetry found

   Cartesian axes

     site n.     atom                  positions (alat units)
         1           Fe  tau(   1) = (   0.0000000   0.0000000  10.0000000  )
         2           Fe  tau(   2) = (   2.5453111   0.0000000  10.0000000  )
         3           Cu  tau(   3) = (   1.2726556   2.2684167  10.0000000  )
         4           Cu  tau(   4) = (  -1.2726556   2.2684167  10.0000000  )
         5           Fe  tau(   5) = (   2.5453111   1.4280024  12.1069926  )
         6           Fe  tau(   6) = (  -0.0000000   1.4280024  12.1069926  )
         7           Cu  tau(   7) = (  -1.2726556   3.6964190  12.1069926  )
         8           Cu  tau(   8) = (   1.2726556   3.6964190  12.1069926  )
         9           Fe  tau(   9) = (  -0.0000004   2.8417706  14.1587755  )
        10           Fe  tau(  10) = (   2.5453109   2.8417282  14.1588227  )
        11           Cu  tau(  11) = (   3.8180905   0.5884399  14.2398955  )
        12           Cu  tau(  12) = (   1.2725312   0.5884407  14.2398958  )

     number of k points=    74  Fermi-Dirac smearing, width (Ry)=  0.0100
                       cart. coord. in units 2pi/alat
        k(    1) = (   0.0000000   0.0000000   0.0000000), wk =   0.0069444
        k(    2) = (   0.0000000   0.0183682   0.0000000), wk =   0.0138889
        k(    3) = (   0.0000000   0.0367363   0.0000000), wk =   0.0138889
        k(    4) = (   0.0000000   0.0551045   0.0000000), wk =   0.0138889
        k(    5) = (   0.0000000   0.0734727   0.0000000), wk =   0.0138889
        k(    6) = (   0.0000000   0.0918409   0.0000000), wk =   0.0138889
        k(    7) = (   0.0000000  -0.1102090   0.0000000), wk =   0.0069444
        k(    8) = (   0.0163700   0.0091841   0.0000000), wk =   0.0138889
        k(    9) = (   0.0163700   0.0275523   0.0000000), wk =   0.0138889
        k(   10) = (   0.0163700   0.0459204   0.0000000), wk =   0.0138889
        k(   11) = (   0.0163700   0.0642886   0.0000000), wk =   0.0138889
        k(   12) = (   0.0163700   0.0826568   0.0000000), wk =   0.0138889
        k(   13) = (   0.0163700   0.1010250   0.0000000), wk =   0.0138889
        k(   14) = (   0.0163700  -0.1010250   0.0000000), wk =   0.0138889
        k(   15) = (   0.0163700  -0.0826568   0.0000000), wk =   0.0138889
        k(   16) = (   0.0163700  -0.0642886   0.0000000), wk =   0.0138889
        k(   17) = (   0.0163700  -0.0459204   0.0000000), wk =   0.0138889
        k(   18) = (   0.0163700  -0.0275523   0.0000000), wk =   0.0138889
        k(   19) = (   0.0163700  -0.0091841   0.0000000), wk =   0.0138889
        k(   20) = (   0.0327399   0.0183682   0.0000000), wk =   0.0138889
        k(   21) = (   0.0327399   0.0367363   0.0000000), wk =   0.0138889
        k(   22) = (   0.0327399   0.0551045   0.0000000), wk =   0.0138889
        k(   23) = (   0.0327399   0.0734727   0.0000000), wk =   0.0138889
        k(   24) = (   0.0327399   0.0918409   0.0000000), wk =   0.0138889
        k(   25) = (   0.0327399   0.1102090   0.0000000), wk =   0.0138889
        k(   26) = (   0.0327399  -0.0918409   0.0000000), wk =   0.0138889
        k(   27) = (   0.0327399  -0.0734727   0.0000000), wk =   0.0138889
        k(   28) = (   0.0327399  -0.0551045   0.0000000), wk =   0.0138889
        k(   29) = (   0.0327399  -0.0367363   0.0000000), wk =   0.0138889
        k(   30) = (   0.0327399  -0.0183682   0.0000000), wk =   0.0138889
        k(   31) = (   0.0327399  -0.0000000   0.0000000), wk =   0.0138889
        k(   32) = (   0.0491099   0.0275523   0.0000000), wk =   0.0138889
        k(   33) = (   0.0491099   0.0459204   0.0000000), wk =   0.0138889
        k(   34) = (   0.0491099   0.0642886   0.0000000), wk =   0.0138889
        k(   35) = (   0.0491099   0.0826568   0.0000000), wk =   0.0138889
        k(   36) = (   0.0491099   0.1010250   0.0000000), wk =   0.0138889
        k(   37) = (   0.0491099   0.1193931   0.0000000), wk =   0.0138889
        k(   38) = (   0.0491099  -0.0826568   0.0000000), wk =   0.0138889
        k(   39) = (   0.0491099  -0.0642886   0.0000000), wk =   0.0138889
        k(   40) = (   0.0491099  -0.0459204   0.0000000), wk =   0.0138889
        k(   41) = (   0.0491099  -0.0275523   0.0000000), wk =   0.0138889
        k(   42) = (   0.0491099  -0.0091841   0.0000000), wk =   0.0138889
        k(   43) = (   0.0491099   0.0091841   0.0000000), wk =   0.0138889
        k(   44) = (   0.0654799   0.0367363   0.0000000), wk =   0.0138889
        k(   45) = (   0.0654799   0.0551045   0.0000000), wk =   0.0138889
        k(   46) = (   0.0654799   0.0734727   0.0000000), wk =   0.0138889
        k(   47) = (   0.0654799   0.0918409   0.0000000), wk =   0.0138889
        k(   48) = (   0.0654799   0.1102090   0.0000000), wk =   0.0138889
        k(   49) = (   0.0654799   0.1285772   0.0000000), wk =   0.0138889
        k(   50) = (   0.0654799  -0.0734727   0.0000000), wk =   0.0138889
        k(   51) = (   0.0654799  -0.0551045   0.0000000), wk =   0.0138889
        k(   52) = (   0.0654799  -0.0367363   0.0000000), wk =   0.0138889
        k(   53) = (   0.0654799  -0.0183682   0.0000000), wk =   0.0138889
        k(   54) = (   0.0654799   0.0000000   0.0000000), wk =   0.0138889
        k(   55) = (   0.0654799   0.0183682   0.0000000), wk =   0.0138889
        k(   56) = (   0.0818499   0.0459204   0.0000000), wk =   0.0138889
        k(   57) = (   0.0818499   0.0642886   0.0000000), wk =   0.0138889
        k(   58) = (   0.0818499   0.0826568   0.0000000), wk =   0.0138889
        k(   59) = (   0.0818499   0.1010250   0.0000000), wk =   0.0138889
        k(   60) = (   0.0818499   0.1193931   0.0000000), wk =   0.0138889
        k(   61) = (   0.0818499   0.1377613   0.0000000), wk =   0.0138889
        k(   62) = (   0.0818499  -0.0642886   0.0000000), wk =   0.0138889
        k(   63) = (   0.0818499  -0.0459204   0.0000000), wk =   0.0138889
        k(   64) = (   0.0818499  -0.0275523   0.0000000), wk =   0.0138889
        k(   65) = (   0.0818499  -0.0091841   0.0000000), wk =   0.0138889
        k(   66) = (   0.0818499   0.0091841   0.0000000), wk =   0.0138889
        k(   67) = (   0.0818499   0.0275523   0.0000000), wk =   0.0138889
        k(   68) = (  -0.0982198  -0.0551045   0.0000000), wk =   0.0069444
        k(   69) = (  -0.0982198  -0.0367363   0.0000000), wk =   0.0138889
        k(   70) = (  -0.0982198  -0.0183682   0.0000000), wk =   0.0138889
        k(   71) = (  -0.0982198   0.0000000   0.0000000), wk =   0.0138889
        k(   72) = (  -0.0982198   0.0183682   0.0000000), wk =   0.0138889
        k(   73) = (  -0.0982198   0.0367363   0.0000000), wk =   0.0138889
        k(   74) = (  -0.0982198  -0.1653136   0.0000000), wk =   0.0069444

     Initial potential from superposition of free atoms

     starting charge  113.99547, renormalised to  114.00000

     %%%%%%%%%%%%%%%%%%%%%%%%%%%%%%%%%%%%%%%%%%%%%%%%%%%%%%%%%%%%%%%%%%%%%%%%
     %                                                                      %
     % You are using vdW-DF, which was implemented by the Thonhauser group. %
     % Please cite the following two papers that made this development      %
     % possible and the two reviews that describe the various versions:     %
     %                                                                      %
     %   T. Thonhauser et al., PRL 115, 136402 (2015).                      %
     %   T. Thonhauser et al., PRB 76, 125112 (2007).                       %
     %   K. Berland et al., Rep. Prog. Phys. 78, 066501 (2015).             %
     %   D.C. Langreth et al., J. Phys.: Condens. Matter 21, 084203 (2009). %
     %                                                                      %
     %                                                                      %
     % If you are calculating the stress with vdW-DF, please also cite:     %
     %                                                                      %
     %   R. Sabatini et al., J. Phys.: Condens. Matter 24, 424209 (2012).   %
     %                                                                      %
     %%%%%%%%%%%%%%%%%%%%%%%%%%%%%%%%%%%%%%%%%%%%%%%%%%%%%%%%%%%%%%%%%%%%%%%%

     Adding external electric field

     Computed dipole along edir(3) :
        Dipole               -0.0001 Ry au,         -0.0002 Debye
        Dipole field         -0.0000 Ry au,

        Potential amp.        0.0000 Ry
        Total length         44.6139 bohr

[...]

     Starting wfcs are  108 randomized atomic wfcs

     Self-consistent Calculation

     iteration #  1     ecut=    55.12 Ry     beta= 0.10
     Davidson diagonalization with overlap
     ethr =  1.00E-02,  avg # of iterations =  2.0

[...]

     total energy              =   -1118.82921747 Ry
     estimated scf accuracy    <       1.50144384 Ry

     total magnetization       =    20.66 Bohr mag/cell
     absolute magnetization    =    20.74 Bohr mag/cell

[...]

     iteration # 15     ecut=    55.12 Ry     beta= 0.10
     Davidson diagonalization with overlap
     c_bands:  1 eigenvalues not converged
     c_bands:  1 eigenvalues not converged
     ethr =  1.68E-06,  avg # of iterations =  5.0

[...]

     total energy              =   -1118.97792053 Ry
     estimated scf accuracy    <       0.00005284 Ry

[...]

     iteration # 25     ecut=    55.12 Ry     beta= 0.10
     Davidson diagonalization with overlap
     ethr =  3.41E-08,  avg # of iterations =  2.9

[...]

     Adding external electric field

     Computed dipole along edir(3) :
        Dipole               -0.0096 Ry au,         -0.0244 Debye
        Dipole field         -0.0000 Ry au,

        Potential amp.        0.0029 Ry
        Total length         44.6139 bohr

     Magnetic moment per site:
     atom:    1    charge:    6.3580    magn:    2.8412    constr:    0.0000
     atom:    2    charge:    6.3583    magn:    2.8410    constr:    0.0000
     atom:    3    charge:    9.7778    magn:    0.0805    constr:    0.0000
     atom:    4    charge:    9.7778    magn:    0.0805    constr:    0.0000
     atom:    5    charge:    6.4300    magn:    2.6920    constr:    0.0000
     atom:    6    charge:    6.4303    magn:    2.6918    constr:    0.0000
     atom:    7    charge:    9.8505    magn:    0.0747    constr:    0.0000
     atom:    8    charge:    9.8505    magn:    0.0747    constr:    0.0000
     atom:    9    charge:    6.3733    magn:    2.8151    constr:    0.0000
     atom:   10    charge:    6.3732    magn:    2.8152    constr:    0.0000
     atom:   11    charge:    9.7717    magn:    0.0790    constr:    0.0000
     atom:   12    charge:    9.7717    magn:    0.0790    constr:    0.0000

     End of self-consistent calculation

     Number of k-points >= 100: set verbosity='high' to print the bands.

     the Fermi energy is    -0.3657 ev

!    total energy              =   -1118.75482040 Ry
     estimated scf accuracy    <       0.00000490 Ry
     smearing contrib. (-TS)   =      -0.04992551 Ry
     internal energy E=F+TS    =   -1118.70489489 Ry

     The total energy is F=E-TS. E is the sum of the following terms:
     one-electron contribution =   -8651.52689395 Ry
     hartree contribution      =    4438.15693775 Ry
     xc contribution           =    -468.48027243 Ry
     ewald contribution        =    3563.14533344 Ry
     electric field correction =       0.00000031 Ry

     total magnetization       =    17.08 Bohr mag/cell
     absolute magnetization    =    18.91 Bohr mag/cell

     convergence has been achieved in  25 iterations

     Forces acting on atoms (cartesian axes, Ry/au):

     atom    1 type  1   force =     0.00000561    0.00312530    0.00926931
     atom    2 type  1   force =    -0.00000166    0.00315990    0.00930580
     atom    3 type  2   force =     0.00005107   -0.00165925   -0.00539987
     atom    4 type  2   force =    -0.00005005   -0.00165165   -0.00539273
     atom    5 type  1   force =     0.00000068   -0.00314148   -0.00070513
     atom    6 type  1   force =    -0.00000263   -0.00319079   -0.00074841
     atom    7 type  2   force =    -0.00012915    0.00317554   -0.00356519
     atom    8 type  2   force =     0.00012630    0.00317411   -0.00356560
     atom    9 type  1   force =     0.00000176    0.00016516    0.00016449
     atom   10 type  1   force =     0.00000468    0.00014020    0.00014131
     atom   11 type  2   force =    -0.00008404   -0.00164554    0.00024593
     atom   12 type  2   force =     0.00007743   -0.00165149    0.00025009

     Total force =     0.018121     Total SCF correction =     0.003773
     SCF correction compared to forces is large: reduce conv_thr to get better values

     Writing output data file ./Fe2Cu2/Fe2Cu2_beef.save/

     General routines

     Parallel routines

   This run was terminated on:  11:38:18  28Jun2022

   JOB DONE.