     Program PWSCF v.6.6 starts on 28Jun2022 at 12: 9:49

     R & G space division:  proc/nbgrp/npool/nimage =      37
     Fft bands division:     nmany     =       1
     Reading input from Fe2Cd2.in
Warning: card &CELL ignored
Warning: card / ignored

     Current dimensions of program PWSCF are:
     Max number of different atomic species (ntypx) = 10
     Max number of k-points (npk) =  40000
     Max angular momentum in pseudopotentials (lmaxx) =  3
     Presently stress not available with electric field and gates

     Message from routine cell_base_init:
     DEPRECATED: use true lattice parameter, not A to a.u. conversion factor
     file Fe.pbe-n-rrkjus_psl.1.0.0.UPF: wavefunction(s)  3D renormalized
     file Cd.pbe-n-rrkjus_psl.1.0.0.UPF: wavefunction(s)  4D renormalized

     IMPORTANT: XC functional enforced from input :
     Exchange-correlation= BEEF-VDW
                           (   1   4  43  14   2   0   0)
     Any further DFT definition will be discarded
     Please, verify this is what you really want

     Subspace diagonalization in iterative solution of the eigenvalue problem:
     a serial algorithm will be used

     bravais-lattice index     =            0
     lattice parameter (alat)  =       1.8897  a.u.
     unit-cell volume          =    4738.6684 (a.u.)^3
     number of atoms/cell      =           12
     number of atomic types    =            2
     number of electrons       =       120.00
     number of Kohn-Sham states=           72
     kinetic-energy cutoff     =      55.1240  Ry
     charge density cutoff     =     551.2396  Ry
     convergence threshold     =      1.0E-05
     mixing beta               =       0.1000
     number of iterations used =           10  plain     mixing
     Exchange-correlation= BEEF-VDW
                           (   1   4  43  14   2   0   0)

     celldm(1)=   1.889726  celldm(2)=   0.000000  celldm(3)=   0.000000
     celldm(4)=   0.000000  celldm(5)=   0.000000  celldm(6)=   0.000000

     crystal axes: (cart. coord. in units of alat)
               a(1) = (   5.630317   0.000000   0.000000 )
               a(2) = (  -2.815159   5.054184   0.000000 )
               a(3) = (   0.000000   0.000000  24.676065 )

     reciprocal axes: (cart. coord. in units 2 pi/alat)
               b(1) = (  0.177610  0.098928 -0.000000 )
               b(2) = (  0.000000  0.197856  0.000000 )
               b(3) = (  0.000000 -0.000000  0.040525 )

     PseudoPot. # 1 for Fe read from file:
     ../pseudo/Fe.pbe-n-rrkjus_psl.1.0.0.UPF
     MD5 check sum: e37eda618788e2416bb099156d582190
     Pseudo is Ultrasoft + core correction, Zval =  8.0
     Generated using "atomic" code by A. Dal Corso v.6.5
     Using radial grid of 1191 points,  6 beta functions with:
                l(1) =   0
                l(2) =   0
                l(3) =   1
                l(4) =   1
                l(5) =   2
                l(6) =   2
     Q(r) pseudized with 0 coefficients

     PseudoPot. # 2 for Cd read from file:
     ../pseudo/Cd.pbe-n-rrkjus_psl.1.0.0.UPF
     MD5 check sum: a744746c89d2344a134ead0d8ab94e7a
     Pseudo is Ultrasoft + core correction, Zval = 12.0
     Generated using "atomic" code by A. Dal Corso v.6.3
     Using radial grid of 1239 points,  6 beta functions with:
                l(1) =   0
                l(2) =   0
                l(3) =   1
                l(4) =   1
                l(5) =   2
                l(6) =   2
     Q(r) pseudized with 0 coefficients

     atomic species   valence    mass     pseudopotential
        Fe             8.00    55.84500     Fe( 1.00)
        Cd            12.00   112.41400     Cd( 1.00)

     Starting magnetic structure
     atomic species   magnetization
        Fe           0.750
        Cd           0.000

     No symmetry found

   Cartesian axes

     site n.     atom                  positions (alat units)
         1           Fe  tau(   1) = (   0.0000000   0.0000000  10.0000000  )
         2           Fe  tau(   2) = (   2.8151587   0.0000000  10.0000000  )
         3           Cd  tau(   3) = (   1.4075793   2.5270918  10.0000000  )
         4           Cd  tau(   4) = (  -1.4075793   2.5270918  10.0000000  )
         5           Fe  tau(   5) = (   2.8151587   1.5680314  12.3380325  )
         6           Fe  tau(   6) = (  -0.0000000   1.5680314  12.3380325  )
         7           Cd  tau(   7) = (  -1.4075793   4.0951232  12.3380325  )
         8           Cd  tau(   8) = (   1.4075793   4.0951232  12.3380325  )
         9           Fe  tau(   9) = (   0.0000021   2.8271861  14.4518002  )
        10           Fe  tau(  10) = (   2.8151481   2.8271516  14.4517445  )
        11           Cd  tau(  11) = (   4.2228099   0.3823518  15.0167567  )
        12           Cd  tau(  12) = (   1.4074962   0.3823404  15.0167740  )

     number of k points=    74  Fermi-Dirac smearing, width (Ry)=  0.0100
                       cart. coord. in units 2pi/alat
        k(    1) = (   0.0000000   0.0000000   0.0000000), wk =   0.0069444
        k(    2) = (   0.0000000   0.0164880   0.0000000), wk =   0.0138889
        k(    3) = (   0.0000000   0.0329760   0.0000000), wk =   0.0138889
        k(    4) = (   0.0000000   0.0494640   0.0000000), wk =   0.0138889
        k(    5) = (   0.0000000   0.0659520   0.0000000), wk =   0.0138889
        k(    6) = (   0.0000000   0.0824399   0.0000000), wk =   0.0138889
        k(    7) = (   0.0000000  -0.0989279   0.0000000), wk =   0.0069444
        k(    8) = (   0.0148008   0.0082440   0.0000000), wk =   0.0138889
        k(    9) = (   0.0148008   0.0247320   0.0000000), wk =   0.0138889
        k(   10) = (   0.0148008   0.0412200   0.0000000), wk =   0.0138889
        k(   11) = (   0.0148008   0.0577080   0.0000000), wk =   0.0138889
        k(   12) = (   0.0148008   0.0741960   0.0000000), wk =   0.0138889
        k(   13) = (   0.0148008   0.0906839   0.0000000), wk =   0.0138889
        k(   14) = (   0.0148008  -0.0906839   0.0000000), wk =   0.0138889
        k(   15) = (   0.0148008  -0.0741960   0.0000000), wk =   0.0138889
        k(   16) = (   0.0148008  -0.0577080   0.0000000), wk =   0.0138889
        k(   17) = (   0.0148008  -0.0412200   0.0000000), wk =   0.0138889
        k(   18) = (   0.0148008  -0.0247320   0.0000000), wk =   0.0138889
        k(   19) = (   0.0148008  -0.0082440   0.0000000), wk =   0.0138889
        k(   20) = (   0.0296016   0.0164880   0.0000000), wk =   0.0138889
        k(   21) = (   0.0296016   0.0329760   0.0000000), wk =   0.0138889
        k(   22) = (   0.0296016   0.0494640   0.0000000), wk =   0.0138889
        k(   23) = (   0.0296016   0.0659520   0.0000000), wk =   0.0138889
        k(   24) = (   0.0296016   0.0824400   0.0000000), wk =   0.0138889
        k(   25) = (   0.0296016   0.0989279   0.0000000), wk =   0.0138889
        k(   26) = (   0.0296016  -0.0824399   0.0000000), wk =   0.0138889
        k(   27) = (   0.0296016  -0.0659520   0.0000000), wk =   0.0138889
        k(   28) = (   0.0296016  -0.0494640   0.0000000), wk =   0.0138889
        k(   29) = (   0.0296016  -0.0329760   0.0000000), wk =   0.0138889
        k(   30) = (   0.0296016  -0.0164880   0.0000000), wk =   0.0138889
        k(   31) = (   0.0296016   0.0000000   0.0000000), wk =   0.0138889
        k(   32) = (   0.0444025   0.0247320   0.0000000), wk =   0.0138889
        k(   33) = (   0.0444025   0.0412200   0.0000000), wk =   0.0138889
        k(   34) = (   0.0444025   0.0577080   0.0000000), wk =   0.0138889
        k(   35) = (   0.0444025   0.0741960   0.0000000), wk =   0.0138889
        k(   36) = (   0.0444025   0.0906839   0.0000000), wk =   0.0138889
        k(   37) = (   0.0444025   0.1071719   0.0000000), wk =   0.0138889
        k(   38) = (   0.0444025  -0.0741959   0.0000000), wk =   0.0138889
        k(   39) = (   0.0444025  -0.0577080   0.0000000), wk =   0.0138889
        k(   40) = (   0.0444025  -0.0412200   0.0000000), wk =   0.0138889
        k(   41) = (   0.0444025  -0.0247320   0.0000000), wk =   0.0138889
        k(   42) = (   0.0444025  -0.0082440   0.0000000), wk =   0.0138889
        k(   43) = (   0.0444025   0.0082440   0.0000000), wk =   0.0138889
        k(   44) = (   0.0592033   0.0329760   0.0000000), wk =   0.0138889
        k(   45) = (   0.0592033   0.0494640   0.0000000), wk =   0.0138889
        k(   46) = (   0.0592033   0.0659520   0.0000000), wk =   0.0138889
        k(   47) = (   0.0592033   0.0824400   0.0000000), wk =   0.0138889
        k(   48) = (   0.0592033   0.0989279   0.0000000), wk =   0.0138889
        k(   49) = (   0.0592033   0.1154159   0.0000000), wk =   0.0138889
        k(   50) = (   0.0592033  -0.0659520   0.0000000), wk =   0.0138889
        k(   51) = (   0.0592033  -0.0494640   0.0000000), wk =   0.0138889
        k(   52) = (   0.0592033  -0.0329760   0.0000000), wk =   0.0138889
        k(   53) = (   0.0592033  -0.0164880   0.0000000), wk =   0.0138889
        k(   54) = (   0.0592033   0.0000000   0.0000000), wk =   0.0138889
        k(   55) = (   0.0592033   0.0164880   0.0000000), wk =   0.0138889
        k(   56) = (   0.0740041   0.0412200   0.0000000), wk =   0.0138889
        k(   57) = (   0.0740041   0.0577080   0.0000000), wk =   0.0138889
        k(   58) = (   0.0740041   0.0741960   0.0000000), wk =   0.0138889
        k(   59) = (   0.0740041   0.0906840   0.0000000), wk =   0.0138889
        k(   60) = (   0.0740041   0.1071719   0.0000000), wk =   0.0138889
        k(   61) = (   0.0740041   0.1236599   0.0000000), wk =   0.0138889
        k(   62) = (   0.0740041  -0.0577080   0.0000000), wk =   0.0138889
        k(   63) = (   0.0740041  -0.0412200   0.0000000), wk =   0.0138889
        k(   64) = (   0.0740041  -0.0247320   0.0000000), wk =   0.0138889
        k(   65) = (   0.0740041  -0.0082440   0.0000000), wk =   0.0138889
        k(   66) = (   0.0740041   0.0082440   0.0000000), wk =   0.0138889
        k(   67) = (   0.0740041   0.0247320   0.0000000), wk =   0.0138889
        k(   68) = (  -0.0888049  -0.0494640   0.0000000), wk =   0.0069444
        k(   69) = (  -0.0888049  -0.0329760   0.0000000), wk =   0.0138889
        k(   70) = (  -0.0888049  -0.0164880   0.0000000), wk =   0.0138889
        k(   71) = (  -0.0888049  -0.0000000   0.0000000), wk =   0.0138889
        k(   72) = (  -0.0888049   0.0164880   0.0000000), wk =   0.0138889
        k(   73) = (  -0.0888049   0.0329760   0.0000000), wk =   0.0138889
        k(   74) = (  -0.0888049  -0.1483919   0.0000000), wk =   0.0069444

     Initial potential from superposition of free atoms

     starting charge  119.96756, renormalised to  120.00000

     %%%%%%%%%%%%%%%%%%%%%%%%%%%%%%%%%%%%%%%%%%%%%%%%%%%%%%%%%%%%%%%%%%%%%%%%
     %                                                                      %
     % You are using vdW-DF, which was implemented by the Thonhauser group. %
     % Please cite the following two papers that made this development      %
     % possible and the two reviews that describe the various versions:     %
     %                                                                      %
     %   T. Thonhauser et al., PRL 115, 136402 (2015).                      %
     %   T. Thonhauser et al., PRB 76, 125112 (2007).                       %
     %   K. Berland et al., Rep. Prog. Phys. 78, 066501 (2015).             %
     %   D.C. Langreth et al., J. Phys.: Condens. Matter 21, 084203 (2009). %
     %                                                                      %
     %                                                                      %
     % If you are calculating the stress with vdW-DF, please also cite:     %
     %                                                                      %
     %   R. Sabatini et al., J. Phys.: Condens. Matter 24, 424209 (2012).   %
     %                                                                      %
     %%%%%%%%%%%%%%%%%%%%%%%%%%%%%%%%%%%%%%%%%%%%%%%%%%%%%%%%%%%%%%%%%%%%%%%%

     Adding external electric field

     Computed dipole along edir(3) :
        Dipole                0.0035 Ry au,          0.0089 Debye
        Dipole field          0.0000 Ry au,

        Potential amp.       -0.0008 Ry
        Total length         45.4652 bohr

[...]

     Starting wfcs are  108 randomized atomic wfcs

     Self-consistent Calculation

     iteration #  1     ecut=    55.12 Ry     beta= 0.10
     Davidson diagonalization with overlap
     ethr =  1.00E-02,  avg # of iterations =  2.0

[...]

     total energy              =    -980.64156173 Ry
     estimated scf accuracy    <       1.93815300 Ry

     total magnetization       =    20.92 Bohr mag/cell
     absolute magnetization    =    21.27 Bohr mag/cell

[...]

     iteration # 13     ecut=    55.12 Ry     beta= 0.10
     Davidson diagonalization with overlap
     c_bands:  3 eigenvalues not converged
     c_bands:  1 eigenvalues not converged
     c_bands:  1 eigenvalues not converged
     c_bands:  1 eigenvalues not converged
     c_bands:  1 eigenvalues not converged
     c_bands:  1 eigenvalues not converged
     ethr =  4.79E-06,  avg # of iterations =  7.5

[...]

     iteration # 15     ecut=    55.12 Ry     beta= 0.10
     Davidson diagonalization with overlap
     c_bands:  1 eigenvalues not converged
     ethr =  2.49E-06,  avg # of iterations =  4.5

[...]

     total energy              =    -981.35911027 Ry
     estimated scf accuracy    <       0.00004216 Ry

[...]

     iteration # 29     ecut=    55.12 Ry     beta= 0.10
     Davidson diagonalization with overlap
     ethr =  1.05E-08,  avg # of iterations =  4.6

[...]

     Adding external electric field

     Computed dipole along edir(3) :
        Dipole                0.0084 Ry au,          0.0213 Debye
        Dipole field          0.0000 Ry au,

        Potential amp.       -0.0020 Ry
        Total length         45.4652 bohr

     Magnetic moment per site:
     atom:    1    charge:    6.2252    magn:    2.8719    constr:    0.0000
     atom:    2    charge:    6.2251    magn:    2.8721    constr:    0.0000
     atom:    3    charge:   10.3327    magn:   -0.0493    constr:    0.0000
     atom:    4    charge:   10.3327    magn:   -0.0493    constr:    0.0000
     atom:    5    charge:    6.2818    magn:    2.7034    constr:    0.0000
     atom:    6    charge:    6.2818    magn:    2.7034    constr:    0.0000
     atom:    7    charge:   10.3796    magn:   -0.0572    constr:    0.0000
     atom:    8    charge:   10.3796    magn:   -0.0572    constr:    0.0000
     atom:    9    charge:    6.2582    magn:    2.7919    constr:    0.0000
     atom:   10    charge:    6.2583    magn:    2.7919    constr:    0.0000
     atom:   11    charge:   10.2832    magn:   -0.0453    constr:    0.0000
     atom:   12    charge:   10.2832    magn:   -0.0453    constr:    0.0000

     End of self-consistent calculation

     Number of k-points >= 100: set verbosity='high' to print the bands.

     the Fermi energy is     0.1782 ev

!    total energy              =    -981.24952843 Ry
     estimated scf accuracy    <       0.00000549 Ry
     smearing contrib. (-TS)   =      -0.06161094 Ry
     internal energy E=F+TS    =    -981.18791749 Ry

     The total energy is F=E-TS. E is the sum of the following terms:
     one-electron contribution =   -7269.05280609 Ry
     hartree contribution      =    3717.24362323 Ry
     xc contribution           =    -335.05051296 Ry
     ewald contribution        =    2905.67177814 Ry
     electric field correction =       0.00000019 Ry

     total magnetization       =    16.29 Bohr mag/cell
     absolute magnetization    =    18.61 Bohr mag/cell

     convergence has been achieved in  29 iterations

     Forces acting on atoms (cartesian axes, Ry/au):

     atom    1 type  1   force =     0.00000220    0.01274468    0.02085449
     atom    2 type  1   force =     0.00000213    0.01272949    0.02084852
     atom    3 type  2   force =    -0.00002505   -0.01286445   -0.03134445
     atom    4 type  2   force =     0.00001124   -0.01286688   -0.03134564
     atom    5 type  1   force =     0.00000388   -0.01222488    0.00215363
     atom    6 type  1   force =     0.00000568   -0.01220171    0.00220695
     atom    7 type  2   force =     0.00003422    0.01266407    0.01072328
     atom    8 type  2   force =    -0.00002393    0.01266500    0.01072112
     atom    9 type  1   force =     0.00000130   -0.00137970   -0.00111893
     atom   10 type  1   force =    -0.00000291   -0.00137622   -0.00105780
     atom   11 type  2   force =    -0.00003265    0.00105721   -0.00131521
     atom   12 type  2   force =     0.00002388    0.00105338   -0.00132593

     Total force =     0.066034     Total SCF correction =     0.005674

     Writing output data file ./Fe2Cd2/Fe2Cd2_beef.save/

     General routines

     Parallel routines

   This run was terminated on:  14:30:18  28Jun2022

   JOB DONE.