     Program PWSCF v.6.6 starts on 28Jun2022 at 14:31:32

     R & G space division:  proc/nbgrp/npool/nimage =      37
     Fft bands division:     nmany     =       1
     Reading input from Fe2Hg2.in
Warning: card &CELL ignored
Warning: card / ignored

     Current dimensions of program PWSCF are:
     Max number of different atomic species (ntypx) = 10
     Max number of k-points (npk) =  40000
     Max angular momentum in pseudopotentials (lmaxx) =  3
     Presently stress not available with electric field and gates

     Message from routine cell_base_init:
     DEPRECATED: use true lattice parameter, not A to a.u. conversion factor
     file Fe.pbe-n-rrkjus_psl.1.0.0.UPF: wavefunction(s)  3D renormalized
     file Hg.pbe-n-rrkjus_psl.1.0.0.UPF: wavefunction(s)  6S renormalized

     IMPORTANT: XC functional enforced from input :
     Exchange-correlation= BEEF-VDW
                           (   1   4  43  14   2   0   0)
     Any further DFT definition will be discarded
     Please, verify this is what you really want

     Subspace diagonalization in iterative solution of the eigenvalue problem:
     a serial algorithm will be used

     bravais-lattice index     =            0
     lattice parameter (alat)  =       1.8897  a.u.
     unit-cell volume          =    4868.1675 (a.u.)^3
     number of atoms/cell      =           12
     number of atomic types    =            2
     number of electrons       =       120.00
     number of Kohn-Sham states=           72
     kinetic-energy cutoff     =      55.1240  Ry
     charge density cutoff     =     551.2396  Ry
     convergence threshold     =      1.0E-05
     mixing beta               =       0.1000
     number of iterations used =           10  plain     mixing
     Exchange-correlation= BEEF-VDW
                           (   1   4  43  14   2   0   0)

     celldm(1)=   1.889726  celldm(2)=   0.000000  celldm(3)=   0.000000
     celldm(4)=   0.000000  celldm(5)=   0.000000  celldm(6)=   0.000000

     crystal axes: (cart. coord. in units of alat)
               a(1) = (   5.769048   0.000000   0.000000 )
               a(2) = (   2.779804   5.055156   0.000000 )
               a(3) = (   0.000000   0.000000  24.736046 )

     reciprocal axes: (cart. coord. in units 2 pi/alat)
               b(1) = (  0.173339 -0.095318  0.000000 )
               b(2) = (  0.000000  0.197818  0.000000 )
               b(3) = (  0.000000  0.000000  0.040427 )

     PseudoPot. # 1 for Fe read from file:
     ../pseudo/Fe.pbe-n-rrkjus_psl.1.0.0.UPF
     MD5 check sum: e37eda618788e2416bb099156d582190
     Pseudo is Ultrasoft + core correction, Zval =  8.0
     Generated using "atomic" code by A. Dal Corso v.6.5
     Using radial grid of 1191 points,  6 beta functions with:
                l(1) =   0
                l(2) =   0
                l(3) =   1
                l(4) =   1
                l(5) =   2
                l(6) =   2
     Q(r) pseudized with 0 coefficients

     PseudoPot. # 2 for Hg read from file:
     ../pseudo/Hg.pbe-n-rrkjus_psl.1.0.0.UPF
     MD5 check sum: 7519ac2e5b9cac440d3cfd4127d6ea3c
     Pseudo is Ultrasoft + core correction, Zval = 12.0
     Generated using "atomic" code by A. Dal Corso v.6.3
     Using radial grid of 1279 points,  6 beta functions with:
                l(1) =   0
                l(2) =   0
                l(3) =   1
                l(4) =   1
                l(5) =   2
                l(6) =   2
     Q(r) pseudized with 0 coefficients

     atomic species   valence    mass     pseudopotential
        Fe             8.00    55.84500     Fe( 1.00)
        Hg            12.00   200.59200     Hg( 1.00)

     Starting magnetic structure
     atomic species   magnetization
        Fe           0.750
        Hg           0.000

     No symmetry found

   Cartesian axes

     site n.     atom                  positions (alat units)
         1           Fe  tau(   1) = (   0.0000000   0.0000000  10.0000000  )
         2           Fe  tau(   2) = (   4.2744257   2.5275779  10.0000000  )
         3           Hg  tau(   3) = (   2.8845238   0.0000000  10.0000000  )
         4           Hg  tau(   4) = (   1.3899019   2.5275779  10.0000000  )
         5           Fe  tau(   5) = (   5.7690476   3.4113863  12.3680230  )
         6           Fe  tau(   6) = (   1.4946219   0.8838084  12.3680230  )
         7           Hg  tau(   7) = (   2.8845238   3.4113863  12.3680230  )
         8           Hg  tau(   8) = (   4.3791457   0.8838084  12.3680230  )
         9           Fe  tau(   9) = (   2.5485612   1.5070168  14.4977192  )
        10           Fe  tau(  10) = (   6.8229179   4.0345836  14.4976515  )
        11           Hg  tau(  11) = (   5.5144456   1.5551288  15.2426841  )
        12           Hg  tau(  12) = (   4.0198026   4.0827208  15.2426845  )

     number of k points=    74  Fermi-Dirac smearing, width (Ry)=  0.0100
                       cart. coord. in units 2pi/alat
        k(    1) = (   0.0000000   0.0000000   0.0000000), wk =   0.0069444
        k(    2) = (   0.0000000   0.0164848   0.0000000), wk =   0.0138889
        k(    3) = (   0.0000000   0.0329696   0.0000000), wk =   0.0138889
        k(    4) = (   0.0000000   0.0494545   0.0000000), wk =   0.0138889
        k(    5) = (   0.0000000   0.0659393   0.0000000), wk =   0.0138889
        k(    6) = (   0.0000000   0.0824241   0.0000000), wk =   0.0138889
        k(    7) = (   0.0000000  -0.0989089   0.0000000), wk =   0.0069444
        k(    8) = (   0.0144449  -0.0079432   0.0000000), wk =   0.0138889
        k(    9) = (   0.0144449   0.0085416   0.0000000), wk =   0.0138889
        k(   10) = (   0.0144449   0.0250265   0.0000000), wk =   0.0138889
        k(   11) = (   0.0144449   0.0415113   0.0000000), wk =   0.0138889
        k(   12) = (   0.0144449   0.0579961   0.0000000), wk =   0.0138889
        k(   13) = (   0.0144449   0.0744809   0.0000000), wk =   0.0138889
        k(   14) = (   0.0144449  -0.1068521   0.0000000), wk =   0.0138889
        k(   15) = (   0.0144449  -0.0903673   0.0000000), wk =   0.0138889
        k(   16) = (   0.0144449  -0.0738825   0.0000000), wk =   0.0138889
        k(   17) = (   0.0144449  -0.0573976   0.0000000), wk =   0.0138889
        k(   18) = (   0.0144449  -0.0409128   0.0000000), wk =   0.0138889
        k(   19) = (   0.0144449  -0.0244280   0.0000000), wk =   0.0138889
        k(   20) = (   0.0288898  -0.0158864   0.0000000), wk =   0.0138889
        k(   21) = (   0.0288898   0.0005985   0.0000000), wk =   0.0138889
        k(   22) = (   0.0288898   0.0170833   0.0000000), wk =   0.0138889
        k(   23) = (   0.0288898   0.0335681   0.0000000), wk =   0.0138889
        k(   24) = (   0.0288898   0.0500529   0.0000000), wk =   0.0138889
        k(   25) = (   0.0288898   0.0665377   0.0000000), wk =   0.0138889
        k(   26) = (   0.0288898  -0.1147953   0.0000000), wk =   0.0138889
        k(   27) = (   0.0288898  -0.0983104   0.0000000), wk =   0.0138889
        k(   28) = (   0.0288898  -0.0818256   0.0000000), wk =   0.0138889
        k(   29) = (   0.0288898  -0.0653408   0.0000000), wk =   0.0138889
        k(   30) = (   0.0288898  -0.0488560   0.0000000), wk =   0.0138889
        k(   31) = (   0.0288898  -0.0323712   0.0000000), wk =   0.0138889
        k(   32) = (   0.0433347  -0.0238295   0.0000000), wk =   0.0138889
        k(   33) = (   0.0433347  -0.0073447   0.0000000), wk =   0.0138889
        k(   34) = (   0.0433347   0.0091401   0.0000000), wk =   0.0138889
        k(   35) = (   0.0433347   0.0256249   0.0000000), wk =   0.0138889
        k(   36) = (   0.0433347   0.0421097   0.0000000), wk =   0.0138889
        k(   37) = (   0.0433347   0.0585946   0.0000000), wk =   0.0138889
        k(   38) = (   0.0433347  -0.1227384   0.0000000), wk =   0.0138889
        k(   39) = (   0.0433347  -0.1062536   0.0000000), wk =   0.0138889
        k(   40) = (   0.0433347  -0.0897688   0.0000000), wk =   0.0138889
        k(   41) = (   0.0433347  -0.0732840   0.0000000), wk =   0.0138889
        k(   42) = (   0.0433347  -0.0567992   0.0000000), wk =   0.0138889
        k(   43) = (   0.0433347  -0.0403143   0.0000000), wk =   0.0138889
        k(   44) = (   0.0577796  -0.0317727   0.0000000), wk =   0.0138889
        k(   45) = (   0.0577796  -0.0152879   0.0000000), wk =   0.0138889
        k(   46) = (   0.0577796   0.0011969   0.0000000), wk =   0.0138889
        k(   47) = (   0.0577796   0.0176818   0.0000000), wk =   0.0138889
        k(   48) = (   0.0577796   0.0341666   0.0000000), wk =   0.0138889
        k(   49) = (   0.0577796   0.0506514   0.0000000), wk =   0.0138889
        k(   50) = (   0.0577796  -0.1306816   0.0000000), wk =   0.0138889
        k(   51) = (   0.0577796  -0.1141968   0.0000000), wk =   0.0138889
        k(   52) = (   0.0577796  -0.0977120   0.0000000), wk =   0.0138889
        k(   53) = (   0.0577796  -0.0812272   0.0000000), wk =   0.0138889
        k(   54) = (   0.0577796  -0.0647423   0.0000000), wk =   0.0138889
        k(   55) = (   0.0577796  -0.0482575   0.0000000), wk =   0.0138889
        k(   56) = (   0.0722245  -0.0397159   0.0000000), wk =   0.0138889
        k(   57) = (   0.0722245  -0.0232311   0.0000000), wk =   0.0138889
        k(   58) = (   0.0722245  -0.0067462   0.0000000), wk =   0.0138889
        k(   59) = (   0.0722245   0.0097386   0.0000000), wk =   0.0138889
        k(   60) = (   0.0722245   0.0262234   0.0000000), wk =   0.0138889
        k(   61) = (   0.0722245   0.0427082   0.0000000), wk =   0.0138889
        k(   62) = (   0.0722245  -0.1386248   0.0000000), wk =   0.0138889
        k(   63) = (   0.0722245  -0.1221400   0.0000000), wk =   0.0138889
        k(   64) = (   0.0722245  -0.1056552   0.0000000), wk =   0.0138889
        k(   65) = (   0.0722245  -0.0891703   0.0000000), wk =   0.0138889
        k(   66) = (   0.0722245  -0.0726855   0.0000000), wk =   0.0138889
        k(   67) = (   0.0722245  -0.0562007   0.0000000), wk =   0.0138889
        k(   68) = (  -0.0866694   0.0476591   0.0000000), wk =   0.0069444
        k(   69) = (  -0.0866694   0.0641439   0.0000000), wk =   0.0138889
        k(   70) = (  -0.0866694   0.0806287   0.0000000), wk =   0.0138889
        k(   71) = (  -0.0866694   0.0971135   0.0000000), wk =   0.0138889
        k(   72) = (  -0.0866694   0.1135983   0.0000000), wk =   0.0138889
        k(   73) = (  -0.0866694   0.1300832   0.0000000), wk =   0.0138889
        k(   74) = (  -0.0866694  -0.0512499   0.0000000), wk =   0.0069444

     Initial potential from superposition of free atoms

     starting charge  119.99636, renormalised to  120.00000

     %%%%%%%%%%%%%%%%%%%%%%%%%%%%%%%%%%%%%%%%%%%%%%%%%%%%%%%%%%%%%%%%%%%%%%%%
     %                                                                      %
     % You are using vdW-DF, which was implemented by the Thonhauser group. %
     % Please cite the following two papers that made this development      %
     % possible and the two reviews that describe the various versions:     %
     %                                                                      %
     %   T. Thonhauser et al., PRL 115, 136402 (2015).                      %
     %   T. Thonhauser et al., PRB 76, 125112 (2007).                       %
     %   K. Berland et al., Rep. Prog. Phys. 78, 066501 (2015).             %
     %   D.C. Langreth et al., J. Phys.: Condens. Matter 21, 084203 (2009). %
     %                                                                      %
     %                                                                      %
     % If you are calculating the stress with vdW-DF, please also cite:     %
     %                                                                      %
     %   R. Sabatini et al., J. Phys.: Condens. Matter 24, 424209 (2012).   %
     %                                                                      %
     %%%%%%%%%%%%%%%%%%%%%%%%%%%%%%%%%%%%%%%%%%%%%%%%%%%%%%%%%%%%%%%%%%%%%%%%

     Adding external electric field

     Computed dipole along edir(3) :
        Dipole               -0.0008 Ry au,         -0.0020 Debye
        Dipole field         -0.0000 Ry au,

        Potential amp.        0.0002 Ry
        Total length         45.5757 bohr

[...]

     Starting wfcs are  108 randomized atomic wfcs

     Self-consistent Calculation

     iteration #  1     ecut=    55.12 Ry     beta= 0.10
     Davidson diagonalization with overlap
     ethr =  1.00E-02,  avg # of iterations =  2.0

[...]

     total energy              =    -981.37265940 Ry
     estimated scf accuracy    <       2.75957077 Ry

     total magnetization       =    18.90 Bohr mag/cell
     absolute magnetization    =    19.08 Bohr mag/cell

[...]

     iteration # 13     ecut=    55.12 Ry     beta= 0.10
     Davidson diagonalization with overlap
     c_bands:  1 eigenvalues not converged
     c_bands:  1 eigenvalues not converged
     c_bands:  1 eigenvalues not converged
     ethr =  4.98E-06,  avg # of iterations =  8.0

[...]

     iteration # 15     ecut=    55.12 Ry     beta= 0.10
     Davidson diagonalization with overlap
     c_bands:  1 eigenvalues not converged
     c_bands:  1 eigenvalues not converged
     ethr =  1.84E-06,  avg # of iterations =  4.0

[...]

     total energy              =    -981.40414119 Ry
     estimated scf accuracy    <       0.00001548 Ry

[...]

     iteration # 28     ecut=    55.12 Ry     beta= 0.10
     Davidson diagonalization with overlap
     ethr =  1.14E-08,  avg # of iterations =  2.1

[...]

     Adding external electric field

     Computed dipole along edir(3) :
        Dipole               -0.0242 Ry au,         -0.0614 Debye
        Dipole field         -0.0001 Ry au,

        Potential amp.        0.0057 Ry
        Total length         45.5757 bohr

     Magnetic moment per site:
     atom:    1    charge:    6.2001    magn:    2.9280    constr:    0.0000
     atom:    2    charge:    6.2000    magn:    2.9279    constr:    0.0000
     atom:    3    charge:   10.1882    magn:   -0.0270    constr:    0.0000
     atom:    4    charge:   10.1882    magn:   -0.0270    constr:    0.0000
     atom:    5    charge:    6.2562    magn:    2.8133    constr:    0.0000
     atom:    6    charge:    6.2559    magn:    2.8135    constr:    0.0000
     atom:    7    charge:   10.2223    magn:   -0.0317    constr:    0.0000
     atom:    8    charge:   10.2223    magn:   -0.0317    constr:    0.0000
     atom:    9    charge:    6.2271    magn:    2.8722    constr:    0.0000
     atom:   10    charge:    6.2273    magn:    2.8720    constr:    0.0000
     atom:   11    charge:   10.1344    magn:   -0.0254    constr:    0.0000
     atom:   12    charge:   10.1344    magn:   -0.0254    constr:    0.0000

     End of self-consistent calculation

     Number of k-points >= 100: set verbosity='high' to print the bands.

     the Fermi energy is     0.3810 ev

!    total energy              =    -981.22235839 Ry
     estimated scf accuracy    <       0.00000677 Ry
     smearing contrib. (-TS)   =      -0.06452903 Ry
     internal energy E=F+TS    =    -981.15782935 Ry

     The total energy is F=E-TS. E is the sum of the following terms:
     one-electron contribution =   -6854.35206170 Ry
     hartree contribution      =    3511.24209199 Ry
     xc contribution           =    -393.85963026 Ry
     ewald contribution        =    2755.81176910 Ry
     electric field correction =       0.00000151 Ry

     total magnetization       =    16.99 Bohr mag/cell
     absolute magnetization    =    19.03 Bohr mag/cell

     convergence has been achieved in  28 iterations

     Forces acting on atoms (cartesian axes, Ry/au):

     atom    1 type  1   force =     0.00958877    0.00566897    0.01715577
     atom    2 type  1   force =     0.00957975    0.00566400    0.01712611
     atom    3 type  2   force =    -0.00932411   -0.00548261   -0.03404509
     atom    4 type  2   force =    -0.00929490   -0.00552534   -0.03403967
     atom    5 type  1   force =    -0.01120688   -0.00662718    0.00502717
     atom    6 type  1   force =    -0.01120503   -0.00662447    0.00504438
     atom    7 type  2   force =     0.01147037    0.00678473    0.01621451
     atom    8 type  2   force =     0.01147298    0.00677939    0.01621110
     atom    9 type  1   force =    -0.00052976   -0.00031368   -0.00141253
     atom   10 type  1   force =    -0.00049714   -0.00029488   -0.00136355
     atom   11 type  2   force =    -0.00001996   -0.00002489   -0.00296231
     atom   12 type  2   force =    -0.00003409   -0.00000404   -0.00295590

     Total force =     0.068410     Total SCF correction =     0.004490

     Writing output data file ./Fe2Hg2/Fe2Hg2_beef.save/

     General routines

     Parallel routines

   This run was terminated on:  16:52:10  28Jun2022

   JOB DONE.