     Program PWSCF v.6.6 starts on 28Jun2022 at 14:30:27

     R & G space division:  proc/nbgrp/npool/nimage =      37
     Fft bands division:     nmany     =       1
     Reading input from Fe2Ir2.in
Warning: card &CELL ignored
Warning: card / ignored

     Current dimensions of program PWSCF are:
     Max number of different atomic species (ntypx) = 10
     Max number of k-points (npk) =  40000
     Max angular momentum in pseudopotentials (lmaxx) =  3
     Presently stress not available with electric field and gates

     Message from routine cell_base_init:
     DEPRECATED: use true lattice parameter, not A to a.u. conversion factor
     file Fe.pbe-n-rrkjus_psl.1.0.0.UPF: wavefunction(s)  3D renormalized
     file Ir.pbe-n-rrkjus_psl.0.2.3.UPF: wavefunction(s)  5D renormalized

     IMPORTANT: XC functional enforced from input :
     Exchange-correlation= BEEF-VDW
                           (   1   4  43  14   2   0   0)
     Any further DFT definition will be discarded
     Please, verify this is what you really want

     Subspace diagonalization in iterative solution of the eigenvalue problem:
     a serial algorithm will be used

     bravais-lattice index     =            0
     lattice parameter (alat)  =       1.8897  a.u.
     unit-cell volume          =    4011.5214 (a.u.)^3
     number of atoms/cell      =           12
     number of atomic types    =            2
     number of electrons       =       102.00
     number of Kohn-Sham states=           61
     kinetic-energy cutoff     =      55.1240  Ry
     charge density cutoff     =     551.2396  Ry
     convergence threshold     =      1.0E-05
     mixing beta               =       0.1000
     number of iterations used =           10  plain     mixing
     Exchange-correlation= BEEF-VDW
                           (   1   4  43  14   2   0   0)

     celldm(1)=   1.889726  celldm(2)=   0.000000  celldm(3)=   0.000000
     celldm(4)=   0.000000  celldm(5)=   0.000000  celldm(6)=   0.000000

     crystal axes: (cart. coord. in units of alat)
               a(1) = (   5.278106   0.000000   0.000000 )
               a(2) = (   2.537284   4.628238   0.000000 )
               a(3) = (   0.000000   0.000000  24.334297 )

     reciprocal axes: (cart. coord. in units 2 pi/alat)
               b(1) = (  0.189462 -0.103866  0.000000 )
               b(2) = (  0.000000  0.216065  0.000000 )
               b(3) = (  0.000000  0.000000  0.041094 )

     PseudoPot. # 1 for Fe read from file:
     ../pseudo/Fe.pbe-n-rrkjus_psl.1.0.0.UPF
     MD5 check sum: e37eda618788e2416bb099156d582190
     Pseudo is Ultrasoft + core correction, Zval =  8.0
     Generated using "atomic" code by A. Dal Corso v.6.5
     Using radial grid of 1191 points,  6 beta functions with:
                l(1) =   0
                l(2) =   0
                l(3) =   1
                l(4) =   1
                l(5) =   2
                l(6) =   2
     Q(r) pseudized with 0 coefficients

     PseudoPot. # 2 for Ir read from file:
     ../pseudo/Ir.pbe-n-rrkjus_psl.0.2.3.UPF
     MD5 check sum: a93e608e8ddc29ee62145620b5f41564
     Pseudo is Ultrasoft + core correction, Zval =  9.0
     Generated using "atomic" code by A. Dal Corso v.5.0.2 svn rev. 9415
     Using radial grid of 1277 points,  6 beta functions with:
                l(1) =   0
                l(2) =   0
                l(3) =   1
                l(4) =   1
                l(5) =   2
                l(6) =   2
     Q(r) pseudized with 0 coefficients

     atomic species   valence    mass     pseudopotential
        Fe             8.00    55.84500     Fe( 1.00)
        Ir             9.00   192.21700     Ir( 1.00)

     Starting magnetic structure
     atomic species   magnetization
        Fe           0.750
        Ir           0.000

     No symmetry found

   Cartesian axes

     site n.     atom                  positions (alat units)
         1           Fe  tau(   1) = (   0.0000000   0.0000000  10.0000000  )
         2           Fe  tau(   2) = (   3.9076947   2.3141192  10.0000000  )
         3           Ir  tau(   3) = (   2.6390529   0.0000000  10.0000000  )
         4           Ir  tau(   4) = (   1.2686419   2.3141192  10.0000000  )
         5           Fe  tau(   5) = (   5.2781057   3.1256704  12.1671484  )
         6           Fe  tau(   6) = (   1.3704110   0.8115512  12.1671484  )
         7           Ir  tau(   7) = (   2.6390529   3.1256704  12.1671484  )
         8           Ir  tau(   8) = (   4.0094638   0.8115512  12.1671484  )
         9           Fe  tau(   9) = (   2.6820656   1.5883085  14.3476291  )
        10           Fe  tau(  10) = (   6.5899847   3.9025596  14.3473660  )
        11           Ir  tau(  11) = (   5.3437841   1.6013267  14.3209468  )
        12           Ir  tau(  12) = (   3.9730190   3.9160428  14.3209462  )

     number of k points=    74  Fermi-Dirac smearing, width (Ry)=  0.0100
                       cart. coord. in units 2pi/alat
        k(    1) = (   0.0000000   0.0000000   0.0000000), wk =   0.0069444
        k(    2) = (   0.0000000   0.0180054   0.0000000), wk =   0.0138889
        k(    3) = (   0.0000000   0.0360108   0.0000000), wk =   0.0138889
        k(    4) = (   0.0000000   0.0540162   0.0000000), wk =   0.0138889
        k(    5) = (   0.0000000   0.0720216   0.0000000), wk =   0.0138889
        k(    6) = (   0.0000000   0.0900271   0.0000000), wk =   0.0138889
        k(    7) = (   0.0000000  -0.1080325   0.0000000), wk =   0.0069444
        k(    8) = (   0.0157885  -0.0086555   0.0000000), wk =   0.0138889
        k(    9) = (   0.0157885   0.0093499   0.0000000), wk =   0.0138889
        k(   10) = (   0.0157885   0.0273553   0.0000000), wk =   0.0138889
        k(   11) = (   0.0157885   0.0453607   0.0000000), wk =   0.0138889
        k(   12) = (   0.0157885   0.0633661   0.0000000), wk =   0.0138889
        k(   13) = (   0.0157885   0.0813715   0.0000000), wk =   0.0138889
        k(   14) = (   0.0157885  -0.1166880   0.0000000), wk =   0.0138889
        k(   15) = (   0.0157885  -0.0986826   0.0000000), wk =   0.0138889
        k(   16) = (   0.0157885  -0.0806772   0.0000000), wk =   0.0138889
        k(   17) = (   0.0157885  -0.0626718   0.0000000), wk =   0.0138889
        k(   18) = (   0.0157885  -0.0446664   0.0000000), wk =   0.0138889
        k(   19) = (   0.0157885  -0.0266609   0.0000000), wk =   0.0138889
        k(   20) = (   0.0315770  -0.0173111   0.0000000), wk =   0.0138889
        k(   21) = (   0.0315770   0.0006943   0.0000000), wk =   0.0138889
        k(   22) = (   0.0315770   0.0186997   0.0000000), wk =   0.0138889
        k(   23) = (   0.0315770   0.0367052   0.0000000), wk =   0.0138889
        k(   24) = (   0.0315770   0.0547106   0.0000000), wk =   0.0138889
        k(   25) = (   0.0315770   0.0727160   0.0000000), wk =   0.0138889
        k(   26) = (   0.0315770  -0.1253435   0.0000000), wk =   0.0138889
        k(   27) = (   0.0315770  -0.1073381   0.0000000), wk =   0.0138889
        k(   28) = (   0.0315770  -0.0893327   0.0000000), wk =   0.0138889
        k(   29) = (   0.0315770  -0.0713273   0.0000000), wk =   0.0138889
        k(   30) = (   0.0315770  -0.0533219   0.0000000), wk =   0.0138889
        k(   31) = (   0.0315770  -0.0353165   0.0000000), wk =   0.0138889
        k(   32) = (   0.0473655  -0.0259666   0.0000000), wk =   0.0138889
        k(   33) = (   0.0473655  -0.0079612   0.0000000), wk =   0.0138889
        k(   34) = (   0.0473655   0.0100442   0.0000000), wk =   0.0138889
        k(   35) = (   0.0473655   0.0280496   0.0000000), wk =   0.0138889
        k(   36) = (   0.0473655   0.0460550   0.0000000), wk =   0.0138889
        k(   37) = (   0.0473655   0.0640604   0.0000000), wk =   0.0138889
        k(   38) = (   0.0473655  -0.1339991   0.0000000), wk =   0.0138889
        k(   39) = (   0.0473655  -0.1159937   0.0000000), wk =   0.0138889
        k(   40) = (   0.0473655  -0.0979883   0.0000000), wk =   0.0138889
        k(   41) = (   0.0473655  -0.0799828   0.0000000), wk =   0.0138889
        k(   42) = (   0.0473655  -0.0619774   0.0000000), wk =   0.0138889
        k(   43) = (   0.0473655  -0.0439720   0.0000000), wk =   0.0138889
        k(   44) = (   0.0631540  -0.0346222   0.0000000), wk =   0.0138889
        k(   45) = (   0.0631540  -0.0166167   0.0000000), wk =   0.0138889
        k(   46) = (   0.0631540   0.0013887   0.0000000), wk =   0.0138889
        k(   47) = (   0.0631540   0.0193941   0.0000000), wk =   0.0138889
        k(   48) = (   0.0631540   0.0373995   0.0000000), wk =   0.0138889
        k(   49) = (   0.0631540   0.0554049   0.0000000), wk =   0.0138889
        k(   50) = (   0.0631540  -0.1426546   0.0000000), wk =   0.0138889
        k(   51) = (   0.0631540  -0.1246492   0.0000000), wk =   0.0138889
        k(   52) = (   0.0631540  -0.1066438   0.0000000), wk =   0.0138889
        k(   53) = (   0.0631540  -0.0886384   0.0000000), wk =   0.0138889
        k(   54) = (   0.0631540  -0.0706330   0.0000000), wk =   0.0138889
        k(   55) = (   0.0631540  -0.0526276   0.0000000), wk =   0.0138889
        k(   56) = (   0.0789425  -0.0432777   0.0000000), wk =   0.0138889
        k(   57) = (   0.0789425  -0.0252723   0.0000000), wk =   0.0138889
        k(   58) = (   0.0789425  -0.0072669   0.0000000), wk =   0.0138889
        k(   59) = (   0.0789425   0.0107385   0.0000000), wk =   0.0138889
        k(   60) = (   0.0789425   0.0287440   0.0000000), wk =   0.0138889
        k(   61) = (   0.0789425   0.0467494   0.0000000), wk =   0.0138889
        k(   62) = (   0.0789425  -0.1513102   0.0000000), wk =   0.0138889
        k(   63) = (   0.0789425  -0.1333047   0.0000000), wk =   0.0138889
        k(   64) = (   0.0789425  -0.1152993   0.0000000), wk =   0.0138889
        k(   65) = (   0.0789425  -0.0972939   0.0000000), wk =   0.0138889
        k(   66) = (   0.0789425  -0.0792885   0.0000000), wk =   0.0138889
        k(   67) = (   0.0789425  -0.0612831   0.0000000), wk =   0.0138889
        k(   68) = (  -0.0947310   0.0519332   0.0000000), wk =   0.0069444
        k(   69) = (  -0.0947310   0.0699386   0.0000000), wk =   0.0138889
        k(   70) = (  -0.0947310   0.0879440   0.0000000), wk =   0.0138889
        k(   71) = (  -0.0947310   0.1059495   0.0000000), wk =   0.0138889
        k(   72) = (  -0.0947310   0.1239549   0.0000000), wk =   0.0138889
        k(   73) = (  -0.0947310   0.1419603   0.0000000), wk =   0.0138889
        k(   74) = (  -0.0947310  -0.0560992   0.0000000), wk =   0.0069444

     Initial potential from superposition of free atoms

     starting charge  101.99597, renormalised to  102.00000

     %%%%%%%%%%%%%%%%%%%%%%%%%%%%%%%%%%%%%%%%%%%%%%%%%%%%%%%%%%%%%%%%%%%%%%%%
     %                                                                      %
     % You are using vdW-DF, which was implemented by the Thonhauser group. %
     % Please cite the following two papers that made this development      %
     % possible and the two reviews that describe the various versions:     %
     %                                                                      %
     %   T. Thonhauser et al., PRL 115, 136402 (2015).                      %
     %   T. Thonhauser et al., PRB 76, 125112 (2007).                       %
     %   K. Berland et al., Rep. Prog. Phys. 78, 066501 (2015).             %
     %   D.C. Langreth et al., J. Phys.: Condens. Matter 21, 084203 (2009). %
     %                                                                      %
     %                                                                      %
     % If you are calculating the stress with vdW-DF, please also cite:     %
     %                                                                      %
     %   R. Sabatini et al., J. Phys.: Condens. Matter 24, 424209 (2012).   %
     %                                                                      %
     %%%%%%%%%%%%%%%%%%%%%%%%%%%%%%%%%%%%%%%%%%%%%%%%%%%%%%%%%%%%%%%%%%%%%%%%

     Adding external electric field

     Computed dipole along edir(3) :
        Dipole                0.0000 Ry au,          0.0001 Debye
        Dipole field          0.0000 Ry au,

        Potential amp.       -0.0000 Ry
        Total length         44.8355 bohr

[...]

     Starting wfcs are  108 randomized atomic wfcs

     Self-consistent Calculation

     iteration #  1     ecut=    55.12 Ry     beta= 0.10
     Davidson diagonalization with overlap
     ethr =  1.00E-02,  avg # of iterations =  1.8

[...]

     total energy              =    -753.79353523 Ry
     estimated scf accuracy    <       3.34492898 Ry

     total magnetization       =    20.00 Bohr mag/cell
     absolute magnetization    =    22.78 Bohr mag/cell

[...]

     iteration # 10     ecut=    55.12 Ry     beta= 0.10
     Davidson diagonalization with overlap
     c_bands:  1 eigenvalues not converged
     c_bands:  1 eigenvalues not converged
     c_bands:  1 eigenvalues not converged
     c_bands:  1 eigenvalues not converged
     c_bands:  1 eigenvalues not converged
     c_bands:  1 eigenvalues not converged
     c_bands:  2 eigenvalues not converged
     c_bands:  1 eigenvalues not converged
     c_bands:  1 eigenvalues not converged
     c_bands:  1 eigenvalues not converged
     c_bands:  2 eigenvalues not converged
     c_bands:  2 eigenvalues not converged
     c_bands:  1 eigenvalues not converged
     c_bands:  1 eigenvalues not converged
     c_bands:  1 eigenvalues not converged
     c_bands:  1 eigenvalues not converged
     c_bands:  1 eigenvalues not converged
     c_bands:  1 eigenvalues not converged
     c_bands:  1 eigenvalues not converged
     c_bands:  1 eigenvalues not converged
     c_bands:  1 eigenvalues not converged
     c_bands:  1 eigenvalues not converged
     c_bands:  2 eigenvalues not converged
     c_bands:  3 eigenvalues not converged
     c_bands:  1 eigenvalues not converged
     c_bands:  1 eigenvalues not converged
     c_bands:  1 eigenvalues not converged
     c_bands:  1 eigenvalues not converged
     c_bands:  1 eigenvalues not converged
     c_bands:  1 eigenvalues not converged
     c_bands:  1 eigenvalues not converged
     c_bands:  1 eigenvalues not converged
     c_bands:  1 eigenvalues not converged
     c_bands:  2 eigenvalues not converged
     ethr =  1.18E-05,  avg # of iterations = 12.6

[...]

     iteration # 15     ecut=    55.12 Ry     beta= 0.10
     Davidson diagonalization with overlap
     ethr =  1.18E-05,  avg # of iterations =  1.1

[...]

     total energy              =    -755.16463611 Ry
     estimated scf accuracy    <       0.00001695 Ry

[...]

     iteration # 28     ecut=    55.12 Ry     beta= 0.10
     Davidson diagonalization with overlap
     c_bands:  1 eigenvalues not converged
     c_bands:  1 eigenvalues not converged
     ethr =  1.66E-08,  avg # of iterations =  5.1

[...]

     Adding external electric field

     Computed dipole along edir(3) :
        Dipole                0.0031 Ry au,          0.0078 Debye
        Dipole field          0.0000 Ry au,

        Potential amp.       -0.0009 Ry
        Total length         44.8355 bohr

     Magnetic moment per site:
     atom:    1    charge:    6.6178    magn:    2.7770    constr:    0.0000
     atom:    2    charge:    6.6175    magn:    2.7768    constr:    0.0000
     atom:    3    charge:    6.5283    magn:    0.1454    constr:    0.0000
     atom:    4    charge:    6.5282    magn:    0.1461    constr:    0.0000
     atom:    5    charge:    6.7412    magn:    2.4546    constr:    0.0000
     atom:    6    charge:    6.7402    magn:    2.4551    constr:    0.0000
     atom:    7    charge:    6.5749    magn:    0.1834    constr:    0.0000
     atom:    8    charge:    6.5758    magn:    0.1845    constr:    0.0000
     atom:    9    charge:    6.6125    magn:    2.7831    constr:    0.0000
     atom:   10    charge:    6.6127    magn:    2.7826    constr:    0.0000
     atom:   11    charge:    6.5321    magn:    0.1159    constr:    0.0000
     atom:   12    charge:    6.5317    magn:    0.1144    constr:    0.0000

     End of self-consistent calculation

     Number of k-points >= 100: set verbosity='high' to print the bands.

     the Fermi energy is     0.3615 ev

!    total energy              =    -753.53556100 Ry
     estimated scf accuracy    <       0.00000352 Ry
     smearing contrib. (-TS)   =      -0.06772632 Ry
     internal energy E=F+TS    =    -753.46783468 Ry

     The total energy is F=E-TS. E is the sum of the following terms:
     one-electron contribution =   -6179.50242308 Ry
     hartree contribution      =    3164.96709332 Ry
     xc contribution           =    -388.34780815 Ry
     ewald contribution        =    2649.41530319 Ry
     electric field correction =       0.00000003 Ry

     total magnetization       =    16.76 Bohr mag/cell
     absolute magnetization    =    17.96 Bohr mag/cell

     convergence has been achieved in  28 iterations

     Forces acting on atoms (cartesian axes, Ry/au):

     atom    1 type  1   force =     0.00830770    0.00479816   -0.00000681
     atom    2 type  1   force =     0.00811796    0.00493257   -0.00001865
     atom    3 type  2   force =    -0.00290923   -0.00169153    0.00899634
     atom    4 type  2   force =    -0.00282918   -0.00171022    0.00898713
     atom    5 type  1   force =    -0.00056177   -0.00034754   -0.00094630
     atom    6 type  1   force =    -0.00049402   -0.00027639   -0.00096703
     atom    7 type  2   force =    -0.00359989   -0.00217978   -0.00062399
     atom    8 type  2   force =    -0.00364413   -0.00211327   -0.00068781
     atom    9 type  1   force =    -0.00120359   -0.00065503   -0.00426280
     atom   10 type  1   force =    -0.00128191   -0.00082534   -0.00412923
     atom   11 type  2   force =    -0.00004548    0.00026391   -0.00313601
     atom   12 type  2   force =     0.00014354   -0.00019556   -0.00320483

     Total force =     0.021559     Total SCF correction =     0.002996
     SCF correction compared to forces is large: reduce conv_thr to get better values

     Writing output data file ./Fe2Ir2/Fe2Ir2_beef.save/

     General routines

     Parallel routines

   This run was terminated on:  16: 0:45  28Jun2022

   JOB DONE.