     Program PWSCF v.6.6 starts on 28Jun2022 at  2:30:46

     R & G space division:  proc/nbgrp/npool/nimage =      37
     Fft bands division:     nmany     =       1
     Reading input from Fe2La2.in
Warning: card &CELL ignored
Warning: card / ignored

     Current dimensions of program PWSCF are:
     Max number of different atomic species (ntypx) = 10
     Max number of k-points (npk) =  40000
     Max angular momentum in pseudopotentials (lmaxx) =  3
     Presently stress not available with electric field and gates

     Message from routine cell_base_init:
     DEPRECATED: use true lattice parameter, not A to a.u. conversion factor
     file Fe.pbe-n-rrkjus_psl.1.0.0.UPF: wavefunction(s)  3D renormalized
     file La.pbe-spfn-rrkjus_psl.1.0.0.UPF: wavefunction(s)  4F renormalized

     IMPORTANT: XC functional enforced from input :
     Exchange-correlation= BEEF-VDW
                           (   1   4  43  14   2   0   0)
     Any further DFT definition will be discarded
     Please, verify this is what you really want

     Subspace diagonalization in iterative solution of the eigenvalue problem:
     a serial algorithm will be used

     bravais-lattice index     =            0
     lattice parameter (alat)  =       1.8897  a.u.
     unit-cell volume          =    6231.8350 (a.u.)^3
     number of atoms/cell      =           12
     number of atomic types    =            2
     number of electrons       =       114.00
     number of Kohn-Sham states=           68
     kinetic-energy cutoff     =      55.1240  Ry
     charge density cutoff     =     551.2396  Ry
     convergence threshold     =      1.0E-05
     mixing beta               =       0.1000
     number of iterations used =           10  plain     mixing
     Exchange-correlation= BEEF-VDW
                           (   1   4  43  14   2   0   0)

     celldm(1)=   1.889726  celldm(2)=   0.000000  celldm(3)=   0.000000
     celldm(4)=   0.000000  celldm(5)=   0.000000  celldm(6)=   0.000000

     crystal axes: (cart. coord. in units of alat)
               a(1) = (   6.247670   0.000000   0.000000 )
               a(2) = (   2.089026   5.888068   0.000000 )
               a(3) = (   0.000000   0.000000  25.103168 )

     reciprocal axes: (cart. coord. in units 2 pi/alat)
               b(1) = (  0.160060 -0.056788  0.000000 )
               b(2) = (  0.000000  0.169835  0.000000 )
               b(3) = (  0.000000  0.000000  0.039836 )

     PseudoPot. # 1 for Fe read from file:
     ../pseudo/Fe.pbe-n-rrkjus_psl.1.0.0.UPF
     MD5 check sum: e37eda618788e2416bb099156d582190
     Pseudo is Ultrasoft + core correction, Zval =  8.0
     Generated using "atomic" code by A. Dal Corso v.6.5
     Using radial grid of 1191 points,  6 beta functions with:
                l(1) =   0
                l(2) =   0
                l(3) =   1
                l(4) =   1
                l(5) =   2
                l(6) =   2
     Q(r) pseudized with 0 coefficients

     PseudoPot. # 2 for La read from file:
     ../pseudo/La.pbe-spfn-rrkjus_psl.1.0.0.UPF
     MD5 check sum: e3bc141c2ecb461b8d0a035ce9ac970e
     Pseudo is Ultrasoft + core correction, Zval = 11.0
     Generated using "atomic" code by A. Dal Corso v.6.2.2
     Using radial grid of 1253 points,  8 beta functions with:
                l(1) =   0
                l(2) =   0
                l(3) =   1
                l(4) =   1
                l(5) =   2
                l(6) =   2
                l(7) =   3
                l(8) =   3
     Q(r) pseudized with 0 coefficients

     atomic species   valence    mass     pseudopotential
        Fe             8.00    55.84500     Fe( 1.00)
        La            11.00   138.90547     La( 1.00)

     Starting magnetic structure
     atomic species   magnetization
        Fe           0.750
        La           0.000

     No symmetry found

   Cartesian axes

     site n.     atom                  positions (alat units)
         1           Fe  tau(   1) = (   0.0000000   0.0000000  10.0000000  )
         2           Fe  tau(   2) = (   4.1683480   2.9440339  10.0000000  )
         3           La  tau(   3) = (   3.1238348   0.0000000  10.0000000  )
         4           La  tau(   4) = (   1.0445132   2.9440339  10.0000000  )
         5           Fe  tau(   5) = (   6.2476695   4.4126237  12.5515838  )
         6           Fe  tau(   6) = (   2.0793215   1.4685897  12.5515838  )
         7           La  tau(   7) = (   3.1238348   4.4126237  12.5515838  )
         8           La  tau(   8) = (   5.2031563   1.4685897  12.5515838  )
         9           Fe  tau(   9) = (   4.1585223   2.9371349  14.7298191  )
        10           Fe  tau(  10) = (   8.3226112   5.8780735  14.7296614  )
        11           La  tau(  11) = (   7.2856021   2.9388768  15.1567511  )
        12           La  tau(  12) = (   5.2058219   5.8836013  15.1567422  )

     number of k points=    74  Fermi-Dirac smearing, width (Ry)=  0.0100
                       cart. coord. in units 2pi/alat
        k(    1) = (   0.0000000   0.0000000   0.0000000), wk =   0.0069444
        k(    2) = (   0.0000000   0.0141529   0.0000000), wk =   0.0138889
        k(    3) = (   0.0000000   0.0283058   0.0000000), wk =   0.0138889
        k(    4) = (   0.0000000   0.0424587   0.0000000), wk =   0.0138889
        k(    5) = (   0.0000000   0.0566117   0.0000000), wk =   0.0138889
        k(    6) = (   0.0000000   0.0707646   0.0000000), wk =   0.0138889
        k(    7) = (   0.0000000  -0.0849175   0.0000000), wk =   0.0069444
        k(    8) = (   0.0133383  -0.0047323   0.0000000), wk =   0.0138889
        k(    9) = (   0.0133383   0.0094206   0.0000000), wk =   0.0138889
        k(   10) = (   0.0133383   0.0235735   0.0000000), wk =   0.0138889
        k(   11) = (   0.0133383   0.0377265   0.0000000), wk =   0.0138889
        k(   12) = (   0.0133383   0.0518794   0.0000000), wk =   0.0138889
        k(   13) = (   0.0133383   0.0660323   0.0000000), wk =   0.0138889
        k(   14) = (   0.0133383  -0.0896498   0.0000000), wk =   0.0138889
        k(   15) = (   0.0133383  -0.0754969   0.0000000), wk =   0.0138889
        k(   16) = (   0.0133383  -0.0613440   0.0000000), wk =   0.0138889
        k(   17) = (   0.0133383  -0.0471910   0.0000000), wk =   0.0138889
        k(   18) = (   0.0133383  -0.0330381   0.0000000), wk =   0.0138889
        k(   19) = (   0.0133383  -0.0188852   0.0000000), wk =   0.0138889
        k(   20) = (   0.0266766  -0.0094646   0.0000000), wk =   0.0138889
        k(   21) = (   0.0266766   0.0046883   0.0000000), wk =   0.0138889
        k(   22) = (   0.0266766   0.0188412   0.0000000), wk =   0.0138889
        k(   23) = (   0.0266766   0.0329942   0.0000000), wk =   0.0138889
        k(   24) = (   0.0266766   0.0471471   0.0000000), wk =   0.0138889
        k(   25) = (   0.0266766   0.0613000   0.0000000), wk =   0.0138889
        k(   26) = (   0.0266766  -0.0943821   0.0000000), wk =   0.0138889
        k(   27) = (   0.0266766  -0.0802292   0.0000000), wk =   0.0138889
        k(   28) = (   0.0266766  -0.0660763   0.0000000), wk =   0.0138889
        k(   29) = (   0.0266766  -0.0519233   0.0000000), wk =   0.0138889
        k(   30) = (   0.0266766  -0.0377704   0.0000000), wk =   0.0138889
        k(   31) = (   0.0266766  -0.0236175   0.0000000), wk =   0.0138889
        k(   32) = (   0.0400149  -0.0141969   0.0000000), wk =   0.0138889
        k(   33) = (   0.0400149  -0.0000440   0.0000000), wk =   0.0138889
        k(   34) = (   0.0400149   0.0141090   0.0000000), wk =   0.0138889
        k(   35) = (   0.0400149   0.0282619   0.0000000), wk =   0.0138889
        k(   36) = (   0.0400149   0.0424148   0.0000000), wk =   0.0138889
        k(   37) = (   0.0400149   0.0565677   0.0000000), wk =   0.0138889
        k(   38) = (   0.0400149  -0.0991144   0.0000000), wk =   0.0138889
        k(   39) = (   0.0400149  -0.0849615   0.0000000), wk =   0.0138889
        k(   40) = (   0.0400149  -0.0708085   0.0000000), wk =   0.0138889
        k(   41) = (   0.0400149  -0.0566556   0.0000000), wk =   0.0138889
        k(   42) = (   0.0400149  -0.0425027   0.0000000), wk =   0.0138889
        k(   43) = (   0.0400149  -0.0283498   0.0000000), wk =   0.0138889
        k(   44) = (   0.0533532  -0.0189292   0.0000000), wk =   0.0138889
        k(   45) = (   0.0533532  -0.0047763   0.0000000), wk =   0.0138889
        k(   46) = (   0.0533532   0.0093767   0.0000000), wk =   0.0138889
        k(   47) = (   0.0533532   0.0235296   0.0000000), wk =   0.0138889
        k(   48) = (   0.0533532   0.0376825   0.0000000), wk =   0.0138889
        k(   49) = (   0.0533532   0.0518354   0.0000000), wk =   0.0138889
        k(   50) = (   0.0533532  -0.1038467   0.0000000), wk =   0.0138889
        k(   51) = (   0.0533532  -0.0896938   0.0000000), wk =   0.0138889
        k(   52) = (   0.0533532  -0.0755408   0.0000000), wk =   0.0138889
        k(   53) = (   0.0533532  -0.0613879   0.0000000), wk =   0.0138889
        k(   54) = (   0.0533532  -0.0472350   0.0000000), wk =   0.0138889
        k(   55) = (   0.0533532  -0.0330821   0.0000000), wk =   0.0138889
        k(   56) = (   0.0666915  -0.0236615   0.0000000), wk =   0.0138889
        k(   57) = (   0.0666915  -0.0095086   0.0000000), wk =   0.0138889
        k(   58) = (   0.0666915   0.0046444   0.0000000), wk =   0.0138889
        k(   59) = (   0.0666915   0.0187973   0.0000000), wk =   0.0138889
        k(   60) = (   0.0666915   0.0329502   0.0000000), wk =   0.0138889
        k(   61) = (   0.0666915   0.0471031   0.0000000), wk =   0.0138889
        k(   62) = (   0.0666915  -0.1085790   0.0000000), wk =   0.0138889
        k(   63) = (   0.0666915  -0.0944261   0.0000000), wk =   0.0138889
        k(   64) = (   0.0666915  -0.0802731   0.0000000), wk =   0.0138889
        k(   65) = (   0.0666915  -0.0661202   0.0000000), wk =   0.0138889
        k(   66) = (   0.0666915  -0.0519673   0.0000000), wk =   0.0138889
        k(   67) = (   0.0666915  -0.0378144   0.0000000), wk =   0.0138889
        k(   68) = (  -0.0800298   0.0283938   0.0000000), wk =   0.0069444
        k(   69) = (  -0.0800298   0.0425467   0.0000000), wk =   0.0138889
        k(   70) = (  -0.0800298   0.0566996   0.0000000), wk =   0.0138889
        k(   71) = (  -0.0800298   0.0708525   0.0000000), wk =   0.0138889
        k(   72) = (  -0.0800298   0.0850054   0.0000000), wk =   0.0138889
        k(   73) = (  -0.0800298   0.0991583   0.0000000), wk =   0.0138889
        k(   74) = (  -0.0800298  -0.0565237   0.0000000), wk =   0.0069444

     Initial potential from superposition of free atoms

     starting charge  113.81813, renormalised to  114.00000

     %%%%%%%%%%%%%%%%%%%%%%%%%%%%%%%%%%%%%%%%%%%%%%%%%%%%%%%%%%%%%%%%%%%%%%%%
     %                                                                      %
     % You are using vdW-DF, which was implemented by the Thonhauser group. %
     % Please cite the following two papers that made this development      %
     % possible and the two reviews that describe the various versions:     %
     %                                                                      %
     %   T. Thonhauser et al., PRL 115, 136402 (2015).                      %
     %   T. Thonhauser et al., PRB 76, 125112 (2007).                       %
     %   K. Berland et al., Rep. Prog. Phys. 78, 066501 (2015).             %
     %   D.C. Langreth et al., J. Phys.: Condens. Matter 21, 084203 (2009). %
     %                                                                      %
     %                                                                      %
     % If you are calculating the stress with vdW-DF, please also cite:     %
     %                                                                      %
     %   R. Sabatini et al., J. Phys.: Condens. Matter 24, 424209 (2012).   %
     %                                                                      %
     %%%%%%%%%%%%%%%%%%%%%%%%%%%%%%%%%%%%%%%%%%%%%%%%%%%%%%%%%%%%%%%%%%%%%%%%

     Adding external electric field

     Computed dipole along edir(3) :
        Dipole                0.0198 Ry au,          0.0503 Debye
        Dipole field          0.0000 Ry au,

        Potential amp.       -0.0037 Ry
        Total length         46.2522 bohr

[...]

     Starting wfcs are  174 randomized atomic wfcs

     Self-consistent Calculation

     iteration #  1     ecut=    55.12 Ry     beta= 0.10
     Davidson diagonalization with overlap
     ethr =  1.00E-02,  avg # of iterations =  2.0

[...]

     total energy              =   -1137.37104566 Ry
     estimated scf accuracy    <      10.25680311 Ry

     total magnetization       =    20.38 Bohr mag/cell
     absolute magnetization    =    22.26 Bohr mag/cell

[...]

     iteration # 11     ecut=    55.12 Ry     beta= 0.10
     Davidson diagonalization with overlap
     c_bands:  2 eigenvalues not converged
     c_bands:  1 eigenvalues not converged
     c_bands:  1 eigenvalues not converged
     ethr =  8.38E-05,  avg # of iterations = 12.6

[...]

     iteration # 34     ecut=    55.12 Ry     beta= 0.10
     Davidson diagonalization with overlap
     ethr =  2.19E-08,  avg # of iterations =  5.4

[...]

     total energy              =   -1140.32095267 Ry
     estimated scf accuracy    <       0.00001747 Ry

[...]

     iteration # 35     ecut=    55.12 Ry     beta= 0.10
     Davidson diagonalization with overlap
     c_bands:  1 eigenvalues not converged
     ethr =  1.53E-08,  avg # of iterations =  6.9

[...]

     Adding external electric field

     Computed dipole along edir(3) :
        Dipole                0.1266 Ry au,          0.3219 Debye
        Dipole field          0.0003 Ry au,

        Potential amp.       -0.0236 Ry
        Total length         46.2522 bohr

     Magnetic moment per site:
     atom:    1    charge:    6.8829    magn:    2.6463    constr:    0.0000
     atom:    2    charge:    6.8811    magn:    2.6479    constr:    0.0000
     atom:    3    charge:    7.6969    magn:   -0.2731    constr:    0.0000
     atom:    4    charge:    7.6969    magn:   -0.2731    constr:    0.0000
     atom:    5    charge:    6.9459    magn:    2.4206    constr:    0.0000
     atom:    6    charge:    6.9464    magn:    2.4189    constr:    0.0000
     atom:    7    charge:    7.7677    magn:   -0.2414    constr:    0.0000
     atom:    8    charge:    7.7677    magn:   -0.2414    constr:    0.0000
     atom:    9    charge:    6.9819    magn:    2.3853    constr:    0.0000
     atom:   10    charge:    6.9812    magn:    2.3858    constr:    0.0000
     atom:   11    charge:    7.6824    magn:   -0.2547    constr:    0.0000
     atom:   12    charge:    7.6824    magn:   -0.2547    constr:    0.0000

     End of self-consistent calculation

     Number of k-points >= 100: set verbosity='high' to print the bands.

     the Fermi energy is     1.3774 ev

!    total energy              =   -1139.69448417 Ry
     estimated scf accuracy    <       0.00000981 Ry
     smearing contrib. (-TS)   =      -0.10091409 Ry
     internal energy E=F+TS    =   -1139.59357008 Ry

     The total energy is F=E-TS. E is the sum of the following terms:
     one-electron contribution =   -4999.51136628 Ry
     hartree contribution      =    2552.17837859 Ry
     xc contribution           =    -641.99680931 Ry
     ewald contribution        =    1949.73619458 Ry
     electric field correction =       0.00003234 Ry

     total magnetization       =    10.28 Bohr mag/cell
     absolute magnetization    =    19.89 Bohr mag/cell

     convergence has been achieved in  35 iterations

     Forces acting on atoms (cartesian axes, Ry/au):

     atom    1 type  1   force =     0.00007526    0.00005207    0.01885489
     atom    2 type  1   force =     0.00011457    0.00008177    0.01887611
     atom    3 type  2   force =    -0.00030238   -0.00017003   -0.01320115
     atom    4 type  2   force =    -0.00026161   -0.00022537   -0.01320288
     atom    5 type  1   force =     0.00012960    0.00008225    0.01012896
     atom    6 type  1   force =     0.00015291    0.00011228    0.00991556
     atom    7 type  2   force =     0.00012419    0.00012086   -0.01459715
     atom    8 type  2   force =     0.00015148    0.00007338   -0.01459473
     atom    9 type  1   force =    -0.00006628   -0.00004193    0.00011834
     atom   10 type  1   force =    -0.00003224   -0.00002330    0.00012622
     atom   11 type  2   force =    -0.00007558    0.00001376   -0.00121300
     atom   12 type  2   force =    -0.00000993   -0.00007572   -0.00121116

     Total force =     0.041119     Total SCF correction =     0.005429
     SCF correction compared to forces is large: reduce conv_thr to get better values

     Writing output data file ./Fe2La2/Fe2La2_beef.save/

     General routines

     Parallel routines

   This run was terminated on:   7:36: 7  28Jun2022

   JOB DONE.