     Program PWSCF v.6.6 starts on 28Jun2022 at 16: 1:26

     R & G space division:  proc/nbgrp/npool/nimage =      37
     Fft bands division:     nmany     =       1
     Reading input from Fe2Ni2.in
Warning: card &CELL ignored
Warning: card / ignored

     Current dimensions of program PWSCF are:
     Max number of different atomic species (ntypx) = 10
     Max number of k-points (npk) =  40000
     Max angular momentum in pseudopotentials (lmaxx) =  3
     Presently stress not available with electric field and gates

     Message from routine cell_base_init:
     DEPRECATED: use true lattice parameter, not A to a.u. conversion factor
     file Fe.pbe-n-rrkjus_psl.1.0.0.UPF: wavefunction(s)  3D renormalized
     file Ni.pbe-n-rrkjus_psl.1.0.0.UPF: wavefunction(s)  3D renormalized

     IMPORTANT: XC functional enforced from input :
     Exchange-correlation= BEEF-VDW
                           (   1   4  43  14   2   0   0)
     Any further DFT definition will be discarded
     Please, verify this is what you really want

     Subspace diagonalization in iterative solution of the eigenvalue problem:
     a serial algorithm will be used

     bravais-lattice index     =            0
     lattice parameter (alat)  =       1.8897  a.u.
     unit-cell volume          =    3618.0585 (a.u.)^3
     number of atoms/cell      =           12
     number of atomic types    =            2
     number of electrons       =       108.00
     number of Kohn-Sham states=           65
     kinetic-energy cutoff     =      55.1240  Ry
     charge density cutoff     =     551.2396  Ry
     convergence threshold     =      1.0E-05
     mixing beta               =       0.1000
     number of iterations used =           10  plain     mixing
     Exchange-correlation= BEEF-VDW
                           (   1   4  43  14   2   0   0)

     celldm(1)=   1.889726  celldm(2)=   0.000000  celldm(3)=   0.000000
     celldm(4)=   0.000000  celldm(5)=   0.000000  celldm(6)=   0.000000

     crystal axes: (cart. coord. in units of alat)
               a(1) = (   5.052266   0.000000   0.000000 )
               a(2) = (  -2.526133   4.396855   0.000000 )
               a(3) = (   0.000000   0.000000  24.135190 )

     reciprocal axes: (cart. coord. in units 2 pi/alat)
               b(1) = (  0.197931  0.113718 -0.000000 )
               b(2) = (  0.000000  0.227435  0.000000 )
               b(3) = (  0.000000 -0.000000  0.041433 )

     PseudoPot. # 1 for Fe read from file:
     ../pseudo/Fe.pbe-n-rrkjus_psl.1.0.0.UPF
     MD5 check sum: e37eda618788e2416bb099156d582190
     Pseudo is Ultrasoft + core correction, Zval =  8.0
     Generated using "atomic" code by A. Dal Corso v.6.5
     Using radial grid of 1191 points,  6 beta functions with:
                l(1) =   0
                l(2) =   0
                l(3) =   1
                l(4) =   1
                l(5) =   2
                l(6) =   2
     Q(r) pseudized with 0 coefficients

     PseudoPot. # 2 for Ni read from file:
     ../pseudo/Ni.pbe-n-rrkjus_psl.1.0.0.UPF
     MD5 check sum: 9f76af1bddcd5839b31985483df98d0a
     Pseudo is Ultrasoft + core correction, Zval = 10.0
     Generated using "atomic" code by A. Dal Corso v.6.5
     Using radial grid of 1195 points,  6 beta functions with:
                l(1) =   0
                l(2) =   0
                l(3) =   1
                l(4) =   1
                l(5) =   2
                l(6) =   2
     Q(r) pseudized with 0 coefficients

     atomic species   valence    mass     pseudopotential
        Fe             8.00    55.84500     Fe( 1.00)
        Ni            10.00    58.69340     Ni( 1.00)

     Starting magnetic structure
     atomic species   magnetization
        Fe           0.750
        Ni           0.500

     No symmetry found

   Cartesian axes

     site n.     atom                  positions (alat units)
         1           Fe  tau(   1) = (   0.0000000   0.0000000  10.0000000  )
         2           Fe  tau(   2) = (   2.5261330   0.0000000  10.0000000  )
         3           Ni  tau(   3) = (   1.2630665   2.1984273  10.0000000  )
         4           Ni  tau(   4) = (  -1.2630665   2.1984273  10.0000000  )
         5           Fe  tau(   5) = (   2.5261330   1.4513438  12.0675950  )
         6           Fe  tau(   6) = (   0.0000000   1.4513438  12.0675950  )
         7           Ni  tau(   7) = (  -1.2630665   3.6497711  12.0675950  )
         8           Ni  tau(   8) = (   1.2630665   3.6497711  12.0675950  )
         9           Fe  tau(   9) = (   0.0000056   2.9170830  14.1180667  )
        10           Fe  tau(  10) = (   2.5261272   2.9172792  14.1179166  )
        11           Ni  tau(  11) = (   3.7894338   0.7193543  14.1064247  )
        12           Ni  tau(  12) = (   1.2628339   0.7193453  14.1064078  )

     number of k points=    74  Fermi-Dirac smearing, width (Ry)=  0.0100
                       cart. coord. in units 2pi/alat
        k(    1) = (   0.0000000   0.0000000   0.0000000), wk =   0.0069444
        k(    2) = (   0.0000000   0.0189529   0.0000000), wk =   0.0138889
        k(    3) = (   0.0000000   0.0379059   0.0000000), wk =   0.0138889
        k(    4) = (   0.0000000   0.0568588   0.0000000), wk =   0.0138889
        k(    5) = (   0.0000000   0.0758118   0.0000000), wk =   0.0138889
        k(    6) = (   0.0000000   0.0947647   0.0000000), wk =   0.0138889
        k(    7) = (   0.0000000  -0.1137176   0.0000000), wk =   0.0069444
        k(    8) = (   0.0164942   0.0094765   0.0000000), wk =   0.0138889
        k(    9) = (   0.0164942   0.0284294   0.0000000), wk =   0.0138889
        k(   10) = (   0.0164942   0.0473824   0.0000000), wk =   0.0138889
        k(   11) = (   0.0164942   0.0663353   0.0000000), wk =   0.0138889
        k(   12) = (   0.0164942   0.0852882   0.0000000), wk =   0.0138889
        k(   13) = (   0.0164942   0.1042412   0.0000000), wk =   0.0138889
        k(   14) = (   0.0164942  -0.1042412   0.0000000), wk =   0.0138889
        k(   15) = (   0.0164942  -0.0852882   0.0000000), wk =   0.0138889
        k(   16) = (   0.0164942  -0.0663353   0.0000000), wk =   0.0138889
        k(   17) = (   0.0164942  -0.0473824   0.0000000), wk =   0.0138889
        k(   18) = (   0.0164942  -0.0284294   0.0000000), wk =   0.0138889
        k(   19) = (   0.0164942  -0.0094765   0.0000000), wk =   0.0138889
        k(   20) = (   0.0329885   0.0189529   0.0000000), wk =   0.0138889
        k(   21) = (   0.0329885   0.0379059   0.0000000), wk =   0.0138889
        k(   22) = (   0.0329885   0.0568588   0.0000000), wk =   0.0138889
        k(   23) = (   0.0329885   0.0758118   0.0000000), wk =   0.0138889
        k(   24) = (   0.0329885   0.0947647   0.0000000), wk =   0.0138889
        k(   25) = (   0.0329885   0.1137176   0.0000000), wk =   0.0138889
        k(   26) = (   0.0329885  -0.0947647   0.0000000), wk =   0.0138889
        k(   27) = (   0.0329885  -0.0758118   0.0000000), wk =   0.0138889
        k(   28) = (   0.0329885  -0.0568588   0.0000000), wk =   0.0138889
        k(   29) = (   0.0329885  -0.0379059   0.0000000), wk =   0.0138889
        k(   30) = (   0.0329885  -0.0189529   0.0000000), wk =   0.0138889
        k(   31) = (   0.0329885  -0.0000000   0.0000000), wk =   0.0138889
        k(   32) = (   0.0494827   0.0284294   0.0000000), wk =   0.0138889
        k(   33) = (   0.0494827   0.0473824   0.0000000), wk =   0.0138889
        k(   34) = (   0.0494827   0.0663353   0.0000000), wk =   0.0138889
        k(   35) = (   0.0494827   0.0852882   0.0000000), wk =   0.0138889
        k(   36) = (   0.0494827   0.1042412   0.0000000), wk =   0.0138889
        k(   37) = (   0.0494827   0.1231941   0.0000000), wk =   0.0138889
        k(   38) = (   0.0494827  -0.0852882   0.0000000), wk =   0.0138889
        k(   39) = (   0.0494827  -0.0663353   0.0000000), wk =   0.0138889
        k(   40) = (   0.0494827  -0.0473824   0.0000000), wk =   0.0138889
        k(   41) = (   0.0494827  -0.0284294   0.0000000), wk =   0.0138889
        k(   42) = (   0.0494827  -0.0094765   0.0000000), wk =   0.0138889
        k(   43) = (   0.0494827   0.0094765   0.0000000), wk =   0.0138889
        k(   44) = (   0.0659770   0.0379059   0.0000000), wk =   0.0138889
        k(   45) = (   0.0659770   0.0568588   0.0000000), wk =   0.0138889
        k(   46) = (   0.0659770   0.0758118   0.0000000), wk =   0.0138889
        k(   47) = (   0.0659770   0.0947647   0.0000000), wk =   0.0138889
        k(   48) = (   0.0659770   0.1137176   0.0000000), wk =   0.0138889
        k(   49) = (   0.0659770   0.1326706   0.0000000), wk =   0.0138889
        k(   50) = (   0.0659770  -0.0758118   0.0000000), wk =   0.0138889
        k(   51) = (   0.0659770  -0.0568588   0.0000000), wk =   0.0138889
        k(   52) = (   0.0659770  -0.0379059   0.0000000), wk =   0.0138889
        k(   53) = (   0.0659770  -0.0189529   0.0000000), wk =   0.0138889
        k(   54) = (   0.0659770   0.0000000   0.0000000), wk =   0.0138889
        k(   55) = (   0.0659770   0.0189529   0.0000000), wk =   0.0138889
        k(   56) = (   0.0824712   0.0473824   0.0000000), wk =   0.0138889
        k(   57) = (   0.0824712   0.0663353   0.0000000), wk =   0.0138889
        k(   58) = (   0.0824712   0.0852882   0.0000000), wk =   0.0138889
        k(   59) = (   0.0824712   0.1042412   0.0000000), wk =   0.0138889
        k(   60) = (   0.0824712   0.1231941   0.0000000), wk =   0.0138889
        k(   61) = (   0.0824712   0.1421471   0.0000000), wk =   0.0138889
        k(   62) = (   0.0824712  -0.0663353   0.0000000), wk =   0.0138889
        k(   63) = (   0.0824712  -0.0473824   0.0000000), wk =   0.0138889
        k(   64) = (   0.0824712  -0.0284294   0.0000000), wk =   0.0138889
        k(   65) = (   0.0824712  -0.0094765   0.0000000), wk =   0.0138889
        k(   66) = (   0.0824712   0.0094765   0.0000000), wk =   0.0138889
        k(   67) = (   0.0824712   0.0284294   0.0000000), wk =   0.0138889
        k(   68) = (  -0.0989655  -0.0568588   0.0000000), wk =   0.0069444
        k(   69) = (  -0.0989655  -0.0379059   0.0000000), wk =   0.0138889
        k(   70) = (  -0.0989655  -0.0189529   0.0000000), wk =   0.0138889
        k(   71) = (  -0.0989655   0.0000000   0.0000000), wk =   0.0138889
        k(   72) = (  -0.0989655   0.0189529   0.0000000), wk =   0.0138889
        k(   73) = (  -0.0989655   0.0379059   0.0000000), wk =   0.0138889
        k(   74) = (  -0.0989655  -0.1705765   0.0000000), wk =   0.0069444

     Initial potential from superposition of free atoms

     starting charge  107.99538, renormalised to  108.00000

     %%%%%%%%%%%%%%%%%%%%%%%%%%%%%%%%%%%%%%%%%%%%%%%%%%%%%%%%%%%%%%%%%%%%%%%%
     %                                                                      %
     % You are using vdW-DF, which was implemented by the Thonhauser group. %
     % Please cite the following two papers that made this development      %
     % possible and the two reviews that describe the various versions:     %
     %                                                                      %
     %   T. Thonhauser et al., PRL 115, 136402 (2015).                      %
     %   T. Thonhauser et al., PRB 76, 125112 (2007).                       %
     %   K. Berland et al., Rep. Prog. Phys. 78, 066501 (2015).             %
     %   D.C. Langreth et al., J. Phys.: Condens. Matter 21, 084203 (2009). %
     %                                                                      %
     %                                                                      %
     % If you are calculating the stress with vdW-DF, please also cite:     %
     %                                                                      %
     %   R. Sabatini et al., J. Phys.: Condens. Matter 24, 424209 (2012).   %
     %                                                                      %
     %%%%%%%%%%%%%%%%%%%%%%%%%%%%%%%%%%%%%%%%%%%%%%%%%%%%%%%%%%%%%%%%%%%%%%%%

     Adding external electric field

     Computed dipole along edir(3) :
        Dipole                0.0000 Ry au,          0.0000 Debye
        Dipole field          0.0000 Ry au,

        Potential amp.       -0.0000 Ry
        Total length         44.4687 bohr

[...]

     Starting wfcs are  108 randomized atomic wfcs

     Self-consistent Calculation

     iteration #  1     ecut=    55.12 Ry     beta= 0.10
     Davidson diagonalization with overlap
     ethr =  1.00E-02,  avg # of iterations =  1.8

[...]

     total energy              =    -983.35891441 Ry
     estimated scf accuracy    <      11.68878356 Ry

     total magnetization       =    22.00 Bohr mag/cell
     absolute magnetization    =    22.17 Bohr mag/cell

[...]

     iteration # 14     ecut=    55.12 Ry     beta= 0.10
     Davidson diagonalization with overlap
     c_bands:  1 eigenvalues not converged
     c_bands:  1 eigenvalues not converged
     ethr =  9.27E-06,  avg # of iterations =  7.7

[...]

     iteration # 27     ecut=    55.12 Ry     beta= 0.10
     Davidson diagonalization with overlap
     c_bands:  1 eigenvalues not converged
     c_bands:  1 eigenvalues not converged
     c_bands:  1 eigenvalues not converged
     ethr =  1.77E-08,  avg # of iterations =  6.7

[...]

     total energy              =    -985.81930749 Ry
     estimated scf accuracy    <       0.00001225 Ry

[...]

     iteration # 28     ecut=    55.12 Ry     beta= 0.10
     Davidson diagonalization with overlap
     ethr =  1.13E-08,  avg # of iterations =  2.0

[...]

     Adding external electric field

     Computed dipole along edir(3) :
        Dipole                0.0022 Ry au,          0.0056 Debye
        Dipole field          0.0000 Ry au,

        Potential amp.       -0.0007 Ry
        Total length         44.4687 bohr

     Magnetic moment per site:
     atom:    1    charge:    6.4193    magn:    2.8498    constr:    0.0000
     atom:    2    charge:    6.4194    magn:    2.8497    constr:    0.0000
     atom:    3    charge:    8.7113    magn:    0.6541    constr:    0.0000
     atom:    4    charge:    8.7113    magn:    0.6542    constr:    0.0000
     atom:    5    charge:    6.5072    magn:    2.7229    constr:    0.0000
     atom:    6    charge:    6.5072    magn:    2.7227    constr:    0.0000
     atom:    7    charge:    8.7870    magn:    0.7225    constr:    0.0000
     atom:    8    charge:    8.7870    magn:    0.7225    constr:    0.0000
     atom:    9    charge:    6.4246    magn:    2.8425    constr:    0.0000
     atom:   10    charge:    6.4246    magn:    2.8426    constr:    0.0000
     atom:   11    charge:    8.7192    magn:    0.6532    constr:    0.0000
     atom:   12    charge:    8.7192    magn:    0.6532    constr:    0.0000

     End of self-consistent calculation

     Number of k-points >= 100: set verbosity='high' to print the bands.

     the Fermi energy is    -0.3592 ev

!    total energy              =    -985.57236527 Ry
     estimated scf accuracy    <       0.00000620 Ry
     smearing contrib. (-TS)   =      -0.05397522 Ry
     internal energy E=F+TS    =    -985.51839004 Ry

     The total energy is F=E-TS. E is the sum of the following terms:
     one-electron contribution =   -8032.44228162 Ry
     hartree contribution      =    4120.05296099 Ry
     xc contribution           =    -451.24202909 Ry
     ewald contribution        =    3378.11295966 Ry
     electric field correction =       0.00000002 Ry

     total magnetization       =    20.42 Bohr mag/cell
     absolute magnetization    =    22.41 Bohr mag/cell

     convergence has been achieved in  28 iterations

     Forces acting on atoms (cartesian axes, Ry/au):

     atom    1 type  1   force =     0.00012998   -0.00118455    0.00326943
     atom    2 type  1   force =    -0.00012377   -0.00133487    0.00324289
     atom    3 type  2   force =    -0.00019410   -0.00276684    0.00583721
     atom    4 type  2   force =     0.00021313   -0.00251733    0.00585600
     atom    5 type  1   force =    -0.00001358    0.00113457   -0.00389478
     atom    6 type  1   force =     0.00001248    0.00115179   -0.00391948
     atom    7 type  2   force =     0.00001374   -0.00008661   -0.00317471
     atom    8 type  2   force =    -0.00001116   -0.00011102   -0.00321875
     atom    9 type  1   force =    -0.00006199    0.00073108   -0.00096191
     atom   10 type  1   force =     0.00004429    0.00069525   -0.00097158
     atom   11 type  2   force =     0.00000043    0.00220025   -0.00107227
     atom   12 type  2   force =    -0.00000945    0.00208828   -0.00099204

     Total force =     0.013217     Total SCF correction =     0.005227
     SCF correction compared to forces is large: reduce conv_thr to get better values

     Writing output data file ./Fe2Ni2/Fe2Ni2_beef.save/

     General routines

     Parallel routines

   This run was terminated on:  17:18:21  28Jun2022

   JOB DONE.