     Program PWSCF v.6.6 starts on 28Jun2022 at 17:19: 4

     R & G space division:  proc/nbgrp/npool/nimage =      37
     Fft bands division:     nmany     =       1
     Reading input from Fe2Os2.in
Warning: card &CELL ignored
Warning: card / ignored

     Current dimensions of program PWSCF are:
     Max number of different atomic species (ntypx) = 10
     Max number of k-points (npk) =  40000
     Max angular momentum in pseudopotentials (lmaxx) =  3
     Presently stress not available with electric field and gates

     Message from routine cell_base_init:
     DEPRECATED: use true lattice parameter, not A to a.u. conversion factor
     file Fe.pbe-n-rrkjus_psl.1.0.0.UPF: wavefunction(s)  3D renormalized

     IMPORTANT: XC functional enforced from input :
     Exchange-correlation= BEEF-VDW
                           (   1   4  43  14   2   0   0)
     Any further DFT definition will be discarded
     Please, verify this is what you really want

     Subspace diagonalization in iterative solution of the eigenvalue problem:
     a serial algorithm will be used

     bravais-lattice index     =            0
     lattice parameter (alat)  =       1.8897  a.u.
     unit-cell volume          =    3926.5070 (a.u.)^3
     number of atoms/cell      =           12
     number of atomic types    =            2
     number of electrons       =       144.00
     number of Kohn-Sham states=           86
     kinetic-energy cutoff     =      55.1240  Ry
     charge density cutoff     =     551.2396  Ry
     convergence threshold     =      1.0E-05
     mixing beta               =       0.1000
     number of iterations used =           10  plain     mixing
     Exchange-correlation= BEEF-VDW
                           (   1   4  43  14   2   0   0)

     celldm(1)=   1.889726  celldm(2)=   0.000000  celldm(3)=   0.000000
     celldm(4)=   0.000000  celldm(5)=   0.000000  celldm(6)=   0.000000

     crystal axes: (cart. coord. in units of alat)
               a(1) = (   5.232344   0.000000   0.000000 )
               a(2) = (   2.534311   4.577629   0.000000 )
               a(3) = (   0.000000   0.000000  24.292543 )

     reciprocal axes: (cart. coord. in units 2 pi/alat)
               b(1) = (  0.191119 -0.105809  0.000000 )
               b(2) = (  0.000000  0.218454  0.000000 )
               b(3) = (  0.000000  0.000000  0.041165 )

     PseudoPot. # 1 for Fe read from file:
     ../pseudo/Fe.pbe-n-rrkjus_psl.1.0.0.UPF
     MD5 check sum: e37eda618788e2416bb099156d582190
     Pseudo is Ultrasoft + core correction, Zval =  8.0
     Generated using "atomic" code by A. Dal Corso v.6.5
     Using radial grid of 1191 points,  6 beta functions with:
                l(1) =   0
                l(2) =   0
                l(3) =   1
                l(4) =   1
                l(5) =   2
                l(6) =   2
     Q(r) pseudized with 0 coefficients

     PseudoPot. # 2 for Os read from file:
     ../pseudo/Os.pbe-spn-rrkjus_psl.1.0.0.UPF
     MD5 check sum: 3e7416ed594f6513d36e5cb31ba709d9
     Pseudo is Ultrasoft + core correction, Zval = 16.0
     Generated using "atomic" code by A. Dal Corso v.6.2.2
     Using radial grid of 1275 points,  6 beta functions with:
                l(1) =   0
                l(2) =   0
                l(3) =   1
                l(4) =   1
                l(5) =   2
                l(6) =   2
     Q(r) pseudized with 0 coefficients

     atomic species   valence    mass     pseudopotential
        Fe             8.00    55.84500     Fe( 1.00)
        Os            16.00   190.23000     Os( 1.00)

     Starting magnetic structure
     atomic species   magnetization
        Fe           0.750
        Os           0.000

     No symmetry found

   Cartesian axes

     site n.     atom                  positions (alat units)
         1           Fe  tau(   1) = (   0.0000000   0.0000000  10.0000000  )
         2           Fe  tau(   2) = (   3.8833272   2.2888147  10.0000000  )
         3           Os  tau(   3) = (   2.6161719   0.0000000  10.0000000  )
         4           Os  tau(   4) = (   1.2671553   2.2888147  10.0000000  )
         5           Fe  tau(   5) = (   5.2323437   3.0839187  12.1462717  )
         6           Fe  tau(   6) = (   1.3490166   0.7951040  12.1462717  )
         7           Os  tau(   7) = (   2.6161719   3.0839187  12.1462717  )
         8           Os  tau(   8) = (   3.9651884   0.7951040  12.1462717  )
         9           Fe  tau(   9) = (   2.6522631   1.5632324  14.2352939  )
        10           Fe  tau(  10) = (   6.5354366   3.8519552  14.2351947  )
        11           Os  tau(  11) = (   5.2713201   1.5649624  14.2215705  )
        12           Os  tau(  12) = (   3.9223305   3.8537319  14.2215712  )

     number of k points=    74  Fermi-Dirac smearing, width (Ry)=  0.0100
                       cart. coord. in units 2pi/alat
        k(    1) = (   0.0000000   0.0000000   0.0000000), wk =   0.0069444
        k(    2) = (   0.0000000   0.0182045   0.0000000), wk =   0.0138889
        k(    3) = (   0.0000000   0.0364090   0.0000000), wk =   0.0138889
        k(    4) = (   0.0000000   0.0546134   0.0000000), wk =   0.0138889
        k(    5) = (   0.0000000   0.0728179   0.0000000), wk =   0.0138889
        k(    6) = (   0.0000000   0.0910224   0.0000000), wk =   0.0138889
        k(    7) = (   0.0000000  -0.1092269   0.0000000), wk =   0.0069444
        k(    8) = (   0.0159266  -0.0088174   0.0000000), wk =   0.0138889
        k(    9) = (   0.0159266   0.0093870   0.0000000), wk =   0.0138889
        k(   10) = (   0.0159266   0.0275915   0.0000000), wk =   0.0138889
        k(   11) = (   0.0159266   0.0457960   0.0000000), wk =   0.0138889
        k(   12) = (   0.0159266   0.0640005   0.0000000), wk =   0.0138889
        k(   13) = (   0.0159266   0.0822050   0.0000000), wk =   0.0138889
        k(   14) = (   0.0159266  -0.1180443   0.0000000), wk =   0.0138889
        k(   15) = (   0.0159266  -0.0998398   0.0000000), wk =   0.0138889
        k(   16) = (   0.0159266  -0.0816353   0.0000000), wk =   0.0138889
        k(   17) = (   0.0159266  -0.0634309   0.0000000), wk =   0.0138889
        k(   18) = (   0.0159266  -0.0452264   0.0000000), wk =   0.0138889
        k(   19) = (   0.0159266  -0.0270219   0.0000000), wk =   0.0138889
        k(   20) = (   0.0318532  -0.0176349   0.0000000), wk =   0.0138889
        k(   21) = (   0.0318532   0.0005696   0.0000000), wk =   0.0138889
        k(   22) = (   0.0318532   0.0187741   0.0000000), wk =   0.0138889
        k(   23) = (   0.0318532   0.0369786   0.0000000), wk =   0.0138889
        k(   24) = (   0.0318532   0.0551831   0.0000000), wk =   0.0138889
        k(   25) = (   0.0318532   0.0733875   0.0000000), wk =   0.0138889
        k(   26) = (   0.0318532  -0.1268617   0.0000000), wk =   0.0138889
        k(   27) = (   0.0318532  -0.1086572   0.0000000), wk =   0.0138889
        k(   28) = (   0.0318532  -0.0904528   0.0000000), wk =   0.0138889
        k(   29) = (   0.0318532  -0.0722483   0.0000000), wk =   0.0138889
        k(   30) = (   0.0318532  -0.0540438   0.0000000), wk =   0.0138889
        k(   31) = (   0.0318532  -0.0358393   0.0000000), wk =   0.0138889
        k(   32) = (   0.0477797  -0.0264523   0.0000000), wk =   0.0138889
        k(   33) = (   0.0477797  -0.0082478   0.0000000), wk =   0.0138889
        k(   34) = (   0.0477797   0.0099567   0.0000000), wk =   0.0138889
        k(   35) = (   0.0477797   0.0281611   0.0000000), wk =   0.0138889
        k(   36) = (   0.0477797   0.0463656   0.0000000), wk =   0.0138889
        k(   37) = (   0.0477797   0.0645701   0.0000000), wk =   0.0138889
        k(   38) = (   0.0477797  -0.1356791   0.0000000), wk =   0.0138889
        k(   39) = (   0.0477797  -0.1174747   0.0000000), wk =   0.0138889
        k(   40) = (   0.0477797  -0.0992702   0.0000000), wk =   0.0138889
        k(   41) = (   0.0477797  -0.0810657   0.0000000), wk =   0.0138889
        k(   42) = (   0.0477797  -0.0628612   0.0000000), wk =   0.0138889
        k(   43) = (   0.0477797  -0.0446568   0.0000000), wk =   0.0138889
        k(   44) = (   0.0637063  -0.0352697   0.0000000), wk =   0.0138889
        k(   45) = (   0.0637063  -0.0170652   0.0000000), wk =   0.0138889
        k(   46) = (   0.0637063   0.0011392   0.0000000), wk =   0.0138889
        k(   47) = (   0.0637063   0.0193437   0.0000000), wk =   0.0138889
        k(   48) = (   0.0637063   0.0375482   0.0000000), wk =   0.0138889
        k(   49) = (   0.0637063   0.0557527   0.0000000), wk =   0.0138889
        k(   50) = (   0.0637063  -0.1444966   0.0000000), wk =   0.0138889
        k(   51) = (   0.0637063  -0.1262921   0.0000000), wk =   0.0138889
        k(   52) = (   0.0637063  -0.1080876   0.0000000), wk =   0.0138889
        k(   53) = (   0.0637063  -0.0898831   0.0000000), wk =   0.0138889
        k(   54) = (   0.0637063  -0.0716787   0.0000000), wk =   0.0138889
        k(   55) = (   0.0637063  -0.0534742   0.0000000), wk =   0.0138889
        k(   56) = (   0.0796329  -0.0440871   0.0000000), wk =   0.0138889
        k(   57) = (   0.0796329  -0.0258827   0.0000000), wk =   0.0138889
        k(   58) = (   0.0796329  -0.0076782   0.0000000), wk =   0.0138889
        k(   59) = (   0.0796329   0.0105263   0.0000000), wk =   0.0138889
        k(   60) = (   0.0796329   0.0287308   0.0000000), wk =   0.0138889
        k(   61) = (   0.0796329   0.0469352   0.0000000), wk =   0.0138889
        k(   62) = (   0.0796329  -0.1533140   0.0000000), wk =   0.0138889
        k(   63) = (   0.0796329  -0.1351095   0.0000000), wk =   0.0138889
        k(   64) = (   0.0796329  -0.1169050   0.0000000), wk =   0.0138889
        k(   65) = (   0.0796329  -0.0987006   0.0000000), wk =   0.0138889
        k(   66) = (   0.0796329  -0.0804961   0.0000000), wk =   0.0138889
        k(   67) = (   0.0796329  -0.0622916   0.0000000), wk =   0.0138889
        k(   68) = (  -0.0955595   0.0529046   0.0000000), wk =   0.0069444
        k(   69) = (  -0.0955595   0.0711090   0.0000000), wk =   0.0138889
        k(   70) = (  -0.0955595   0.0893135   0.0000000), wk =   0.0138889
        k(   71) = (  -0.0955595   0.1075180   0.0000000), wk =   0.0138889
        k(   72) = (  -0.0955595   0.1257225   0.0000000), wk =   0.0138889
        k(   73) = (  -0.0955595   0.1439269   0.0000000), wk =   0.0138889
        k(   74) = (  -0.0955595  -0.0563223   0.0000000), wk =   0.0069444

     Initial potential from superposition of free atoms

     starting charge  143.99540, renormalised to  144.00000

     %%%%%%%%%%%%%%%%%%%%%%%%%%%%%%%%%%%%%%%%%%%%%%%%%%%%%%%%%%%%%%%%%%%%%%%%
     %                                                                      %
     % You are using vdW-DF, which was implemented by the Thonhauser group. %
     % Please cite the following two papers that made this development      %
     % possible and the two reviews that describe the various versions:     %
     %                                                                      %
     %   T. Thonhauser et al., PRL 115, 136402 (2015).                      %
     %   T. Thonhauser et al., PRB 76, 125112 (2007).                       %
     %   K. Berland et al., Rep. Prog. Phys. 78, 066501 (2015).             %
     %   D.C. Langreth et al., J. Phys.: Condens. Matter 21, 084203 (2009). %
     %                                                                      %
     %                                                                      %
     % If you are calculating the stress with vdW-DF, please also cite:     %
     %                                                                      %
     %   R. Sabatini et al., J. Phys.: Condens. Matter 24, 424209 (2012).   %
     %                                                                      %
     %%%%%%%%%%%%%%%%%%%%%%%%%%%%%%%%%%%%%%%%%%%%%%%%%%%%%%%%%%%%%%%%%%%%%%%%

     Adding external electric field

     Computed dipole along edir(3) :
        Dipole                0.0000 Ry au,          0.0000 Debye
        Dipole field          0.0000 Ry au,

        Potential amp.       -0.0000 Ry
        Total length         44.7586 bohr

[...]

     Starting wfcs are  114 randomized atomic wfcs

     Self-consistent Calculation

     iteration #  1     ecut=    55.12 Ry     beta= 0.10
     Davidson diagonalization with overlap
     ethr =  1.00E-02,  avg # of iterations =  2.0

[...]

     total energy              =   -1578.50588596 Ry
     estimated scf accuracy    <       3.92728458 Ry

     total magnetization       =    23.67 Bohr mag/cell
     absolute magnetization    =    23.90 Bohr mag/cell

[...]

     iteration # 12     ecut=    55.12 Ry     beta= 0.10
     Davidson diagonalization with overlap
     c_bands:  1 eigenvalues not converged
     c_bands:  1 eigenvalues not converged
     c_bands:  1 eigenvalues not converged
     ethr =  7.05E-06,  avg # of iterations =  6.2

[...]

     iteration # 23     ecut=    55.12 Ry     beta= 0.10
     Davidson diagonalization with overlap
     c_bands:  1 eigenvalues not converged
     ethr =  7.10E-08,  avg # of iterations =  6.2

[...]

     total energy              =   -1579.12385029 Ry
     estimated scf accuracy    <       0.00001324 Ry

[...]

     iteration # 29     ecut=    55.12 Ry     beta= 0.10
     Davidson diagonalization with overlap
     ethr =  9.19E-09,  avg # of iterations =  2.3

[...]

     Adding external electric field

     Computed dipole along edir(3) :
        Dipole                0.0113 Ry au,          0.0287 Debye
        Dipole field          0.0000 Ry au,

        Potential amp.       -0.0032 Ry
        Total length         44.7586 bohr

     Magnetic moment per site:
     atom:    1    charge:    6.6155    magn:    2.3705    constr:    0.0000
     atom:    2    charge:    6.6154    magn:    2.3705    constr:    0.0000
     atom:    3    charge:   13.1316    magn:   -0.0340    constr:    0.0000
     atom:    4    charge:   13.1315    magn:   -0.0340    constr:    0.0000
     atom:    5    charge:    6.7837    magn:    1.6925    constr:    0.0000
     atom:    6    charge:    6.7839    magn:    1.6930    constr:    0.0000
     atom:    7    charge:   13.1876    magn:   -0.1933    constr:    0.0000
     atom:    8    charge:   13.1876    magn:   -0.1933    constr:    0.0000
     atom:    9    charge:    6.6444    magn:    2.2204    constr:    0.0000
     atom:   10    charge:    6.6454    magn:    2.2198    constr:    0.0000
     atom:   11    charge:   13.1527    magn:   -0.0938    constr:    0.0000
     atom:   12    charge:   13.1527    magn:   -0.0938    constr:    0.0000

     End of self-consistent calculation

     Number of k-points >= 100: set verbosity='high' to print the bands.

     the Fermi energy is     1.4171 ev

!    total energy              =   -1578.37726825 Ry
     estimated scf accuracy    <       0.00000794 Ry
     smearing contrib. (-TS)   =      -0.07108912 Ry
     internal energy E=F+TS    =   -1578.30617913 Ry

     The total energy is F=E-TS. E is the sum of the following terms:
     one-electron contribution =  -13207.52918028 Ry
     hartree contribution      =    6634.32729290 Ry
     xc contribution           =    -428.66437191 Ry
     ewald contribution        =    5423.56007975 Ry
     electric field correction =       0.00000041 Ry

     total magnetization       =    11.62 Bohr mag/cell
     absolute magnetization    =    14.33 Bohr mag/cell

     convergence has been achieved in  29 iterations

     Forces acting on atoms (cartesian axes, Ry/au):

     atom    1 type  1   force =     0.00344163    0.00202643   -0.00130613
     atom    2 type  1   force =     0.00344507    0.00203403   -0.00130752
     atom    3 type  2   force =     0.00362983    0.00214826    0.02012655
     atom    4 type  2   force =     0.00363527    0.00213358    0.02013159
     atom    5 type  1   force =     0.00301957    0.00177889   -0.00861370
     atom    6 type  1   force =     0.00307815    0.00181400   -0.00855988
     atom    7 type  2   force =    -0.00781780   -0.00454518   -0.01153377
     atom    8 type  2   force =    -0.00776144   -0.00463931   -0.01153662
     atom    9 type  1   force =    -0.00075177   -0.00044413    0.00165770
     atom   10 type  1   force =    -0.00071395   -0.00042024    0.00174521
     atom   11 type  2   force =    -0.00158184   -0.00097605   -0.00040196
     atom   12 type  2   force =    -0.00162272   -0.00091026   -0.00040148

     Total force =     0.038703     Total SCF correction =     0.002955

     Writing output data file ./Fe2Os2/Fe2Os2_beef.save/

     General routines

     Parallel routines

   This run was terminated on:  19:35:27  28Jun2022

   JOB DONE.