     Program PWSCF v.6.6 starts on 29Jun2022 at  0:36:36

     R & G space division:  proc/nbgrp/npool/nimage =      37
     Fft bands division:     nmany     =       1
     Reading input from Fe2Pt2.in
Warning: card &CELL ignored
Warning: card / ignored

     Current dimensions of program PWSCF are:
     Max number of different atomic species (ntypx) = 10
     Max number of k-points (npk) =  40000
     Max angular momentum in pseudopotentials (lmaxx) =  3
     Presently stress not available with electric field and gates

     Message from routine cell_base_init:
     DEPRECATED: use true lattice parameter, not A to a.u. conversion factor
     file Fe.pbe-n-rrkjus_psl.1.0.0.UPF: wavefunction(s)  3D renormalized
     file Pt.pbe-n-rrkjus_psl.1.0.0.UPF: wavefunction(s)  6S renormalized

     IMPORTANT: XC functional enforced from input :
     Exchange-correlation= BEEF-VDW
                           (   1   4  43  14   2   0   0)
     Any further DFT definition will be discarded
     Please, verify this is what you really want

     Subspace diagonalization in iterative solution of the eigenvalue problem:
     a serial algorithm will be used

     bravais-lattice index     =            0
     lattice parameter (alat)  =       1.8897  a.u.
     unit-cell volume          =    4225.9183 (a.u.)^3
     number of atoms/cell      =           12
     number of atomic types    =            2
     number of electrons       =       108.00
     number of Kohn-Sham states=           65
     kinetic-energy cutoff     =      55.1240  Ry
     charge density cutoff     =     551.2396  Ry
     convergence threshold     =      1.0E-05
     mixing beta               =       0.1000
     number of iterations used =           10  plain     mixing
     Exchange-correlation= BEEF-VDW
                           (   1   4  43  14   2   0   0)

     celldm(1)=   1.889726  celldm(2)=   0.000000  celldm(3)=   0.000000
     celldm(4)=   0.000000  celldm(5)=   0.000000  celldm(6)=   0.000000

     crystal axes: (cart. coord. in units of alat)
               a(1) = (   5.414598   0.000000   0.000000 )
               a(2) = (   2.631506   4.732129   0.000000 )
               a(3) = (   0.000000   0.000000  24.440033 )

     reciprocal axes: (cart. coord. in units 2 pi/alat)
               b(1) = (  0.184686 -0.102703  0.000000 )
               b(2) = (  0.000000  0.211321  0.000000 )
               b(3) = (  0.000000  0.000000  0.040916 )

     PseudoPot. # 1 for Fe read from file:
     ../pseudo/Fe.pbe-n-rrkjus_psl.1.0.0.UPF
     MD5 check sum: e37eda618788e2416bb099156d582190
     Pseudo is Ultrasoft + core correction, Zval =  8.0
     Generated using "atomic" code by A. Dal Corso v.6.5
     Using radial grid of 1191 points,  6 beta functions with:
                l(1) =   0
                l(2) =   0
                l(3) =   1
                l(4) =   1
                l(5) =   2
                l(6) =   2
     Q(r) pseudized with 0 coefficients

     PseudoPot. # 2 for Pt read from file:
     ../pseudo/Pt.pbe-n-rrkjus_psl.1.0.0.UPF
     MD5 check sum: 6bc887cfe28d63a5fc1f72d35a7d3ef7
     Pseudo is Ultrasoft + core correction, Zval = 10.0
     Generated using "atomic" code by A. Dal Corso v.6.3
     Using radial grid of 1277 points,  6 beta functions with:
                l(1) =   0
                l(2) =   0
                l(3) =   1
                l(4) =   1
                l(5) =   2
                l(6) =   2
     Q(r) pseudized with 0 coefficients

     atomic species   valence    mass     pseudopotential
        Fe             8.00    55.84500     Fe( 1.00)
        Pt            10.00   195.08400     Pt( 1.00)

     Starting magnetic structure
     atomic species   magnetization
        Fe           0.750
        Pt           0.000

     No symmetry found

   Cartesian axes

     site n.     atom                  positions (alat units)
         1           Fe  tau(   1) = (   0.0000000   0.0000000  10.0000000  )
         2           Fe  tau(   2) = (   4.0230520   2.3660644  10.0000000  )
         3           Pt  tau(   3) = (   2.7072989   0.0000000  10.0000000  )
         4           Pt  tau(   4) = (   1.3157532   2.3660644  10.0000000  )
         5           Fe  tau(   5) = (   5.4145977   3.1844696  12.2200166  )
         6           Fe  tau(   6) = (   1.3915457   0.8184052  12.2200166  )
         7           Pt  tau(   7) = (   2.7072989   3.1844696  12.2200166  )
         8           Pt  tau(   8) = (   4.0988446   0.8184052  12.2200166  )
         9           Fe  tau(   9) = (   2.8263809   1.6622696  14.3975386  )
        10           Fe  tau(  10) = (   6.8497340   4.0285112  14.3980217  )
        11           Pt  tau(  11) = (   5.5785259   1.6889731  14.4187890  )
        12           Pt  tau(  12) = (   4.1872665   4.0545516  14.4187901  )

     number of k points=    74  Fermi-Dirac smearing, width (Ry)=  0.0100
                       cart. coord. in units 2pi/alat
        k(    1) = (   0.0000000   0.0000000   0.0000000), wk =   0.0069444
        k(    2) = (   0.0000000   0.0176101   0.0000000), wk =   0.0138889
        k(    3) = (   0.0000000   0.0352202   0.0000000), wk =   0.0138889
        k(    4) = (   0.0000000   0.0528303   0.0000000), wk =   0.0138889
        k(    5) = (   0.0000000   0.0704405   0.0000000), wk =   0.0138889
        k(    6) = (   0.0000000   0.0880506   0.0000000), wk =   0.0138889
        k(    7) = (   0.0000000  -0.1056607   0.0000000), wk =   0.0069444
        k(    8) = (   0.0153905  -0.0085586   0.0000000), wk =   0.0138889
        k(    9) = (   0.0153905   0.0090516   0.0000000), wk =   0.0138889
        k(   10) = (   0.0153905   0.0266617   0.0000000), wk =   0.0138889
        k(   11) = (   0.0153905   0.0442718   0.0000000), wk =   0.0138889
        k(   12) = (   0.0153905   0.0618819   0.0000000), wk =   0.0138889
        k(   13) = (   0.0153905   0.0794920   0.0000000), wk =   0.0138889
        k(   14) = (   0.0153905  -0.1142192   0.0000000), wk =   0.0138889
        k(   15) = (   0.0153905  -0.0966091   0.0000000), wk =   0.0138889
        k(   16) = (   0.0153905  -0.0789990   0.0000000), wk =   0.0138889
        k(   17) = (   0.0153905  -0.0613889   0.0000000), wk =   0.0138889
        k(   18) = (   0.0153905  -0.0437788   0.0000000), wk =   0.0138889
        k(   19) = (   0.0153905  -0.0261687   0.0000000), wk =   0.0138889
        k(   20) = (   0.0307810  -0.0171171   0.0000000), wk =   0.0138889
        k(   21) = (   0.0307810   0.0004930   0.0000000), wk =   0.0138889
        k(   22) = (   0.0307810   0.0181031   0.0000000), wk =   0.0138889
        k(   23) = (   0.0307810   0.0357132   0.0000000), wk =   0.0138889
        k(   24) = (   0.0307810   0.0533234   0.0000000), wk =   0.0138889
        k(   25) = (   0.0307810   0.0709335   0.0000000), wk =   0.0138889
        k(   26) = (   0.0307810  -0.1227778   0.0000000), wk =   0.0138889
        k(   27) = (   0.0307810  -0.1051677   0.0000000), wk =   0.0138889
        k(   28) = (   0.0307810  -0.0875576   0.0000000), wk =   0.0138889
        k(   29) = (   0.0307810  -0.0699474   0.0000000), wk =   0.0138889
        k(   30) = (   0.0307810  -0.0523373   0.0000000), wk =   0.0138889
        k(   31) = (   0.0307810  -0.0347272   0.0000000), wk =   0.0138889
        k(   32) = (   0.0461715  -0.0256757   0.0000000), wk =   0.0138889
        k(   33) = (   0.0461715  -0.0080655   0.0000000), wk =   0.0138889
        k(   34) = (   0.0461715   0.0095446   0.0000000), wk =   0.0138889
        k(   35) = (   0.0461715   0.0271547   0.0000000), wk =   0.0138889
        k(   36) = (   0.0461715   0.0447648   0.0000000), wk =   0.0138889
        k(   37) = (   0.0461715   0.0623749   0.0000000), wk =   0.0138889
        k(   38) = (   0.0461715  -0.1313363   0.0000000), wk =   0.0138889
        k(   39) = (   0.0461715  -0.1137262   0.0000000), wk =   0.0138889
        k(   40) = (   0.0461715  -0.0961161   0.0000000), wk =   0.0138889
        k(   41) = (   0.0461715  -0.0785060   0.0000000), wk =   0.0138889
        k(   42) = (   0.0461715  -0.0608959   0.0000000), wk =   0.0138889
        k(   43) = (   0.0461715  -0.0432858   0.0000000), wk =   0.0138889
        k(   44) = (   0.0615620  -0.0342342   0.0000000), wk =   0.0138889
        k(   45) = (   0.0615620  -0.0166241   0.0000000), wk =   0.0138889
        k(   46) = (   0.0615620   0.0009860   0.0000000), wk =   0.0138889
        k(   47) = (   0.0615620   0.0185961   0.0000000), wk =   0.0138889
        k(   48) = (   0.0615620   0.0362062   0.0000000), wk =   0.0138889
        k(   49) = (   0.0615620   0.0538164   0.0000000), wk =   0.0138889
        k(   50) = (   0.0615620  -0.1398949   0.0000000), wk =   0.0138889
        k(   51) = (   0.0615620  -0.1222848   0.0000000), wk =   0.0138889
        k(   52) = (   0.0615620  -0.1046747   0.0000000), wk =   0.0138889
        k(   53) = (   0.0615620  -0.0870646   0.0000000), wk =   0.0138889
        k(   54) = (   0.0615620  -0.0694544   0.0000000), wk =   0.0138889
        k(   55) = (   0.0615620  -0.0518443   0.0000000), wk =   0.0138889
        k(   56) = (   0.0769525  -0.0427928   0.0000000), wk =   0.0138889
        k(   57) = (   0.0769525  -0.0251826   0.0000000), wk =   0.0138889
        k(   58) = (   0.0769525  -0.0075725   0.0000000), wk =   0.0138889
        k(   59) = (   0.0769525   0.0100376   0.0000000), wk =   0.0138889
        k(   60) = (   0.0769525   0.0276477   0.0000000), wk =   0.0138889
        k(   61) = (   0.0769525   0.0452578   0.0000000), wk =   0.0138889
        k(   62) = (   0.0769525  -0.1484534   0.0000000), wk =   0.0138889
        k(   63) = (   0.0769525  -0.1308433   0.0000000), wk =   0.0138889
        k(   64) = (   0.0769525  -0.1132332   0.0000000), wk =   0.0138889
        k(   65) = (   0.0769525  -0.0956231   0.0000000), wk =   0.0138889
        k(   66) = (   0.0769525  -0.0780130   0.0000000), wk =   0.0138889
        k(   67) = (   0.0769525  -0.0604029   0.0000000), wk =   0.0138889
        k(   68) = (  -0.0923430   0.0513513   0.0000000), wk =   0.0069444
        k(   69) = (  -0.0923430   0.0689614   0.0000000), wk =   0.0138889
        k(   70) = (  -0.0923430   0.0865715   0.0000000), wk =   0.0138889
        k(   71) = (  -0.0923430   0.1041817   0.0000000), wk =   0.0138889
        k(   72) = (  -0.0923430   0.1217918   0.0000000), wk =   0.0138889
        k(   73) = (  -0.0923430   0.1394019   0.0000000), wk =   0.0138889
        k(   74) = (  -0.0923430  -0.0543094   0.0000000), wk =   0.0069444

     Initial potential from superposition of free atoms

     starting charge  107.99584, renormalised to  108.00000

     %%%%%%%%%%%%%%%%%%%%%%%%%%%%%%%%%%%%%%%%%%%%%%%%%%%%%%%%%%%%%%%%%%%%%%%%
     %                                                                      %
     % You are using vdW-DF, which was implemented by the Thonhauser group. %
     % Please cite the following two papers that made this development      %
     % possible and the two reviews that describe the various versions:     %
     %                                                                      %
     %   T. Thonhauser et al., PRL 115, 136402 (2015).                      %
     %   T. Thonhauser et al., PRB 76, 125112 (2007).                       %
     %   K. Berland et al., Rep. Prog. Phys. 78, 066501 (2015).             %
     %   D.C. Langreth et al., J. Phys.: Condens. Matter 21, 084203 (2009). %
     %                                                                      %
     %                                                                      %
     % If you are calculating the stress with vdW-DF, please also cite:     %
     %                                                                      %
     %   R. Sabatini et al., J. Phys.: Condens. Matter 24, 424209 (2012).   %
     %                                                                      %
     %%%%%%%%%%%%%%%%%%%%%%%%%%%%%%%%%%%%%%%%%%%%%%%%%%%%%%%%%%%%%%%%%%%%%%%%

     Adding external electric field

     Computed dipole along edir(3) :
        Dipole               -0.0000 Ry au,         -0.0000 Debye
        Dipole field         -0.0000 Ry au,

        Potential amp.        0.0000 Ry
        Total length         45.0303 bohr

[...]

     Starting wfcs are  108 randomized atomic wfcs

     Self-consistent Calculation

     iteration #  1     ecut=    55.12 Ry     beta= 0.10
     Davidson diagonalization with overlap
     ethr =  1.00E-02,  avg # of iterations =  1.8

     Threshold (ethr) on eigenvalues was too large:
     Diagonalizing with lowered threshold

     Davidson diagonalization with overlap
     ethr =  8.34E-04,  avg # of iterations =  4.2

[...]

     total energy              =    -772.82730581 Ry
     estimated scf accuracy    <       1.02183345 Ry

     total magnetization       =    21.64 Bohr mag/cell
     absolute magnetization    =    21.72 Bohr mag/cell

[...]

     iteration #  9     ecut=    55.12 Ry     beta= 0.10
     Davidson diagonalization with overlap
     c_bands:  1 eigenvalues not converged
     c_bands:  1 eigenvalues not converged
     ethr =  3.94E-05,  avg # of iterations =  2.5

[...]

     iteration # 18     ecut=    55.12 Ry     beta= 0.10
     Davidson diagonalization with overlap
     c_bands:  1 eigenvalues not converged
     ethr =  2.04E-07,  avg # of iterations =  6.4

[...]

     total energy              =    -774.38633819 Ry
     estimated scf accuracy    <       0.00001595 Ry

[...]

     iteration # 24     ecut=    55.12 Ry     beta= 0.10
     Davidson diagonalization with overlap
     ethr =  1.48E-08,  avg # of iterations =  1.9

[...]

     Adding external electric field

     Computed dipole along edir(3) :
        Dipole               -0.0027 Ry au,         -0.0068 Debye
        Dipole field         -0.0000 Ry au,

        Potential amp.        0.0007 Ry
        Total length         45.0303 bohr

     Magnetic moment per site:
     atom:    1    charge:    6.5820    magn:    3.1003    constr:    0.0000
     atom:    2    charge:    6.5812    magn:    3.1010    constr:    0.0000
     atom:    3    charge:    7.7679    magn:    0.3413    constr:    0.0000
     atom:    4    charge:    7.7679    magn:    0.3413    constr:    0.0000
     atom:    5    charge:    6.6795    magn:    3.0562    constr:    0.0000
     atom:    6    charge:    6.6792    magn:    3.0563    constr:    0.0000
     atom:    7    charge:    7.8117    magn:    0.4480    constr:    0.0000
     atom:    8    charge:    7.8117    magn:    0.4480    constr:    0.0000
     atom:    9    charge:    6.5980    magn:    3.0945    constr:    0.0000
     atom:   10    charge:    6.5986    magn:    3.0939    constr:    0.0000
     atom:   11    charge:    7.7728    magn:    0.3498    constr:    0.0000
     atom:   12    charge:    7.7728    magn:    0.3498    constr:    0.0000

     End of self-consistent calculation

     Number of k-points >= 100: set verbosity='high' to print the bands.

     the Fermi energy is     0.2388 ev

!    total energy              =    -772.01769641 Ry
     estimated scf accuracy    <       0.00000654 Ry
     smearing contrib. (-TS)   =      -0.05204789 Ry
     internal energy E=F+TS    =    -771.96564852 Ry

     The total energy is F=E-TS. E is the sum of the following terms:
     one-electron contribution =   -6614.59535981 Ry
     hartree contribution      =    3386.36500581 Ry
     xc contribution           =    -341.59963515 Ry
     ewald contribution        =    2797.86434061 Ry
     electric field correction =       0.00000002 Ry

     total magnetization       =    20.49 Bohr mag/cell
     absolute magnetization    =    21.77 Bohr mag/cell

     convergence has been achieved in  24 iterations

     Forces acting on atoms (cartesian axes, Ry/au):

     atom    1 type  1   force =     0.00850561    0.00500599    0.00687308
     atom    2 type  1   force =     0.00848201    0.00498957    0.00689343
     atom    3 type  2   force =    -0.01508648   -0.00884450   -0.00101933
     atom    4 type  2   force =    -0.01505746   -0.00887884   -0.00102450
     atom    5 type  1   force =     0.00159218    0.00093885   -0.00671506
     atom    6 type  1   force =     0.00168983    0.00098779   -0.00657377
     atom    7 type  2   force =     0.00490551    0.00275863   -0.00142343
     atom    8 type  2   force =     0.00479840    0.00294116   -0.00142526
     atom    9 type  1   force =    -0.00078246   -0.00046850    0.00077524
     atom   10 type  1   force =    -0.00073614   -0.00042849    0.00070850
     atom   11 type  2   force =     0.00095205    0.00031174    0.00145979
     atom   12 type  2   force =     0.00073696    0.00068661    0.00147131

     Total force =     0.032778     Total SCF correction =     0.003627
     SCF correction compared to forces is large: reduce conv_thr to get better values

     Writing output data file ./Fe2Pt2/Fe2Pt2_beef.save/

     General routines

     Parallel routines

   This run was terminated on:   2:29:44  29Jun2022

   JOB DONE.