     Program PWSCF v.6.6 starts on 28Jun2022 at 23: 0:46

     R & G space division:  proc/nbgrp/npool/nimage =      37
     Fft bands division:     nmany     =       1
     Reading input from Fe2Pd2.in
Warning: card &CELL ignored
Warning: card / ignored

     Current dimensions of program PWSCF are:
     Max number of different atomic species (ntypx) = 10
     Max number of k-points (npk) =  40000
     Max angular momentum in pseudopotentials (lmaxx) =  3
     Presently stress not available with electric field and gates

     Message from routine cell_base_init:
     DEPRECATED: use true lattice parameter, not A to a.u. conversion factor
     file Fe.pbe-n-rrkjus_psl.1.0.0.UPF: wavefunction(s)  3D renormalized
     file Pd.pbe-n-rrkjus_psl.1.0.0.UPF: wavefunction(s)  4D renormalized

     IMPORTANT: XC functional enforced from input :
     Exchange-correlation= BEEF-VDW
                           (   1   4  43  14   2   0   0)
     Any further DFT definition will be discarded
     Please, verify this is what you really want

     Subspace diagonalization in iterative solution of the eigenvalue problem:
     a serial algorithm will be used

     bravais-lattice index     =            0
     lattice parameter (alat)  =       1.8897  a.u.
     unit-cell volume          =    4216.0525 (a.u.)^3
     number of atoms/cell      =           12
     number of atomic types    =            2
     number of electrons       =       108.00
     number of Kohn-Sham states=           65
     kinetic-energy cutoff     =      55.1240  Ry
     charge density cutoff     =     551.2396  Ry
     convergence threshold     =      1.0E-05
     mixing beta               =       0.1000
     number of iterations used =           10  plain     mixing
     Exchange-correlation= BEEF-VDW
                           (   1   4  43  14   2   0   0)

     celldm(1)=   1.889726  celldm(2)=   0.000000  celldm(3)=   0.000000
     celldm(4)=   0.000000  celldm(5)=   0.000000  celldm(6)=   0.000000

     crystal axes: (cart. coord. in units of alat)
               a(1) = (   5.416153   0.000000   0.000000 )
               a(2) = (   2.655419   4.720537   0.000000 )
               a(3) = (   0.000000   0.000000  24.435834 )

     reciprocal axes: (cart. coord. in units 2 pi/alat)
               b(1) = (  0.184633 -0.103861  0.000000 )
               b(2) = (  0.000000  0.211840  0.000000 )
               b(3) = (  0.000000  0.000000  0.040924 )

     PseudoPot. # 1 for Fe read from file:
     ../pseudo/Fe.pbe-n-rrkjus_psl.1.0.0.UPF
     MD5 check sum: e37eda618788e2416bb099156d582190
     Pseudo is Ultrasoft + core correction, Zval =  8.0
     Generated using "atomic" code by A. Dal Corso v.6.5
     Using radial grid of 1191 points,  6 beta functions with:
                l(1) =   0
                l(2) =   0
                l(3) =   1
                l(4) =   1
                l(5) =   2
                l(6) =   2
     Q(r) pseudized with 0 coefficients

     PseudoPot. # 2 for Pd read from file:
     ../pseudo/Pd.pbe-n-rrkjus_psl.1.0.0.UPF
     MD5 check sum: d9f693bf1c5b493397a6bd6f2231cfc3
     Pseudo is Ultrasoft + core correction, Zval = 10.0
     Generated using "atomic" code by A. Dal Corso v.6.3
     Using radial grid of 1235 points,  6 beta functions with:
                l(1) =   0
                l(2) =   0
                l(3) =   1
                l(4) =   1
                l(5) =   2
                l(6) =   2
     Q(r) pseudized with 0 coefficients

     atomic species   valence    mass     pseudopotential
        Fe             8.00    55.84500     Fe( 1.00)
        Pd            10.00   106.42000     Pd( 1.00)

     Starting magnetic structure
     atomic species   magnetization
        Fe           0.750
        Pd           0.000

     No symmetry found

   Cartesian axes

     site n.     atom                  positions (alat units)
         1           Fe  tau(   1) = (   0.0000000   0.0000000  10.0000000  )
         2           Fe  tau(   2) = (   4.0357859   2.3602685  10.0000000  )
         3           Pd  tau(   3) = (   2.7080766   0.0000000  10.0000000  )
         4           Pd  tau(   4) = (   1.3277093   2.3602685  10.0000000  )
         5           Fe  tau(   5) = (   5.4161533   3.1675555  12.2179168  )
         6           Fe  tau(   6) = (   1.3803674   0.8072870  12.2179168  )
         7           Pd  tau(   7) = (   2.7080766   3.1675555  12.2179168  )
         8           Pd  tau(   8) = (   4.0884440   0.8072870  12.2179168  )
         9           Fe  tau(   9) = (   2.7509504   1.6088510  14.3382975  )
        10           Fe  tau(  10) = (   6.7867137   3.9691071  14.3383480  )
        11           Pd  tau(  11) = (   5.5127232   1.6403176  14.4475716  )
        12           Pd  tau(  12) = (   4.1324103   4.0004932  14.4475711  )

     number of k points=    74  Fermi-Dirac smearing, width (Ry)=  0.0100
                       cart. coord. in units 2pi/alat
        k(    1) = (   0.0000000   0.0000000   0.0000000), wk =   0.0069444
        k(    2) = (   0.0000000   0.0176534   0.0000000), wk =   0.0138889
        k(    3) = (   0.0000000   0.0353067   0.0000000), wk =   0.0138889
        k(    4) = (   0.0000000   0.0529601   0.0000000), wk =   0.0138889
        k(    5) = (   0.0000000   0.0706134   0.0000000), wk =   0.0138889
        k(    6) = (   0.0000000   0.0882668   0.0000000), wk =   0.0138889
        k(    7) = (   0.0000000  -0.1059202   0.0000000), wk =   0.0069444
        k(    8) = (   0.0153861  -0.0086550   0.0000000), wk =   0.0138889
        k(    9) = (   0.0153861   0.0089983   0.0000000), wk =   0.0138889
        k(   10) = (   0.0153861   0.0266517   0.0000000), wk =   0.0138889
        k(   11) = (   0.0153861   0.0443050   0.0000000), wk =   0.0138889
        k(   12) = (   0.0153861   0.0619584   0.0000000), wk =   0.0138889
        k(   13) = (   0.0153861   0.0796117   0.0000000), wk =   0.0138889
        k(   14) = (   0.0153861  -0.1145752   0.0000000), wk =   0.0138889
        k(   15) = (   0.0153861  -0.0969218   0.0000000), wk =   0.0138889
        k(   16) = (   0.0153861  -0.0792685   0.0000000), wk =   0.0138889
        k(   17) = (   0.0153861  -0.0616151   0.0000000), wk =   0.0138889
        k(   18) = (   0.0153861  -0.0439618   0.0000000), wk =   0.0138889
        k(   19) = (   0.0153861  -0.0263084   0.0000000), wk =   0.0138889
        k(   20) = (   0.0307721  -0.0173101   0.0000000), wk =   0.0138889
        k(   21) = (   0.0307721   0.0003433   0.0000000), wk =   0.0138889
        k(   22) = (   0.0307721   0.0179966   0.0000000), wk =   0.0138889
        k(   23) = (   0.0307721   0.0356500   0.0000000), wk =   0.0138889
        k(   24) = (   0.0307721   0.0533033   0.0000000), wk =   0.0138889
        k(   25) = (   0.0307721   0.0709567   0.0000000), wk =   0.0138889
        k(   26) = (   0.0307721  -0.1232302   0.0000000), wk =   0.0138889
        k(   27) = (   0.0307721  -0.1055769   0.0000000), wk =   0.0138889
        k(   28) = (   0.0307721  -0.0879235   0.0000000), wk =   0.0138889
        k(   29) = (   0.0307721  -0.0702702   0.0000000), wk =   0.0138889
        k(   30) = (   0.0307721  -0.0526168   0.0000000), wk =   0.0138889
        k(   31) = (   0.0307721  -0.0349635   0.0000000), wk =   0.0138889
        k(   32) = (   0.0461582  -0.0259651   0.0000000), wk =   0.0138889
        k(   33) = (   0.0461582  -0.0083118   0.0000000), wk =   0.0138889
        k(   34) = (   0.0461582   0.0093416   0.0000000), wk =   0.0138889
        k(   35) = (   0.0461582   0.0269949   0.0000000), wk =   0.0138889
        k(   36) = (   0.0461582   0.0446483   0.0000000), wk =   0.0138889
        k(   37) = (   0.0461582   0.0623016   0.0000000), wk =   0.0138889
        k(   38) = (   0.0461582  -0.1318853   0.0000000), wk =   0.0138889
        k(   39) = (   0.0461582  -0.1142319   0.0000000), wk =   0.0138889
        k(   40) = (   0.0461582  -0.0965786   0.0000000), wk =   0.0138889
        k(   41) = (   0.0461582  -0.0789252   0.0000000), wk =   0.0138889
        k(   42) = (   0.0461582  -0.0612719   0.0000000), wk =   0.0138889
        k(   43) = (   0.0461582  -0.0436185   0.0000000), wk =   0.0138889
        k(   44) = (   0.0615443  -0.0346202   0.0000000), wk =   0.0138889
        k(   45) = (   0.0615443  -0.0169668   0.0000000), wk =   0.0138889
        k(   46) = (   0.0615443   0.0006865   0.0000000), wk =   0.0138889
        k(   47) = (   0.0615443   0.0183399   0.0000000), wk =   0.0138889
        k(   48) = (   0.0615443   0.0359932   0.0000000), wk =   0.0138889
        k(   49) = (   0.0615443   0.0536466   0.0000000), wk =   0.0138889
        k(   50) = (   0.0615443  -0.1405403   0.0000000), wk =   0.0138889
        k(   51) = (   0.0615443  -0.1228870   0.0000000), wk =   0.0138889
        k(   52) = (   0.0615443  -0.1052336   0.0000000), wk =   0.0138889
        k(   53) = (   0.0615443  -0.0875803   0.0000000), wk =   0.0138889
        k(   54) = (   0.0615443  -0.0699269   0.0000000), wk =   0.0138889
        k(   55) = (   0.0615443  -0.0522736   0.0000000), wk =   0.0138889
        k(   56) = (   0.0769304  -0.0432752   0.0000000), wk =   0.0138889
        k(   57) = (   0.0769304  -0.0256219   0.0000000), wk =   0.0138889
        k(   58) = (   0.0769304  -0.0079685   0.0000000), wk =   0.0138889
        k(   59) = (   0.0769304   0.0096848   0.0000000), wk =   0.0138889
        k(   60) = (   0.0769304   0.0273382   0.0000000), wk =   0.0138889
        k(   61) = (   0.0769304   0.0449916   0.0000000), wk =   0.0138889
        k(   62) = (   0.0769304  -0.1491954   0.0000000), wk =   0.0138889
        k(   63) = (   0.0769304  -0.1315420   0.0000000), wk =   0.0138889
        k(   64) = (   0.0769304  -0.1138887   0.0000000), wk =   0.0138889
        k(   65) = (   0.0769304  -0.0962353   0.0000000), wk =   0.0138889
        k(   66) = (   0.0769304  -0.0785820   0.0000000), wk =   0.0138889
        k(   67) = (   0.0769304  -0.0609286   0.0000000), wk =   0.0138889
        k(   68) = (  -0.0923164   0.0519303   0.0000000), wk =   0.0069444
        k(   69) = (  -0.0923164   0.0695836   0.0000000), wk =   0.0138889
        k(   70) = (  -0.0923164   0.0872370   0.0000000), wk =   0.0138889
        k(   71) = (  -0.0923164   0.1048904   0.0000000), wk =   0.0138889
        k(   72) = (  -0.0923164   0.1225437   0.0000000), wk =   0.0138889
        k(   73) = (  -0.0923164   0.1401971   0.0000000), wk =   0.0138889
        k(   74) = (  -0.0923164  -0.0539899   0.0000000), wk =   0.0069444

     Initial potential from superposition of free atoms

     starting charge  107.99343, renormalised to  108.00000

     %%%%%%%%%%%%%%%%%%%%%%%%%%%%%%%%%%%%%%%%%%%%%%%%%%%%%%%%%%%%%%%%%%%%%%%%
     %                                                                      %
     % You are using vdW-DF, which was implemented by the Thonhauser group. %
     % Please cite the following two papers that made this development      %
     % possible and the two reviews that describe the various versions:     %
     %                                                                      %
     %   T. Thonhauser et al., PRL 115, 136402 (2015).                      %
     %   T. Thonhauser et al., PRB 76, 125112 (2007).                       %
     %   K. Berland et al., Rep. Prog. Phys. 78, 066501 (2015).             %
     %   D.C. Langreth et al., J. Phys.: Condens. Matter 21, 084203 (2009). %
     %                                                                      %
     %                                                                      %
     % If you are calculating the stress with vdW-DF, please also cite:     %
     %                                                                      %
     %   R. Sabatini et al., J. Phys.: Condens. Matter 24, 424209 (2012).   %
     %                                                                      %
     %%%%%%%%%%%%%%%%%%%%%%%%%%%%%%%%%%%%%%%%%%%%%%%%%%%%%%%%%%%%%%%%%%%%%%%%

     Adding external electric field

     Computed dipole along edir(3) :
        Dipole               -0.0000 Ry au,         -0.0000 Debye
        Dipole field         -0.0000 Ry au,

        Potential amp.        0.0000 Ry
        Total length         45.0226 bohr

[...]

     Starting wfcs are  108 randomized atomic wfcs

     Self-consistent Calculation

     iteration #  1     ecut=    55.12 Ry     beta= 0.10
     Davidson diagonalization with overlap
     ethr =  1.00E-02,  avg # of iterations =  1.8

[...]

     total energy              =    -786.10271805 Ry
     estimated scf accuracy    <       1.40361765 Ry

     total magnetization       =    21.89 Bohr mag/cell
     absolute magnetization    =    21.96 Bohr mag/cell

[...]

     iteration # 13     ecut=    55.12 Ry     beta= 0.10
     Davidson diagonalization with overlap
     c_bands:  1 eigenvalues not converged
     ethr =  2.83E-06,  avg # of iterations =  6.8

[...]

     iteration # 21     ecut=    55.12 Ry     beta= 0.10
     Davidson diagonalization with overlap
     c_bands:  1 eigenvalues not converged
     ethr =  3.52E-08,  avg # of iterations =  5.8

[...]

     total energy              =    -790.10888781 Ry
     estimated scf accuracy    <       0.00001782 Ry

[...]

     iteration # 23     ecut=    55.12 Ry     beta= 0.10
     Davidson diagonalization with overlap
     ethr =  1.65E-08,  avg # of iterations =  2.9

[...]

     Adding external electric field

     Computed dipole along edir(3) :
        Dipole               -0.0109 Ry au,         -0.0277 Debye
        Dipole field         -0.0000 Ry au,

        Potential amp.        0.0029 Ry
        Total length         45.0226 bohr

     Magnetic moment per site:
     atom:    1    charge:    6.5136    magn:    3.1243    constr:    0.0000
     atom:    2    charge:    6.5114    magn:    3.1262    constr:    0.0000
     atom:    3    charge:    8.2329    magn:    0.3093    constr:    0.0000
     atom:    4    charge:    8.2329    magn:    0.3093    constr:    0.0000
     atom:    5    charge:    6.5872    magn:    3.0617    constr:    0.0000
     atom:    6    charge:    6.5874    magn:    3.0616    constr:    0.0000
     atom:    7    charge:    8.2694    magn:    0.3959    constr:    0.0000
     atom:    8    charge:    8.2694    magn:    0.3959    constr:    0.0000
     atom:    9    charge:    6.5432    magn:    3.0998    constr:    0.0000
     atom:   10    charge:    6.5433    magn:    3.0997    constr:    0.0000
     atom:   11    charge:    8.2334    magn:    0.3074    constr:    0.0000
     atom:   12    charge:    8.2334    magn:    0.3074    constr:    0.0000

     End of self-consistent calculation

     Number of k-points >= 100: set verbosity='high' to print the bands.

     the Fermi energy is    -0.0203 ev

!    total energy              =    -785.87670999 Ry
     estimated scf accuracy    <       0.00000912 Ry
     smearing contrib. (-TS)   =      -0.05440556 Ry
     internal energy E=F+TS    =    -785.82230442 Ry

     The total energy is F=E-TS. E is the sum of the following terms:
     one-electron contribution =   -6698.99213969 Ry
     hartree contribution      =    3432.04497966 Ry
     xc contribution           =    -327.70201674 Ry
     ewald contribution        =    2808.82687198 Ry
     electric field correction =       0.00000036 Ry

     total magnetization       =    20.34 Bohr mag/cell
     absolute magnetization    =    21.73 Bohr mag/cell

     convergence has been achieved in  23 iterations

     Forces acting on atoms (cartesian axes, Ry/au):

     atom    1 type  1   force =     0.00747243    0.00434670    0.01205159
     atom    2 type  1   force =     0.00746411    0.00438427    0.01209949
     atom    3 type  2   force =    -0.01235770   -0.00723017   -0.00570137
     atom    4 type  2   force =    -0.01235742   -0.00722068   -0.00570176
     atom    5 type  1   force =    -0.00056221   -0.00032171   -0.00156750
     atom    6 type  1   force =    -0.00040317   -0.00023572   -0.00141908
     atom    7 type  2   force =     0.00555586    0.00318730   -0.00593234
     atom    8 type  2   force =     0.00550012    0.00327866   -0.00593116
     atom    9 type  1   force =     0.00009563    0.00005253    0.00084205
     atom   10 type  1   force =     0.00009170    0.00005661    0.00084151
     atom   11 type  2   force =    -0.00023568   -0.00017528    0.00020963
     atom   12 type  2   force =    -0.00026367   -0.00012250    0.00020894

     Total force =     0.032793     Total SCF correction =     0.004150
     SCF correction compared to forces is large: reduce conv_thr to get better values

     Writing output data file ./Fe2Pd2/Fe2Pd2_beef.save/

     General routines

     Parallel routines

   This run was terminated on:   0:34:21  29Jun2022

   JOB DONE.