     Program PWSCF v.6.6 starts on 29Jun2022 at  2:31:18

     R & G space division:  proc/nbgrp/npool/nimage =      37
     Fft bands division:     nmany     =       1
     Reading input from Fe2Rh2.in
Warning: card &CELL ignored
Warning: card / ignored

     Current dimensions of program PWSCF are:
     Max number of different atomic species (ntypx) = 10
     Max number of k-points (npk) =  40000
     Max angular momentum in pseudopotentials (lmaxx) =  3
     Presently stress not available with electric field and gates

     Message from routine cell_base_init:
     DEPRECATED: use true lattice parameter, not A to a.u. conversion factor
     file Fe.pbe-n-rrkjus_psl.1.0.0.UPF: wavefunction(s)  3D renormalized
     file Rh.pbe-spn-rrkjus_psl.1.0.0.UPF: wavefunction(s)  4S 5S renormalized

     IMPORTANT: XC functional enforced from input :
     Exchange-correlation= BEEF-VDW
                           (   1   4  43  14   2   0   0)
     Any further DFT definition will be discarded
     Please, verify this is what you really want

     Subspace diagonalization in iterative solution of the eigenvalue problem:
     a serial algorithm will be used

     Found symmetry operation: I + ( -0.5000 -0.5000  0.0000)
     This is a supercell, fractional translations are disabled

     bravais-lattice index     =            0
     lattice parameter (alat)  =       1.8897  a.u.
     unit-cell volume          =    4237.1187 (a.u.)^3
     number of atoms/cell      =           12
     number of atomic types    =            2
     number of electrons       =       150.00
     number of Kohn-Sham states=           90
     kinetic-energy cutoff     =      55.1240  Ry
     charge density cutoff     =     551.2396  Ry
     convergence threshold     =      1.0E-05
     mixing beta               =       0.1000
     number of iterations used =           10  plain     mixing
     Exchange-correlation= BEEF-VDW
                           (   1   4  43  14   2   0   0)

     celldm(1)=   1.889726  celldm(2)=   0.000000  celldm(3)=   0.000000
     celldm(4)=   0.000000  celldm(5)=   0.000000  celldm(6)=   0.000000

     crystal axes: (cart. coord. in units of alat)
               a(1) = (   5.237860   0.000000   0.000000 )
               a(2) = (   1.747785   4.937654   0.000000 )
               a(3) = (   0.000000   0.000000  24.277255 )

     reciprocal axes: (cart. coord. in units 2 pi/alat)
               b(1) = (  0.190918 -0.067579  0.000000 )
               b(2) = (  0.000000  0.202525  0.000000 )
               b(3) = (  0.000000  0.000000  0.041191 )

     PseudoPot. # 1 for Fe read from file:
     ../pseudo/Fe.pbe-n-rrkjus_psl.1.0.0.UPF
     MD5 check sum: e37eda618788e2416bb099156d582190
     Pseudo is Ultrasoft + core correction, Zval =  8.0
     Generated using "atomic" code by A. Dal Corso v.6.5
     Using radial grid of 1191 points,  6 beta functions with:
                l(1) =   0
                l(2) =   0
                l(3) =   1
                l(4) =   1
                l(5) =   2
                l(6) =   2
     Q(r) pseudized with 0 coefficients

     PseudoPot. # 2 for Rh read from file:
     ../pseudo/Rh.pbe-spn-rrkjus_psl.1.0.0.UPF
     MD5 check sum: 912a852783f0c9b7bd5e9eb06cc0cc10
     Pseudo is Ultrasoft + core correction, Zval = 17.0
     Generated using "atomic" code by A. Dal Corso v.6.3
     Using radial grid of 1233 points,  6 beta functions with:
                l(1) =   0
                l(2) =   0
                l(3) =   1
                l(4) =   1
                l(5) =   2
                l(6) =   2
     Q(r) pseudized with 0 coefficients

     atomic species   valence    mass     pseudopotential
        Fe             8.00    55.84500     Fe( 1.00)
        Rh            17.00   102.90550     Rh( 1.00)

     Starting magnetic structure
     atomic species   magnetization
        Fe           0.750
        Rh           0.000

     No symmetry found

   Cartesian axes

     site n.     atom                  positions (alat units)
         1           Fe  tau(   1) = (   0.0000000   0.0000000  10.0000000  )
         2           Fe  tau(   2) = (   3.4928228   2.4688271  10.0000000  )
         3           Rh  tau(   3) = (   2.6189302   0.0000000  10.0000000  )
         4           Rh  tau(   4) = (   0.8738925   2.4688271  10.0000000  )
         5           Fe  tau(   5) = (   5.2378605   3.7022697  12.1386273  )
         6           Fe  tau(   6) = (   1.7450377   1.2334426  12.1386273  )
         7           Rh  tau(   7) = (   2.6189302   3.7022697  12.1386273  )
         8           Rh  tau(   8) = (   4.3639679   1.2334426  12.1386273  )
         9           Fe  tau(   9) = (   3.4901870   2.4669658  14.3052454  )
        10           Fe  tau(  10) = (   6.9830316   4.9358052  14.3053347  )
        11           Rh  tau(  11) = (   6.1092514   2.4670479  14.1747563  )
        12           Rh  tau(  12) = (   4.3642023   4.9358893  14.1747550  )

     number of k points=    74  Fermi-Dirac smearing, width (Ry)=  0.0100
                       cart. coord. in units 2pi/alat
        k(    1) = (   0.0000000   0.0000000   0.0000000), wk =   0.0069444
        k(    2) = (   0.0000000   0.0168771   0.0000000), wk =   0.0138889
        k(    3) = (   0.0000000   0.0337542   0.0000000), wk =   0.0138889
        k(    4) = (   0.0000000   0.0506313   0.0000000), wk =   0.0138889
        k(    5) = (   0.0000000   0.0675084   0.0000000), wk =   0.0138889
        k(    6) = (   0.0000000   0.0843856   0.0000000), wk =   0.0138889
        k(    7) = (   0.0000000  -0.1012627   0.0000000), wk =   0.0069444
        k(    8) = (   0.0159098  -0.0056316   0.0000000), wk =   0.0138889
        k(    9) = (   0.0159098   0.0112455   0.0000000), wk =   0.0138889
        k(   10) = (   0.0159098   0.0281226   0.0000000), wk =   0.0138889
        k(   11) = (   0.0159098   0.0449997   0.0000000), wk =   0.0138889
        k(   12) = (   0.0159098   0.0618768   0.0000000), wk =   0.0138889
        k(   13) = (   0.0159098   0.0787539   0.0000000), wk =   0.0138889
        k(   14) = (   0.0159098  -0.1068943   0.0000000), wk =   0.0138889
        k(   15) = (   0.0159098  -0.0900172   0.0000000), wk =   0.0138889
        k(   16) = (   0.0159098  -0.0731400   0.0000000), wk =   0.0138889
        k(   17) = (   0.0159098  -0.0562629   0.0000000), wk =   0.0138889
        k(   18) = (   0.0159098  -0.0393858   0.0000000), wk =   0.0138889
        k(   19) = (   0.0159098  -0.0225087   0.0000000), wk =   0.0138889
        k(   20) = (   0.0318196  -0.0112632   0.0000000), wk =   0.0138889
        k(   21) = (   0.0318196   0.0056139   0.0000000), wk =   0.0138889
        k(   22) = (   0.0318196   0.0224910   0.0000000), wk =   0.0138889
        k(   23) = (   0.0318196   0.0393681   0.0000000), wk =   0.0138889
        k(   24) = (   0.0318196   0.0562452   0.0000000), wk =   0.0138889
        k(   25) = (   0.0318196   0.0731223   0.0000000), wk =   0.0138889
        k(   26) = (   0.0318196  -0.1125259   0.0000000), wk =   0.0138889
        k(   27) = (   0.0318196  -0.0956488   0.0000000), wk =   0.0138889
        k(   28) = (   0.0318196  -0.0787717   0.0000000), wk =   0.0138889
        k(   29) = (   0.0318196  -0.0618945   0.0000000), wk =   0.0138889
        k(   30) = (   0.0318196  -0.0450174   0.0000000), wk =   0.0138889
        k(   31) = (   0.0318196  -0.0281403   0.0000000), wk =   0.0138889
        k(   32) = (   0.0477294  -0.0168948   0.0000000), wk =   0.0138889
        k(   33) = (   0.0477294  -0.0000177   0.0000000), wk =   0.0138889
        k(   34) = (   0.0477294   0.0168594   0.0000000), wk =   0.0138889
        k(   35) = (   0.0477294   0.0337365   0.0000000), wk =   0.0138889
        k(   36) = (   0.0477294   0.0506136   0.0000000), wk =   0.0138889
        k(   37) = (   0.0477294   0.0674907   0.0000000), wk =   0.0138889
        k(   38) = (   0.0477294  -0.1181575   0.0000000), wk =   0.0138889
        k(   39) = (   0.0477294  -0.1012804   0.0000000), wk =   0.0138889
        k(   40) = (   0.0477294  -0.0844033   0.0000000), wk =   0.0138889
        k(   41) = (   0.0477294  -0.0675261   0.0000000), wk =   0.0138889
        k(   42) = (   0.0477294  -0.0506490   0.0000000), wk =   0.0138889
        k(   43) = (   0.0477294  -0.0337719   0.0000000), wk =   0.0138889
        k(   44) = (   0.0636392  -0.0225264   0.0000000), wk =   0.0138889
        k(   45) = (   0.0636392  -0.0056493   0.0000000), wk =   0.0138889
        k(   46) = (   0.0636392   0.0112278   0.0000000), wk =   0.0138889
        k(   47) = (   0.0636392   0.0281049   0.0000000), wk =   0.0138889
        k(   48) = (   0.0636392   0.0449820   0.0000000), wk =   0.0138889
        k(   49) = (   0.0636392   0.0618591   0.0000000), wk =   0.0138889
        k(   50) = (   0.0636392  -0.1237891   0.0000000), wk =   0.0138889
        k(   51) = (   0.0636392  -0.1069120   0.0000000), wk =   0.0138889
        k(   52) = (   0.0636392  -0.0900349   0.0000000), wk =   0.0138889
        k(   53) = (   0.0636392  -0.0731578   0.0000000), wk =   0.0138889
        k(   54) = (   0.0636392  -0.0562806   0.0000000), wk =   0.0138889
        k(   55) = (   0.0636392  -0.0394035   0.0000000), wk =   0.0138889
        k(   56) = (   0.0795490  -0.0281580   0.0000000), wk =   0.0138889
        k(   57) = (   0.0795490  -0.0112809   0.0000000), wk =   0.0138889
        k(   58) = (   0.0795490   0.0055962   0.0000000), wk =   0.0138889
        k(   59) = (   0.0795490   0.0224733   0.0000000), wk =   0.0138889
        k(   60) = (   0.0795490   0.0393504   0.0000000), wk =   0.0138889
        k(   61) = (   0.0795490   0.0562275   0.0000000), wk =   0.0138889
        k(   62) = (   0.0795490  -0.1294207   0.0000000), wk =   0.0138889
        k(   63) = (   0.0795490  -0.1125436   0.0000000), wk =   0.0138889
        k(   64) = (   0.0795490  -0.0956665   0.0000000), wk =   0.0138889
        k(   65) = (   0.0795490  -0.0787894   0.0000000), wk =   0.0138889
        k(   66) = (   0.0795490  -0.0619122   0.0000000), wk =   0.0138889
        k(   67) = (   0.0795490  -0.0450351   0.0000000), wk =   0.0138889
        k(   68) = (  -0.0954588   0.0337896   0.0000000), wk =   0.0069444
        k(   69) = (  -0.0954588   0.0506667   0.0000000), wk =   0.0138889
        k(   70) = (  -0.0954588   0.0675439   0.0000000), wk =   0.0138889
        k(   71) = (  -0.0954588   0.0844210   0.0000000), wk =   0.0138889
        k(   72) = (  -0.0954588   0.1012981   0.0000000), wk =   0.0138889
        k(   73) = (  -0.0954588   0.1181752   0.0000000), wk =   0.0138889
        k(   74) = (  -0.0954588  -0.0674730   0.0000000), wk =   0.0069444

     Initial potential from superposition of free atoms

     starting charge  149.99392, renormalised to  150.00000

     %%%%%%%%%%%%%%%%%%%%%%%%%%%%%%%%%%%%%%%%%%%%%%%%%%%%%%%%%%%%%%%%%%%%%%%%
     %                                                                      %
     % You are using vdW-DF, which was implemented by the Thonhauser group. %
     % Please cite the following two papers that made this development      %
     % possible and the two reviews that describe the various versions:     %
     %                                                                      %
     %   T. Thonhauser et al., PRL 115, 136402 (2015).                      %
     %   T. Thonhauser et al., PRB 76, 125112 (2007).                       %
     %   K. Berland et al., Rep. Prog. Phys. 78, 066501 (2015).             %
     %   D.C. Langreth et al., J. Phys.: Condens. Matter 21, 084203 (2009). %
     %                                                                      %
     %                                                                      %
     % If you are calculating the stress with vdW-DF, please also cite:     %
     %                                                                      %
     %   R. Sabatini et al., J. Phys.: Condens. Matter 24, 424209 (2012).   %
     %                                                                      %
     %%%%%%%%%%%%%%%%%%%%%%%%%%%%%%%%%%%%%%%%%%%%%%%%%%%%%%%%%%%%%%%%%%%%%%%%

     Adding external electric field

     Computed dipole along edir(3) :
        Dipole                0.0001 Ry au,          0.0003 Debye
        Dipole field          0.0000 Ry au,

        Potential amp.       -0.0000 Ry
        Total length         44.7304 bohr

[...]

     Starting wfcs are  114 randomized atomic wfcs

     Self-consistent Calculation

     iteration #  1     ecut=    55.12 Ry     beta= 0.10
     Davidson diagonalization with overlap
     ethr =  1.00E-02,  avg # of iterations =  2.1

[...]

     total energy              =   -1739.94291497 Ry
     estimated scf accuracy    <      10.93907626 Ry

     total magnetization       =    28.26 Bohr mag/cell
     absolute magnetization    =    28.30 Bohr mag/cell

[...]

     iteration # 14     ecut=    55.12 Ry     beta= 0.10
     Davidson diagonalization with overlap
     c_bands:  1 eigenvalues not converged
     c_bands:  1 eigenvalues not converged
     ethr =  3.20E-06,  avg # of iterations =  6.5

[...]

     iteration # 16     ecut=    55.12 Ry     beta= 0.10
     Davidson diagonalization with overlap
     c_bands:  1 eigenvalues not converged
     ethr =  9.38E-07,  avg # of iterations =  4.2

[...]

     total energy              =   -1741.75841868 Ry
     estimated scf accuracy    <       0.00001389 Ry

[...]

     iteration # 23     ecut=    55.12 Ry     beta= 0.10
     Davidson diagonalization with overlap
     ethr =  9.26E-09,  avg # of iterations =  3.2

[...]

     Adding external electric field

     Computed dipole along edir(3) :
        Dipole                0.0199 Ry au,          0.0505 Debye
        Dipole field          0.0001 Ry au,

        Potential amp.       -0.0053 Ry
        Total length         44.7304 bohr

     Magnetic moment per site:
     atom:    1    charge:    6.3636    magn:    3.2298    constr:    0.0000
     atom:    2    charge:    6.3652    magn:    3.2286    constr:    0.0000
     atom:    3    charge:   14.7531    magn:    0.9701    constr:    0.0000
     atom:    4    charge:   14.7531    magn:    0.9701    constr:    0.0000
     atom:    5    charge:    6.4446    magn:    3.2246    constr:    0.0000
     atom:    6    charge:    6.4446    magn:    3.2246    constr:    0.0000
     atom:    7    charge:   14.7690    magn:    1.0719    constr:    0.0000
     atom:    8    charge:   14.7690    magn:    1.0719    constr:    0.0000
     atom:    9    charge:    6.3562    magn:    3.2338    constr:    0.0000
     atom:   10    charge:    6.3577    magn:    3.2324    constr:    0.0000
     atom:   11    charge:   14.7715    magn:    0.9584    constr:    0.0000
     atom:   12    charge:   14.7715    magn:    0.9584    constr:    0.0000

     End of self-consistent calculation

     Number of k-points >= 100: set verbosity='high' to print the bands.

     the Fermi energy is     0.7303 ev

!    total energy              =   -1739.56695629 Ry
     estimated scf accuracy    <       0.00000955 Ry
     smearing contrib. (-TS)   =      -0.05205563 Ry
     internal energy E=F+TS    =   -1739.51490066 Ry

     The total energy is F=E-TS. E is the sum of the following terms:
     one-electron contribution =  -13545.24137900 Ry
     hartree contribution      =    6813.27020459 Ry
     xc contribution           =    -377.49997556 Ry
     ewald contribution        =    5369.95624814 Ry
     electric field correction =       0.00000117 Ry

     total magnetization       =    25.45 Bohr mag/cell
     absolute magnetization    =    26.59 Bohr mag/cell

     convergence has been achieved in  23 iterations

     Forces acting on atoms (cartesian axes, Ry/au):

     atom    1 type  1   force =    -0.00003220   -0.00001991   -0.00473714
     atom    2 type  1   force =    -0.00004217   -0.00002665   -0.00475685
     atom    3 type  2   force =    -0.00002279   -0.00003298    0.02194548
     atom    4 type  2   force =    -0.00003333   -0.00000999    0.02194752
     atom    5 type  1   force =     0.00000991    0.00001090   -0.01579240
     atom    6 type  1   force =     0.00000619    0.00000588   -0.01579339
     atom    7 type  2   force =    -0.00004063    0.00000230   -0.00231348
     atom    8 type  2   force =    -0.00000784   -0.00003965   -0.00232033
     atom    9 type  1   force =     0.00006229    0.00003672   -0.00021339
     atom   10 type  1   force =     0.00005403    0.00004030   -0.00021314
     atom   11 type  2   force =     0.00002181    0.00002667    0.00111900
     atom   12 type  2   force =     0.00002472    0.00000641    0.00112812

     Total force =     0.038994     Total SCF correction =     0.006829
     SCF correction compared to forces is large: reduce conv_thr to get better values

     Writing output data file ./Fe2Rh2/Fe2Rh2_beef.save/

     General routines

     Parallel routines

   This run was terminated on:   4:33:24  29Jun2022

   JOB DONE.