     Program PWSCF v.6.6 starts on 28Jun2022 at 23:58:57

     R & G space division:  proc/nbgrp/npool/nimage =      37
     Fft bands division:     nmany     =       1
     Reading input from Fe2Ta2.in
Warning: card &CELL ignored
Warning: card / ignored

     Current dimensions of program PWSCF are:
     Max number of different atomic species (ntypx) = 10
     Max number of k-points (npk) =  40000
     Max angular momentum in pseudopotentials (lmaxx) =  3
     Presently stress not available with electric field and gates

     Message from routine cell_base_init:
     DEPRECATED: use true lattice parameter, not A to a.u. conversion factor
     file Fe.pbe-n-rrkjus_psl.1.0.0.UPF: wavefunction(s)  3D renormalized
     file Ta.pbe-spfn-rrkjus_psl.1.0.0.UPF: wavefunction(s)  5S 5P renormalized

     IMPORTANT: XC functional enforced from input :
     Exchange-correlation= BEEF-VDW
                           (   1   4  43  14   2   0   0)
     Any further DFT definition will be discarded
     Please, verify this is what you really want

     Subspace diagonalization in iterative solution of the eigenvalue problem:
     a serial algorithm will be used

     bravais-lattice index     =            0
     lattice parameter (alat)  =       1.8897  a.u.
     unit-cell volume          =    4379.1077 (a.u.)^3
     number of atoms/cell      =           12
     number of atomic types    =            2
     number of electrons       =       210.00
     number of Kohn-Sham states=          126
     kinetic-energy cutoff     =      55.1240  Ry
     charge density cutoff     =     551.2396  Ry
     convergence threshold     =      1.0E-05
     mixing beta               =       0.1000
     number of iterations used =           10  plain     mixing
     Exchange-correlation= BEEF-VDW
                           (   1   4  43  14   2   0   0)

     celldm(1)=   1.889726  celldm(2)=   0.000000  celldm(3)=   0.000000
     celldm(4)=   0.000000  celldm(5)=   0.000000  celldm(6)=   0.000000

     crystal axes: (cart. coord. in units of alat)
               a(1) = (   5.316405   0.000000   0.000000 )
               a(2) = (   1.764389   5.015087   0.000000 )
               a(3) = (   0.000000   0.000000  24.338431 )

     reciprocal axes: (cart. coord. in units 2 pi/alat)
               b(1) = (  0.188097 -0.066176  0.000000 )
               b(2) = (  0.000000  0.199398  0.000000 )
               b(3) = (  0.000000  0.000000  0.041087 )

     PseudoPot. # 1 for Fe read from file:
     ../pseudo/Fe.pbe-n-rrkjus_psl.1.0.0.UPF
     MD5 check sum: e37eda618788e2416bb099156d582190
     Pseudo is Ultrasoft + core correction, Zval =  8.0
     Generated using "atomic" code by A. Dal Corso v.6.5
     Using radial grid of 1191 points,  6 beta functions with:
                l(1) =   0
                l(2) =   0
                l(3) =   1
                l(4) =   1
                l(5) =   2
                l(6) =   2
     Q(r) pseudized with 0 coefficients

     PseudoPot. # 2 for Ta read from file:
     ../pseudo/Ta.pbe-spfn-rrkjus_psl.1.0.0.UPF
     MD5 check sum: 39d7d349fe394e56adf8454eb9315fbb
     Pseudo is Ultrasoft + core correction, Zval = 27.0
     Generated using "atomic" code by A. Dal Corso v.6.3
     Using radial grid of 1273 points,  8 beta functions with:
                l(1) =   0
                l(2) =   0
                l(3) =   1
                l(4) =   1
                l(5) =   2
                l(6) =   2
                l(7) =   3
                l(8) =   3
     Q(r) pseudized with 0 coefficients

     atomic species   valence    mass     pseudopotential
        Fe             8.00    55.84500     Fe( 1.00)
        Ta            27.00   180.94788     Ta( 1.00)

     Starting magnetic structure
     atomic species   magnetization
        Fe           0.750
        Ta           0.000

     No symmetry found

   Cartesian axes

     site n.     atom                  positions (alat units)
         1           Fe  tau(   1) = (   0.0000000   0.0000000  10.0000000  )
         2           Fe  tau(   2) = (   3.5403972   2.5075436  10.0000000  )
         3           Ta  tau(   3) = (   2.6582027   0.0000000  10.0000000  )
         4           Ta  tau(   4) = (   0.8821945   2.5075436  10.0000000  )
         5           Fe  tau(   5) = (   5.3164055   3.7654301  12.1692156  )
         6           Fe  tau(   6) = (   1.7760082   1.2578865  12.1692156  )
         7           Ta  tau(   7) = (   2.6582027   3.7654301  12.1692156  )
         8           Ta  tau(   8) = (   4.4342110   1.2578865  12.1692156  )
         9           Fe  tau(   9) = (   3.5490936   2.5136679  14.1302038  )
        10           Fe  tau(  10) = (   0.0087265   0.0062156  14.1302195  )
        11           Ta  tau(  11) = (   0.8898485   2.5129754  14.3378558  )
        12           Ta  tau(  12) = (   2.6658527   0.0054067  14.3378550  )

     number of k points=    74  Fermi-Dirac smearing, width (Ry)=  0.0100
                       cart. coord. in units 2pi/alat
        k(    1) = (   0.0000000   0.0000000   0.0000000), wk =   0.0069444
        k(    2) = (   0.0000000   0.0166165   0.0000000), wk =   0.0138889
        k(    3) = (   0.0000000   0.0332331   0.0000000), wk =   0.0138889
        k(    4) = (   0.0000000   0.0498496   0.0000000), wk =   0.0138889
        k(    5) = (   0.0000000   0.0664661   0.0000000), wk =   0.0138889
        k(    6) = (   0.0000000   0.0830826   0.0000000), wk =   0.0138889
        k(    7) = (   0.0000000  -0.0996992   0.0000000), wk =   0.0069444
        k(    8) = (   0.0156748  -0.0055146   0.0000000), wk =   0.0138889
        k(    9) = (   0.0156748   0.0111019   0.0000000), wk =   0.0138889
        k(   10) = (   0.0156748   0.0277184   0.0000000), wk =   0.0138889
        k(   11) = (   0.0156748   0.0443350   0.0000000), wk =   0.0138889
        k(   12) = (   0.0156748   0.0609515   0.0000000), wk =   0.0138889
        k(   13) = (   0.0156748   0.0775680   0.0000000), wk =   0.0138889
        k(   14) = (   0.0156748  -0.1052138   0.0000000), wk =   0.0138889
        k(   15) = (   0.0156748  -0.0885973   0.0000000), wk =   0.0138889
        k(   16) = (   0.0156748  -0.0719807   0.0000000), wk =   0.0138889
        k(   17) = (   0.0156748  -0.0553642   0.0000000), wk =   0.0138889
        k(   18) = (   0.0156748  -0.0387477   0.0000000), wk =   0.0138889
        k(   19) = (   0.0156748  -0.0221312   0.0000000), wk =   0.0138889
        k(   20) = (   0.0313495  -0.0110293   0.0000000), wk =   0.0138889
        k(   21) = (   0.0313495   0.0055873   0.0000000), wk =   0.0138889
        k(   22) = (   0.0313495   0.0222038   0.0000000), wk =   0.0138889
        k(   23) = (   0.0313495   0.0388203   0.0000000), wk =   0.0138889
        k(   24) = (   0.0313495   0.0554368   0.0000000), wk =   0.0138889
        k(   25) = (   0.0313495   0.0720534   0.0000000), wk =   0.0138889
        k(   26) = (   0.0313495  -0.1107284   0.0000000), wk =   0.0138889
        k(   27) = (   0.0313495  -0.0941119   0.0000000), wk =   0.0138889
        k(   28) = (   0.0313495  -0.0774954   0.0000000), wk =   0.0138889
        k(   29) = (   0.0313495  -0.0608788   0.0000000), wk =   0.0138889
        k(   30) = (   0.0313495  -0.0442623   0.0000000), wk =   0.0138889
        k(   31) = (   0.0313495  -0.0276458   0.0000000), wk =   0.0138889
        k(   32) = (   0.0470243  -0.0165439   0.0000000), wk =   0.0138889
        k(   33) = (   0.0470243   0.0000726   0.0000000), wk =   0.0138889
        k(   34) = (   0.0470243   0.0166892   0.0000000), wk =   0.0138889
        k(   35) = (   0.0470243   0.0333057   0.0000000), wk =   0.0138889
        k(   36) = (   0.0470243   0.0499222   0.0000000), wk =   0.0138889
        k(   37) = (   0.0470243   0.0665387   0.0000000), wk =   0.0138889
        k(   38) = (   0.0470243  -0.1162431   0.0000000), wk =   0.0138889
        k(   39) = (   0.0470243  -0.0996265   0.0000000), wk =   0.0138889
        k(   40) = (   0.0470243  -0.0830100   0.0000000), wk =   0.0138889
        k(   41) = (   0.0470243  -0.0663935   0.0000000), wk =   0.0138889
        k(   42) = (   0.0470243  -0.0497770   0.0000000), wk =   0.0138889
        k(   43) = (   0.0470243  -0.0331604   0.0000000), wk =   0.0138889
        k(   44) = (   0.0626990  -0.0220585   0.0000000), wk =   0.0138889
        k(   45) = (   0.0626990  -0.0054420   0.0000000), wk =   0.0138889
        k(   46) = (   0.0626990   0.0111745   0.0000000), wk =   0.0138889
        k(   47) = (   0.0626990   0.0277911   0.0000000), wk =   0.0138889
        k(   48) = (   0.0626990   0.0444076   0.0000000), wk =   0.0138889
        k(   49) = (   0.0626990   0.0610241   0.0000000), wk =   0.0138889
        k(   50) = (   0.0626990  -0.1217577   0.0000000), wk =   0.0138889
        k(   51) = (   0.0626990  -0.1051412   0.0000000), wk =   0.0138889
        k(   52) = (   0.0626990  -0.0885246   0.0000000), wk =   0.0138889
        k(   53) = (   0.0626990  -0.0719081   0.0000000), wk =   0.0138889
        k(   54) = (   0.0626990  -0.0552916   0.0000000), wk =   0.0138889
        k(   55) = (   0.0626990  -0.0386751   0.0000000), wk =   0.0138889
        k(   56) = (   0.0783738  -0.0275732   0.0000000), wk =   0.0138889
        k(   57) = (   0.0783738  -0.0109566   0.0000000), wk =   0.0138889
        k(   58) = (   0.0783738   0.0056599   0.0000000), wk =   0.0138889
        k(   59) = (   0.0783738   0.0222764   0.0000000), wk =   0.0138889
        k(   60) = (   0.0783738   0.0388929   0.0000000), wk =   0.0138889
        k(   61) = (   0.0783738   0.0555095   0.0000000), wk =   0.0138889
        k(   62) = (   0.0783738  -0.1272723   0.0000000), wk =   0.0138889
        k(   63) = (   0.0783738  -0.1106558   0.0000000), wk =   0.0138889
        k(   64) = (   0.0783738  -0.0940393   0.0000000), wk =   0.0138889
        k(   65) = (   0.0783738  -0.0774227   0.0000000), wk =   0.0138889
        k(   66) = (   0.0783738  -0.0608062   0.0000000), wk =   0.0138889
        k(   67) = (   0.0783738  -0.0441897   0.0000000), wk =   0.0138889
        k(   68) = (  -0.0940485   0.0330878   0.0000000), wk =   0.0069444
        k(   69) = (  -0.0940485   0.0497043   0.0000000), wk =   0.0138889
        k(   70) = (  -0.0940485   0.0663209   0.0000000), wk =   0.0138889
        k(   71) = (  -0.0940485   0.0829374   0.0000000), wk =   0.0138889
        k(   72) = (  -0.0940485   0.0995539   0.0000000), wk =   0.0138889
        k(   73) = (  -0.0940485   0.1161704   0.0000000), wk =   0.0138889
        k(   74) = (  -0.0940485  -0.0666114   0.0000000), wk =   0.0069444

     Initial potential from superposition of free atoms

     starting charge  209.99179, renormalised to  210.00000

     %%%%%%%%%%%%%%%%%%%%%%%%%%%%%%%%%%%%%%%%%%%%%%%%%%%%%%%%%%%%%%%%%%%%%%%%
     %                                                                      %
     % You are using vdW-DF, which was implemented by the Thonhauser group. %
     % Please cite the following two papers that made this development      %
     % possible and the two reviews that describe the various versions:     %
     %                                                                      %
     %   T. Thonhauser et al., PRL 115, 136402 (2015).                      %
     %   T. Thonhauser et al., PRB 76, 125112 (2007).                       %
     %   K. Berland et al., Rep. Prog. Phys. 78, 066501 (2015).             %
     %   D.C. Langreth et al., J. Phys.: Condens. Matter 21, 084203 (2009). %
     %                                                                      %
     %                                                                      %
     % If you are calculating the stress with vdW-DF, please also cite:     %
     %                                                                      %
     %   R. Sabatini et al., J. Phys.: Condens. Matter 24, 424209 (2012).   %
     %                                                                      %
     %%%%%%%%%%%%%%%%%%%%%%%%%%%%%%%%%%%%%%%%%%%%%%%%%%%%%%%%%%%%%%%%%%%%%%%%

     Adding external electric field

     Computed dipole along edir(3) :
        Dipole               -0.0002 Ry au,         -0.0004 Debye
        Dipole field         -0.0000 Ry au,

        Potential amp.        0.0000 Ry
        Total length         44.8431 bohr

[...]

     Starting wfcs are  156 randomized atomic wfcs

     Self-consistent Calculation

     iteration #  1     ecut=    55.12 Ry     beta= 0.10
     Davidson diagonalization with overlap
     ethr =  1.00E-02,  avg # of iterations =  2.0

[...]

     total energy              =   -4467.35645982 Ry
     estimated scf accuracy    <       6.09076854 Ry

     total magnetization       =    18.43 Bohr mag/cell
     absolute magnetization    =    19.52 Bohr mag/cell

[...]

     iteration # 11     ecut=    55.12 Ry     beta= 0.10
     Davidson diagonalization with overlap
     c_bands:  1 eigenvalues not converged
     ethr =  2.08E-05,  avg # of iterations =  5.4

[...]

     iteration # 17     ecut=    55.12 Ry     beta= 0.10
     Davidson diagonalization with overlap
     c_bands:  1 eigenvalues not converged
     ethr =  1.08E-06,  avg # of iterations =  3.0

[...]

     total energy              =   -4468.62160665 Ry
     estimated scf accuracy    <       0.00001178 Ry

[...]

     iteration # 60     ecut=    55.12 Ry     beta= 0.10
     Davidson diagonalization with overlap
     ethr =  5.61E-09,  avg # of iterations =  5.6

[...]

     Adding external electric field

     Computed dipole along edir(3) :
        Dipole                0.0445 Ry au,          0.1130 Debye
        Dipole field          0.0001 Ry au,

        Potential amp.       -0.0114 Ry
        Total length         44.8431 bohr

     Magnetic moment per site:
     atom:    1    charge:    6.5235    magn:    1.3115    constr:    0.0000
     atom:    2    charge:    6.5234    magn:    1.3112    constr:    0.0000
     atom:    3    charge:   23.5933    magn:   -0.2872    constr:    0.0000
     atom:    4    charge:   23.5933    magn:   -0.2872    constr:    0.0000
     atom:    5    charge:    6.6112    magn:    1.2020    constr:    0.0000
     atom:    6    charge:    6.6112    magn:    1.2021    constr:    0.0000
     atom:    7    charge:   23.6605    magn:   -0.0821    constr:    0.0000
     atom:    8    charge:   23.6605    magn:   -0.0821    constr:    0.0000
     atom:    9    charge:    6.6042    magn:   -0.3674    constr:    0.0000
     atom:   10    charge:    6.6045    magn:   -0.3673    constr:    0.0000
     atom:   11    charge:   23.5821    magn:   -0.0087    constr:    0.0000
     atom:   12    charge:   23.5821    magn:   -0.0087    constr:    0.0000

     End of self-consistent calculation

     Number of k-points >= 100: set verbosity='high' to print the bands.

     the Fermi energy is     1.7320 ev

!    total energy              =   -4466.83613389 Ry
     estimated scf accuracy    <       0.00000941 Ry
     smearing contrib. (-TS)   =      -0.05699782 Ry
     internal energy E=F+TS    =   -4466.77913607 Ry

     The total energy is F=E-TS. E is the sum of the following terms:
     one-electron contribution =  -27759.94436786 Ry
     hartree contribution      =   14018.88627573 Ry
     xc contribution           =    -606.31300999 Ry
     ewald contribution        =    9880.59196037 Ry
     electric field correction =       0.00000567 Ry

     total magnetization       =     2.71 Bohr mag/cell
     absolute magnetization    =     7.77 Bohr mag/cell

     convergence has been achieved in  60 iterations

     Forces acting on atoms (cartesian axes, Ry/au):

     atom    1 type  1   force =     0.00014831    0.00010477    0.03588878
     atom    2 type  1   force =     0.00015163    0.00010749    0.03590994
     atom    3 type  2   force =     0.00073451    0.00050558   -0.00969573
     atom    4 type  2   force =     0.00072645    0.00052874   -0.00969509
     atom    5 type  1   force =    -0.00006864   -0.00004913   -0.00300294
     atom    6 type  1   force =    -0.00000345   -0.00000146   -0.00300867
     atom    7 type  2   force =    -0.00025372   -0.00061480   -0.02257493
     atom    8 type  2   force =    -0.00066705   -0.00003471   -0.02258487
     atom    9 type  1   force =    -0.00024981   -0.00016788   -0.00160298
     atom   10 type  1   force =    -0.00026408   -0.00019652   -0.00156060
     atom   11 type  2   force =    -0.00016143   -0.00003535    0.00096124
     atom   12 type  2   force =    -0.00009271   -0.00014672    0.00096585

     Total force =     0.061749     Total SCF correction =     0.015324
     SCF correction compared to forces is large: reduce conv_thr to get better values

     Writing output data file ./Fe2Ta2/Fe2Ta2_beef.save/

     General routines

     Parallel routines

   This run was terminated on:   9:58:22  29Jun2022

   JOB DONE.