     Program PWSCF v.6.6 starts on 29Jun2022 at  9:58:28

     R & G space division:  proc/nbgrp/npool/nimage =      37
     Fft bands division:     nmany     =       1
     Reading input from Fe2Tc2.in
Warning: card &CELL ignored
Warning: card / ignored

     Current dimensions of program PWSCF are:
     Max number of different atomic species (ntypx) = 10
     Max number of k-points (npk) =  40000
     Max angular momentum in pseudopotentials (lmaxx) =  3
     Presently stress not available with electric field and gates

     Message from routine cell_base_init:
     DEPRECATED: use true lattice parameter, not A to a.u. conversion factor
     file Fe.pbe-n-rrkjus_psl.1.0.0.UPF: wavefunction(s)  3D renormalized
     file Tc.pbe-spn-rrkjus_psl.0.3.0.UPF: wavefunction(s)  4S 4P renormalized

     IMPORTANT: XC functional enforced from input :
     Exchange-correlation= BEEF-VDW
                           (   1   4  43  14   2   0   0)
     Any further DFT definition will be discarded
     Please, verify this is what you really want

     Subspace diagonalization in iterative solution of the eigenvalue problem:
     a serial algorithm will be used

     Found symmetry operation: I + (  0.5000  0.0000  0.0000)
     This is a supercell, fractional translations are disabled

     bravais-lattice index     =            0
     lattice parameter (alat)  =       1.8897  a.u.
     unit-cell volume          =    3900.8610 (a.u.)^3
     number of atoms/cell      =           12
     number of atomic types    =            2
     number of electrons       =       138.00
     number of Kohn-Sham states=           83
     kinetic-energy cutoff     =      55.1240  Ry
     charge density cutoff     =     551.2396  Ry
     convergence threshold     =      1.0E-05
     mixing beta               =       0.1000
     number of iterations used =           10  plain     mixing
     Exchange-correlation= BEEF-VDW
                           (   1   4  43  14   2   0   0)

     celldm(1)=   1.889726  celldm(2)=   0.000000  celldm(3)=   0.000000
     celldm(4)=   0.000000  celldm(5)=   0.000000  celldm(6)=   0.000000

     crystal axes: (cart. coord. in units of alat)
               a(1) = (   5.235740   0.000000   0.000000 )
               a(2) = (  -2.617870   4.546958   0.000000 )
               a(3) = (   0.000000   0.000000  24.280909 )

     reciprocal axes: (cart. coord. in units 2 pi/alat)
               b(1) = (  0.190995  0.109964 -0.000000 )
               b(2) = (  0.000000  0.219927  0.000000 )
               b(3) = (  0.000000 -0.000000  0.041185 )

     PseudoPot. # 1 for Fe read from file:
     ../pseudo/Fe.pbe-n-rrkjus_psl.1.0.0.UPF
     MD5 check sum: e37eda618788e2416bb099156d582190
     Pseudo is Ultrasoft + core correction, Zval =  8.0
     Generated using "atomic" code by A. Dal Corso v.6.5
     Using radial grid of 1191 points,  6 beta functions with:
                l(1) =   0
                l(2) =   0
                l(3) =   1
                l(4) =   1
                l(5) =   2
                l(6) =   2
     Q(r) pseudized with 0 coefficients

     PseudoPot. # 2 for Tc read from file:
     ../pseudo/Tc.pbe-spn-rrkjus_psl.0.3.0.UPF
     MD5 check sum: 5f147c0bf103030af994b79b1f5562e4
     Pseudo is Ultrasoft + core correction, Zval = 15.0
     Generated using "atomic" code by A. Dal Corso v.6.2.2
     Using radial grid of 1231 points,  6 beta functions with:
                l(1) =   0
                l(2) =   0
                l(3) =   1
                l(4) =   1
                l(5) =   2
                l(6) =   2
     Q(r) pseudized with 0 coefficients

     atomic species   valence    mass     pseudopotential
        Fe             8.00    55.84500     Fe( 1.00)
        Tc            15.00    97.90721     Tc( 1.00)

     Starting magnetic structure
     atomic species   magnetization
        Fe           0.750
        Tc           0.000

     No symmetry found

   Cartesian axes

     site n.     atom                  positions (alat units)
         1           Fe  tau(   1) = (   0.0000000   0.0000000  10.0000000  )
         2           Fe  tau(   2) = (   2.6178698   0.0000000  10.0000000  )
         3           Tc  tau(   3) = (   1.3089349   2.2734788  10.0000000  )
         4           Tc  tau(   4) = (  -1.3089349   2.2734788  10.0000000  )
         5           Fe  tau(   5) = (   2.6178698   1.5072149  12.1404545  )
         6           Fe  tau(   6) = (   0.0000000   1.5072149  12.1404545  )
         7           Tc  tau(   7) = (  -1.3089349   3.7806937  12.1404545  )
         8           Tc  tau(   8) = (   1.3089349   3.7806937  12.1404545  )
         9           Fe  tau(   9) = (   0.0000007   3.0310805  14.2516085  )
        10           Fe  tau(  10) = (   2.6178693   3.0310496  14.2515430  )
        11           Tc  tau(  11) = (   3.9268223   0.7731226  14.2260342  )
        12           Tc  tau(  12) = (   1.3089168   0.7731227  14.2260338  )

     number of k points=    74  Fermi-Dirac smearing, width (Ry)=  0.0100
                       cart. coord. in units 2pi/alat
        k(    1) = (   0.0000000   0.0000000   0.0000000), wk =   0.0069444
        k(    2) = (   0.0000000   0.0183273   0.0000000), wk =   0.0138889
        k(    3) = (   0.0000000   0.0366545   0.0000000), wk =   0.0138889
        k(    4) = (   0.0000000   0.0549818   0.0000000), wk =   0.0138889
        k(    5) = (   0.0000000   0.0733091   0.0000000), wk =   0.0138889
        k(    6) = (   0.0000000   0.0916364   0.0000000), wk =   0.0138889
        k(    7) = (   0.0000000  -0.1099636   0.0000000), wk =   0.0069444
        k(    8) = (   0.0159162   0.0091636   0.0000000), wk =   0.0138889
        k(    9) = (   0.0159162   0.0274909   0.0000000), wk =   0.0138889
        k(   10) = (   0.0159162   0.0458182   0.0000000), wk =   0.0138889
        k(   11) = (   0.0159162   0.0641454   0.0000000), wk =   0.0138889
        k(   12) = (   0.0159162   0.0824727   0.0000000), wk =   0.0138889
        k(   13) = (   0.0159162   0.1008000   0.0000000), wk =   0.0138889
        k(   14) = (   0.0159162  -0.1008000   0.0000000), wk =   0.0138889
        k(   15) = (   0.0159162  -0.0824727   0.0000000), wk =   0.0138889
        k(   16) = (   0.0159162  -0.0641454   0.0000000), wk =   0.0138889
        k(   17) = (   0.0159162  -0.0458182   0.0000000), wk =   0.0138889
        k(   18) = (   0.0159162  -0.0274909   0.0000000), wk =   0.0138889
        k(   19) = (   0.0159162  -0.0091636   0.0000000), wk =   0.0138889
        k(   20) = (   0.0318325   0.0183273   0.0000000), wk =   0.0138889
        k(   21) = (   0.0318325   0.0366545   0.0000000), wk =   0.0138889
        k(   22) = (   0.0318325   0.0549818   0.0000000), wk =   0.0138889
        k(   23) = (   0.0318325   0.0733091   0.0000000), wk =   0.0138889
        k(   24) = (   0.0318325   0.0916364   0.0000000), wk =   0.0138889
        k(   25) = (   0.0318325   0.1099636   0.0000000), wk =   0.0138889
        k(   26) = (   0.0318325  -0.0916364   0.0000000), wk =   0.0138889
        k(   27) = (   0.0318325  -0.0733091   0.0000000), wk =   0.0138889
        k(   28) = (   0.0318325  -0.0549818   0.0000000), wk =   0.0138889
        k(   29) = (   0.0318325  -0.0366545   0.0000000), wk =   0.0138889
        k(   30) = (   0.0318325  -0.0183273   0.0000000), wk =   0.0138889
        k(   31) = (   0.0318325  -0.0000000   0.0000000), wk =   0.0138889
        k(   32) = (   0.0477487   0.0274909   0.0000000), wk =   0.0138889
        k(   33) = (   0.0477487   0.0458182   0.0000000), wk =   0.0138889
        k(   34) = (   0.0477487   0.0641454   0.0000000), wk =   0.0138889
        k(   35) = (   0.0477487   0.0824727   0.0000000), wk =   0.0138889
        k(   36) = (   0.0477487   0.1008000   0.0000000), wk =   0.0138889
        k(   37) = (   0.0477487   0.1191273   0.0000000), wk =   0.0138889
        k(   38) = (   0.0477487  -0.0824727   0.0000000), wk =   0.0138889
        k(   39) = (   0.0477487  -0.0641454   0.0000000), wk =   0.0138889
        k(   40) = (   0.0477487  -0.0458182   0.0000000), wk =   0.0138889
        k(   41) = (   0.0477487  -0.0274909   0.0000000), wk =   0.0138889
        k(   42) = (   0.0477487  -0.0091636   0.0000000), wk =   0.0138889
        k(   43) = (   0.0477487   0.0091636   0.0000000), wk =   0.0138889
        k(   44) = (   0.0636650   0.0366545   0.0000000), wk =   0.0138889
        k(   45) = (   0.0636650   0.0549818   0.0000000), wk =   0.0138889
        k(   46) = (   0.0636650   0.0733091   0.0000000), wk =   0.0138889
        k(   47) = (   0.0636650   0.0916364   0.0000000), wk =   0.0138889
        k(   48) = (   0.0636650   0.1099636   0.0000000), wk =   0.0138889
        k(   49) = (   0.0636650   0.1282909   0.0000000), wk =   0.0138889
        k(   50) = (   0.0636650  -0.0733091   0.0000000), wk =   0.0138889
        k(   51) = (   0.0636650  -0.0549818   0.0000000), wk =   0.0138889
        k(   52) = (   0.0636650  -0.0366545   0.0000000), wk =   0.0138889
        k(   53) = (   0.0636650  -0.0183273   0.0000000), wk =   0.0138889
        k(   54) = (   0.0636650   0.0000000   0.0000000), wk =   0.0138889
        k(   55) = (   0.0636650   0.0183273   0.0000000), wk =   0.0138889
        k(   56) = (   0.0795812   0.0458182   0.0000000), wk =   0.0138889
        k(   57) = (   0.0795812   0.0641454   0.0000000), wk =   0.0138889
        k(   58) = (   0.0795812   0.0824727   0.0000000), wk =   0.0138889
        k(   59) = (   0.0795812   0.1008000   0.0000000), wk =   0.0138889
        k(   60) = (   0.0795812   0.1191273   0.0000000), wk =   0.0138889
        k(   61) = (   0.0795812   0.1374545   0.0000000), wk =   0.0138889
        k(   62) = (   0.0795812  -0.0641454   0.0000000), wk =   0.0138889
        k(   63) = (   0.0795812  -0.0458182   0.0000000), wk =   0.0138889
        k(   64) = (   0.0795812  -0.0274909   0.0000000), wk =   0.0138889
        k(   65) = (   0.0795812  -0.0091636   0.0000000), wk =   0.0138889
        k(   66) = (   0.0795812   0.0091636   0.0000000), wk =   0.0138889
        k(   67) = (   0.0795812   0.0274909   0.0000000), wk =   0.0138889
        k(   68) = (  -0.0954975  -0.0549818   0.0000000), wk =   0.0069444
        k(   69) = (  -0.0954975  -0.0366545   0.0000000), wk =   0.0138889
        k(   70) = (  -0.0954975  -0.0183273   0.0000000), wk =   0.0138889
        k(   71) = (  -0.0954975   0.0000000   0.0000000), wk =   0.0138889
        k(   72) = (  -0.0954975   0.0183273   0.0000000), wk =   0.0138889
        k(   73) = (  -0.0954975   0.0366545   0.0000000), wk =   0.0138889
        k(   74) = (  -0.0954975  -0.1649454   0.0000000), wk =   0.0069444

     Initial potential from superposition of free atoms

     starting charge  137.99307, renormalised to  138.00000

     %%%%%%%%%%%%%%%%%%%%%%%%%%%%%%%%%%%%%%%%%%%%%%%%%%%%%%%%%%%%%%%%%%%%%%%%
     %                                                                      %
     % You are using vdW-DF, which was implemented by the Thonhauser group. %
     % Please cite the following two papers that made this development      %
     % possible and the two reviews that describe the various versions:     %
     %                                                                      %
     %   T. Thonhauser et al., PRL 115, 136402 (2015).                      %
     %   T. Thonhauser et al., PRB 76, 125112 (2007).                       %
     %   K. Berland et al., Rep. Prog. Phys. 78, 066501 (2015).             %
     %   D.C. Langreth et al., J. Phys.: Condens. Matter 21, 084203 (2009). %
     %                                                                      %
     %                                                                      %
     % If you are calculating the stress with vdW-DF, please also cite:     %
     %                                                                      %
     %   R. Sabatini et al., J. Phys.: Condens. Matter 24, 424209 (2012).   %
     %                                                                      %
     %%%%%%%%%%%%%%%%%%%%%%%%%%%%%%%%%%%%%%%%%%%%%%%%%%%%%%%%%%%%%%%%%%%%%%%%

     Adding external electric field

     Computed dipole along edir(3) :
        Dipole                0.0000 Ry au,          0.0000 Debye
        Dipole field          0.0000 Ry au,

        Potential amp.       -0.0000 Ry
        Total length         44.7372 bohr

[...]

     Starting wfcs are  132 randomized atomic wfcs

     Self-consistent Calculation

     iteration #  1     ecut=    55.12 Ry     beta= 0.10
     Davidson diagonalization with overlap
     ethr =  1.00E-02,  avg # of iterations =  2.0

[...]

     total energy              =   -1460.46047727 Ry
     estimated scf accuracy    <      10.14384672 Ry

     total magnetization       =    23.92 Bohr mag/cell
     absolute magnetization    =    25.40 Bohr mag/cell

[...]

     iteration #  9     ecut=    55.12 Ry     beta= 0.10
     Davidson diagonalization with overlap
     c_bands:  2 eigenvalues not converged
     ethr =  4.94E-05,  avg # of iterations =  7.2

[...]

     iteration # 34     ecut=    55.12 Ry     beta= 0.10
     Davidson diagonalization with overlap
     c_bands:  1 eigenvalues not converged
     ethr =  1.06E-08,  avg # of iterations =  7.7

[...]

     total energy              =   -1461.74362557 Ry
     estimated scf accuracy    <       0.00001151 Ry

[...]

     iteration # 36     ecut=    55.12 Ry     beta= 0.10
     Davidson diagonalization with overlap
     ethr =  7.98E-09,  avg # of iterations =  3.3

[...]

     Adding external electric field

     Computed dipole along edir(3) :
        Dipole                0.0101 Ry au,          0.0257 Debye
        Dipole field          0.0000 Ry au,

        Potential amp.       -0.0029 Ry
        Total length         44.7372 bohr

     Magnetic moment per site:
     atom:    1    charge:    6.6192    magn:    2.2721    constr:    0.0000
     atom:    2    charge:    6.6188    magn:    2.2723    constr:    0.0000
     atom:    3    charge:   12.4904    magn:   -0.2061    constr:    0.0000
     atom:    4    charge:   12.4904    magn:   -0.2061    constr:    0.0000
     atom:    5    charge:    6.7710    magn:    1.5830    constr:    0.0000
     atom:    6    charge:    6.7711    magn:    1.5830    constr:    0.0000
     atom:    7    charge:   12.5402    magn:   -0.3038    constr:    0.0000
     atom:    8    charge:   12.5402    magn:   -0.3038    constr:    0.0000
     atom:    9    charge:    6.6357    magn:    2.1721    constr:    0.0000
     atom:   10    charge:    6.6361    magn:    2.1716    constr:    0.0000
     atom:   11    charge:   12.5055    magn:   -0.2508    constr:    0.0000
     atom:   12    charge:   12.5055    magn:   -0.2508    constr:    0.0000

     End of self-consistent calculation

     Number of k-points >= 100: set verbosity='high' to print the bands.

     the Fermi energy is     1.1983 ev

!    total energy              =   -1461.52683009 Ry
     estimated scf accuracy    <       0.00000526 Ry
     smearing contrib. (-TS)   =      -0.07863397 Ry
     internal energy E=F+TS    =   -1461.44819612 Ry

     The total energy is F=E-TS. E is the sum of the following terms:
     one-electron contribution =  -12175.09551474 Ry
     hartree contribution      =    6129.41240248 Ry
     xc contribution           =    -428.97726886 Ry
     ewald contribution        =    5013.21218467 Ry
     electric field correction =       0.00000033 Ry

     total magnetization       =    10.26 Bohr mag/cell
     absolute magnetization    =    14.51 Bohr mag/cell

     convergence has been achieved in  36 iterations

     Forces acting on atoms (cartesian axes, Ry/au):

     atom    1 type  1   force =     0.00000020    0.00290988    0.00173035
     atom    2 type  1   force =    -0.00000026    0.00290638    0.00175444
     atom    3 type  2   force =    -0.00001114   -0.00364321    0.01086133
     atom    4 type  2   force =     0.00001209   -0.00364343    0.01086107
     atom    5 type  1   force =    -0.00000205    0.00235868   -0.00592200
     atom    6 type  1   force =     0.00000139    0.00242582   -0.00586252
     atom    7 type  2   force =    -0.00010416   -0.00308987   -0.00507880
     atom    8 type  2   force =     0.00010416   -0.00308961   -0.00508023
     atom    9 type  1   force =     0.00000277    0.00070825   -0.00109023
     atom   10 type  1   force =    -0.00000278    0.00069620   -0.00103979
     atom   11 type  2   force =     0.00011173    0.00073145   -0.00056640
     atom   12 type  2   force =    -0.00011195    0.00072945   -0.00056723

     Total force =     0.021025     Total SCF correction =     0.001942

     Writing output data file ./Fe2Tc2/Fe2Tc2_beef.save/

     General routines

     Parallel routines

   This run was terminated on:  12:16:10  29Jun2022

   JOB DONE.