     Program PWSCF v.6.6 starts on 28Jun2022 at 22: 4:55

     R & G space division:  proc/nbgrp/npool/nimage =      37
     Fft bands division:     nmany     =       1
     Reading input from Fe2Y2.in
Warning: card &CELL ignored
Warning: card / ignored

     Current dimensions of program PWSCF are:
     Max number of different atomic species (ntypx) = 10
     Max number of k-points (npk) =  40000
     Max angular momentum in pseudopotentials (lmaxx) =  3
     Presently stress not available with electric field and gates

     Message from routine cell_base_init:
     DEPRECATED: use true lattice parameter, not A to a.u. conversion factor
     file Fe.pbe-n-rrkjus_psl.1.0.0.UPF: wavefunction(s)  3D renormalized
     file Y.pbe-spn-rrkjus_psl.1.0.0.UPF: wavefunction(s)  4S renormalized

     IMPORTANT: XC functional enforced from input :
     Exchange-correlation= BEEF-VDW
                           (   1   4  43  14   2   0   0)
     Any further DFT definition will be discarded
     Please, verify this is what you really want

     Subspace diagonalization in iterative solution of the eigenvalue problem:
     a serial algorithm will be used

     bravais-lattice index     =            0
     lattice parameter (alat)  =       1.8897  a.u.
     unit-cell volume          =    5708.1532 (a.u.)^3
     number of atoms/cell      =           12
     number of atomic types    =            2
     number of electrons       =       114.00
     number of Kohn-Sham states=           68
     kinetic-energy cutoff     =      55.1240  Ry
     charge density cutoff     =     551.2396  Ry
     convergence threshold     =      1.0E-05
     mixing beta               =       0.1000
     number of iterations used =           10  plain     mixing
     Exchange-correlation= BEEF-VDW
                           (   1   4  43  14   2   0   0)

     celldm(1)=   1.889726  celldm(2)=   0.000000  celldm(3)=   0.000000
     celldm(4)=   0.000000  celldm(5)=   0.000000  celldm(6)=   0.000000

     crystal axes: (cart. coord. in units of alat)
               a(1) = (   5.993283   0.000000   0.000000 )
               a(2) = (   1.927566   5.674851   0.000000 )
               a(3) = (   0.000000   0.000000  24.870233 )

     reciprocal axes: (cart. coord. in units 2 pi/alat)
               b(1) = (  0.166853 -0.056675  0.000000 )
               b(2) = (  0.000000  0.176216  0.000000 )
               b(3) = (  0.000000  0.000000  0.040209 )

     PseudoPot. # 1 for Fe read from file:
     ../pseudo/Fe.pbe-n-rrkjus_psl.1.0.0.UPF
     MD5 check sum: e37eda618788e2416bb099156d582190
     Pseudo is Ultrasoft + core correction, Zval =  8.0
     Generated using "atomic" code by A. Dal Corso v.6.5
     Using radial grid of 1191 points,  6 beta functions with:
                l(1) =   0
                l(2) =   0
                l(3) =   1
                l(4) =   1
                l(5) =   2
                l(6) =   2
     Q(r) pseudized with 0 coefficients

     PseudoPot. # 2 for Y  read from file:
     ../pseudo/Y.pbe-spn-rrkjus_psl.1.0.0.UPF
     MD5 check sum: 5fe32e6a006803c2ec2edff47948a3c8
     Pseudo is Ultrasoft + core correction, Zval = 11.0
     Generated using "atomic" code by A. Dal Corso v.6.2.2
     Using radial grid of 1223 points,  6 beta functions with:
                l(1) =   0
                l(2) =   0
                l(3) =   1
                l(4) =   1
                l(5) =   2
                l(6) =   2
     Q(r) pseudized with 0 coefficients

     atomic species   valence    mass     pseudopotential
        Fe             8.00    55.84500     Fe( 1.00)
        Y             11.00    88.90584     Y ( 1.00)

     Starting magnetic structure
     atomic species   magnetization
        Fe           0.750
        Y            0.000

     No symmetry found

   Cartesian axes

     site n.     atom                  positions (alat units)
         1           Fe  tau(   1) = (   0.0000000   0.0000000  10.0000000  )
         2           Fe  tau(   2) = (   3.9604244   2.8374253  10.0000000  )
         3           Y   tau(   3) = (   2.9966414   0.0000000  10.0000000  )
         4           Y   tau(   4) = (   0.9637830   2.8374253  10.0000000  )
         5           Fe  tau(   5) = (   5.9932829   4.2938561  12.4351163  )
         6           Fe  tau(   6) = (   2.0328585   1.4564308  12.4351163  )
         7           Y   tau(   7) = (   2.9966414   4.2938561  12.4351163  )
         8           Y   tau(   8) = (   5.0294999   1.4564308  12.4351163  )
         9           Fe  tau(   9) = (   4.0647600   2.9122023  14.6197058  )
        10           Fe  tau(  10) = (   0.1046495   0.0749495  14.6195862  )
        11           Y   tau(  11) = (   1.0421701   2.8936499  14.8697765  )
        12           Y   tau(  12) = (   3.0751073   0.0561510  14.8697771  )

     number of k points=    74  Fermi-Dirac smearing, width (Ry)=  0.0100
                       cart. coord. in units 2pi/alat
        k(    1) = (   0.0000000   0.0000000   0.0000000), wk =   0.0069444
        k(    2) = (   0.0000000   0.0146847   0.0000000), wk =   0.0138889
        k(    3) = (   0.0000000   0.0293693   0.0000000), wk =   0.0138889
        k(    4) = (   0.0000000   0.0440540   0.0000000), wk =   0.0138889
        k(    5) = (   0.0000000   0.0587387   0.0000000), wk =   0.0138889
        k(    6) = (   0.0000000   0.0734234   0.0000000), wk =   0.0138889
        k(    7) = (   0.0000000  -0.0881080   0.0000000), wk =   0.0069444
        k(    8) = (   0.0139045  -0.0047229   0.0000000), wk =   0.0138889
        k(    9) = (   0.0139045   0.0099618   0.0000000), wk =   0.0138889
        k(   10) = (   0.0139045   0.0246464   0.0000000), wk =   0.0138889
        k(   11) = (   0.0139045   0.0393311   0.0000000), wk =   0.0138889
        k(   12) = (   0.0139045   0.0540158   0.0000000), wk =   0.0138889
        k(   13) = (   0.0139045   0.0687005   0.0000000), wk =   0.0138889
        k(   14) = (   0.0139045  -0.0928309   0.0000000), wk =   0.0138889
        k(   15) = (   0.0139045  -0.0781463   0.0000000), wk =   0.0138889
        k(   16) = (   0.0139045  -0.0634616   0.0000000), wk =   0.0138889
        k(   17) = (   0.0139045  -0.0487769   0.0000000), wk =   0.0138889
        k(   18) = (   0.0139045  -0.0340922   0.0000000), wk =   0.0138889
        k(   19) = (   0.0139045  -0.0194076   0.0000000), wk =   0.0138889
        k(   20) = (   0.0278089  -0.0094458   0.0000000), wk =   0.0138889
        k(   21) = (   0.0278089   0.0052389   0.0000000), wk =   0.0138889
        k(   22) = (   0.0278089   0.0199235   0.0000000), wk =   0.0138889
        k(   23) = (   0.0278089   0.0346082   0.0000000), wk =   0.0138889
        k(   24) = (   0.0278089   0.0492929   0.0000000), wk =   0.0138889
        k(   25) = (   0.0278089   0.0639776   0.0000000), wk =   0.0138889
        k(   26) = (   0.0278089  -0.0975538   0.0000000), wk =   0.0138889
        k(   27) = (   0.0278089  -0.0828692   0.0000000), wk =   0.0138889
        k(   28) = (   0.0278089  -0.0681845   0.0000000), wk =   0.0138889
        k(   29) = (   0.0278089  -0.0534998   0.0000000), wk =   0.0138889
        k(   30) = (   0.0278089  -0.0388151   0.0000000), wk =   0.0138889
        k(   31) = (   0.0278089  -0.0241305   0.0000000), wk =   0.0138889
        k(   32) = (   0.0417134  -0.0141687   0.0000000), wk =   0.0138889
        k(   33) = (   0.0417134   0.0005160   0.0000000), wk =   0.0138889
        k(   34) = (   0.0417134   0.0152006   0.0000000), wk =   0.0138889
        k(   35) = (   0.0417134   0.0298853   0.0000000), wk =   0.0138889
        k(   36) = (   0.0417134   0.0445700   0.0000000), wk =   0.0138889
        k(   37) = (   0.0417134   0.0592547   0.0000000), wk =   0.0138889
        k(   38) = (   0.0417134  -0.1022767   0.0000000), wk =   0.0138889
        k(   39) = (   0.0417134  -0.0875921   0.0000000), wk =   0.0138889
        k(   40) = (   0.0417134  -0.0729074   0.0000000), wk =   0.0138889
        k(   41) = (   0.0417134  -0.0582227   0.0000000), wk =   0.0138889
        k(   42) = (   0.0417134  -0.0435380   0.0000000), wk =   0.0138889
        k(   43) = (   0.0417134  -0.0288534   0.0000000), wk =   0.0138889
        k(   44) = (   0.0556178  -0.0188916   0.0000000), wk =   0.0138889
        k(   45) = (   0.0556178  -0.0042069   0.0000000), wk =   0.0138889
        k(   46) = (   0.0556178   0.0104777   0.0000000), wk =   0.0138889
        k(   47) = (   0.0556178   0.0251624   0.0000000), wk =   0.0138889
        k(   48) = (   0.0556178   0.0398471   0.0000000), wk =   0.0138889
        k(   49) = (   0.0556178   0.0545318   0.0000000), wk =   0.0138889
        k(   50) = (   0.0556178  -0.1069996   0.0000000), wk =   0.0138889
        k(   51) = (   0.0556178  -0.0923150   0.0000000), wk =   0.0138889
        k(   52) = (   0.0556178  -0.0776303   0.0000000), wk =   0.0138889
        k(   53) = (   0.0556178  -0.0629456   0.0000000), wk =   0.0138889
        k(   54) = (   0.0556178  -0.0482609   0.0000000), wk =   0.0138889
        k(   55) = (   0.0556178  -0.0335763   0.0000000), wk =   0.0138889
        k(   56) = (   0.0695223  -0.0236145   0.0000000), wk =   0.0138889
        k(   57) = (   0.0695223  -0.0089298   0.0000000), wk =   0.0138889
        k(   58) = (   0.0695223   0.0057548   0.0000000), wk =   0.0138889
        k(   59) = (   0.0695223   0.0204395   0.0000000), wk =   0.0138889
        k(   60) = (   0.0695223   0.0351242   0.0000000), wk =   0.0138889
        k(   61) = (   0.0695223   0.0498089   0.0000000), wk =   0.0138889
        k(   62) = (   0.0695223  -0.1117225   0.0000000), wk =   0.0138889
        k(   63) = (   0.0695223  -0.0970379   0.0000000), wk =   0.0138889
        k(   64) = (   0.0695223  -0.0823532   0.0000000), wk =   0.0138889
        k(   65) = (   0.0695223  -0.0676685   0.0000000), wk =   0.0138889
        k(   66) = (   0.0695223  -0.0529838   0.0000000), wk =   0.0138889
        k(   67) = (   0.0695223  -0.0382992   0.0000000), wk =   0.0138889
        k(   68) = (  -0.0834267   0.0283374   0.0000000), wk =   0.0069444
        k(   69) = (  -0.0834267   0.0430221   0.0000000), wk =   0.0138889
        k(   70) = (  -0.0834267   0.0577067   0.0000000), wk =   0.0138889
        k(   71) = (  -0.0834267   0.0723914   0.0000000), wk =   0.0138889
        k(   72) = (  -0.0834267   0.0870761   0.0000000), wk =   0.0138889
        k(   73) = (  -0.0834267   0.1017608   0.0000000), wk =   0.0138889
        k(   74) = (  -0.0834267  -0.0597706   0.0000000), wk =   0.0069444

     Initial potential from superposition of free atoms

     starting charge  113.97235, renormalised to  114.00000

     %%%%%%%%%%%%%%%%%%%%%%%%%%%%%%%%%%%%%%%%%%%%%%%%%%%%%%%%%%%%%%%%%%%%%%%%
     %                                                                      %
     % You are using vdW-DF, which was implemented by the Thonhauser group. %
     % Please cite the following two papers that made this development      %
     % possible and the two reviews that describe the various versions:     %
     %                                                                      %
     %   T. Thonhauser et al., PRL 115, 136402 (2015).                      %
     %   T. Thonhauser et al., PRB 76, 125112 (2007).                       %
     %   K. Berland et al., Rep. Prog. Phys. 78, 066501 (2015).             %
     %   D.C. Langreth et al., J. Phys.: Condens. Matter 21, 084203 (2009). %
     %                                                                      %
     %                                                                      %
     % If you are calculating the stress with vdW-DF, please also cite:     %
     %                                                                      %
     %   R. Sabatini et al., J. Phys.: Condens. Matter 24, 424209 (2012).   %
     %                                                                      %
     %%%%%%%%%%%%%%%%%%%%%%%%%%%%%%%%%%%%%%%%%%%%%%%%%%%%%%%%%%%%%%%%%%%%%%%%

     Adding external electric field

     Computed dipole along edir(3) :
        Dipole                0.0013 Ry au,          0.0034 Debye
        Dipole field          0.0000 Ry au,

        Potential amp.       -0.0003 Ry
        Total length         45.8230 bohr

[...]

     Starting wfcs are  132 randomized atomic wfcs

     Self-consistent Calculation

     iteration #  1     ecut=    55.12 Ry     beta= 0.10
     Davidson diagonalization with overlap
     ethr =  1.00E-02,  avg # of iterations =  2.0

[...]

     total energy              =    -878.61531409 Ry
     estimated scf accuracy    <       7.00123174 Ry

     total magnetization       =    19.00 Bohr mag/cell
     absolute magnetization    =    20.48 Bohr mag/cell

[...]

     iteration # 11     ecut=    55.12 Ry     beta= 0.10
     Davidson diagonalization with overlap
     c_bands:  1 eigenvalues not converged
     c_bands:  1 eigenvalues not converged
     ethr =  8.48E-05,  avg # of iterations =  7.5

[...]

     iteration # 28     ecut=    55.12 Ry     beta= 0.10
     Davidson diagonalization with overlap
     c_bands:  1 eigenvalues not converged
     c_bands:  1 eigenvalues not converged
     ethr =  4.61E-08,  avg # of iterations =  6.9

[...]

     total energy              =    -881.98622669 Ry
     estimated scf accuracy    <       0.00001189 Ry

[...]

     iteration # 32     ecut=    55.12 Ry     beta= 0.10
     Davidson diagonalization with overlap
     ethr =  1.04E-08,  avg # of iterations =  6.4

[...]

     Adding external electric field

     Computed dipole along edir(3) :
        Dipole                0.0369 Ry au,          0.0937 Debye
        Dipole field          0.0001 Ry au,

        Potential amp.       -0.0074 Ry
        Total length         45.8230 bohr

     Magnetic moment per site:
     atom:    1    charge:    6.8488    magn:    2.6122    constr:    0.0000
     atom:    2    charge:    6.8487    magn:    2.6121    constr:    0.0000
     atom:    3    charge:    8.4696    magn:   -0.2955    constr:    0.0000
     atom:    4    charge:    8.4696    magn:   -0.2955    constr:    0.0000
     atom:    5    charge:    6.9200    magn:    2.3464    constr:    0.0000
     atom:    6    charge:    6.9200    magn:    2.3467    constr:    0.0000
     atom:    7    charge:    8.5431    magn:   -0.2602    constr:    0.0000
     atom:    8    charge:    8.5431    magn:   -0.2602    constr:    0.0000
     atom:    9    charge:    6.9138    magn:    2.4667    constr:    0.0000
     atom:   10    charge:    6.9140    magn:    2.4666    constr:    0.0000
     atom:   11    charge:    8.4665    magn:   -0.2801    constr:    0.0000
     atom:   12    charge:    8.4665    magn:   -0.2801    constr:    0.0000

     End of self-consistent calculation

     Number of k-points >= 100: set verbosity='high' to print the bands.

     the Fermi energy is     0.6797 ev

!    total energy              =    -881.18834143 Ry
     estimated scf accuracy    <       0.00000750 Ry
     smearing contrib. (-TS)   =      -0.09989392 Ry
     internal energy E=F+TS    =    -881.08844750 Ry

     The total energy is F=E-TS. E is the sum of the following terms:
     one-electron contribution =   -5591.17610156 Ry
     hartree contribution      =    2835.45127911 Ry
     xc contribution           =    -305.94731493 Ry
     ewald contribution        =    2180.58368689 Ry
     electric field correction =       0.00000299 Ry

     total magnetization       =    10.47 Bohr mag/cell
     absolute magnetization    =    19.67 Bohr mag/cell

     convergence has been achieved in  32 iterations

     Forces acting on atoms (cartesian axes, Ry/au):

     atom    1 type  1   force =    -0.00087075   -0.00062566    0.01576766
     atom    2 type  1   force =    -0.00087493   -0.00062730    0.01577781
     atom    3 type  2   force =     0.00349813    0.00251120   -0.00232803
     atom    4 type  2   force =     0.00350112    0.00250289   -0.00232781
     atom    5 type  1   force =    -0.00109013   -0.00077148    0.00701976
     atom    6 type  1   force =    -0.00107777   -0.00078226    0.00703966
     atom    7 type  2   force =    -0.00164639   -0.00117004   -0.01903216
     atom    8 type  2   force =    -0.00163250   -0.00117670   -0.01903066
     atom    9 type  1   force =     0.00015612    0.00011132    0.00006014
     atom   10 type  1   force =     0.00012771    0.00009156    0.00007513
     atom   11 type  2   force =    -0.00004090   -0.00003861   -0.00151261
     atom   12 type  2   force =    -0.00004972   -0.00002491   -0.00150889

     Total force =     0.037247     Total SCF correction =     0.006603
     SCF correction compared to forces is large: reduce conv_thr to get better values

     Writing output data file ./Fe2Y2/Fe2Y2_beef.save/

     General routines

     Parallel routines

   This run was terminated on:   0:32:49  29Jun2022

   JOB DONE.