     Program PWSCF v.6.6 starts on 24Jun2022 at 13: 6:24

     R & G space division:  proc/nbgrp/npool/nimage =      37
     Fft bands division:     nmany     =       1
     Reading input from Hf2Hg2.in
Warning: card &CELL ignored
Warning: card / ignored

     Current dimensions of program PWSCF are:
     Max number of different atomic species (ntypx) = 10
     Max number of k-points (npk) =  40000
     Max angular momentum in pseudopotentials (lmaxx) =  3
     Presently stress not available with electric field and gates

     Message from routine cell_base_init:
     DEPRECATED: use true lattice parameter, not A to a.u. conversion factor
     file Hg.pbe-n-rrkjus_psl.1.0.0.UPF: wavefunction(s)  6S renormalized

     IMPORTANT: XC functional enforced from input :
     Exchange-correlation= BEEF-VDW
                           (   1   4  43  14   2   0   0)
     Any further DFT definition will be discarded
     Please, verify this is what you really want

     Subspace diagonalization in iterative solution of the eigenvalue problem:
     a serial algorithm will be used

     Found symmetry operation: I + (  0.5000 -0.5000  0.0000)
     This is a supercell, fractional translations are disabled

     bravais-lattice index     =            0
     lattice parameter (alat)  =       1.8897  a.u.
     unit-cell volume          =    5697.0984 (a.u.)^3
     number of atoms/cell      =           12
     number of atomic types    =            2
     number of electrons       =       144.00
     number of Kohn-Sham states=           86
     kinetic-energy cutoff     =      55.1240  Ry
     charge density cutoff     =     551.2396  Ry
     convergence threshold     =      1.0E-05
     mixing beta               =       0.1000
     number of iterations used =           10  plain     mixing
     Exchange-correlation= BEEF-VDW
                           (   1   4  43  14   2   0   0)

     celldm(1)=   1.889726  celldm(2)=   0.000000  celldm(3)=   0.000000
     celldm(4)=   0.000000  celldm(5)=   0.000000  celldm(6)=   0.000000

     crystal axes: (cart. coord. in units of alat)
               a(1) = (   6.226333   0.000000   0.000000 )
               a(2) = (   3.092151   5.404241   0.000000 )
               a(3) = (   0.000000   0.000000  25.089393 )

     reciprocal axes: (cart. coord. in units 2 pi/alat)
               b(1) = (  0.160608 -0.091895  0.000000 )
               b(2) = (  0.000000  0.185040  0.000000 )
               b(3) = (  0.000000  0.000000  0.039857 )

     PseudoPot. # 1 for Hf read from file:
     ../pseudo/Hf.pbe-spn-rrkjus_psl.1.0.0.UPF
     MD5 check sum: 9605440c6f839e558204c6a924125fd0
     Pseudo is Ultrasoft + core correction, Zval = 12.0
     Generated using "atomic" code by A. Dal Corso v.6.2.2
     Using radial grid of 1271 points,  6 beta functions with:
                l(1) =   0
                l(2) =   0
                l(3) =   1
                l(4) =   1
                l(5) =   2
                l(6) =   2
     Q(r) pseudized with 0 coefficients

     PseudoPot. # 2 for Hg read from file:
     ../pseudo/Hg.pbe-n-rrkjus_psl.1.0.0.UPF
     MD5 check sum: 7519ac2e5b9cac440d3cfd4127d6ea3c
     Pseudo is Ultrasoft + core correction, Zval = 12.0
     Generated using "atomic" code by A. Dal Corso v.6.3
     Using radial grid of 1279 points,  6 beta functions with:
                l(1) =   0
                l(2) =   0
                l(3) =   1
                l(4) =   1
                l(5) =   2
                l(6) =   2
     Q(r) pseudized with 0 coefficients

     atomic species   valence    mass     pseudopotential
        Hf            12.00   178.49000     Hf( 1.00)
        Hg            12.00   200.59200     Hg( 1.00)

     No symmetry found

   Cartesian axes

     site n.     atom                  positions (alat units)
         1           Hf  tau(   1) = (   0.0000000   0.0000000  10.0000000  )
         2           Hf  tau(   2) = (   4.6592419   2.7021207  10.0000000  )
         3           Hg  tau(   3) = (   3.1131665   0.0000000  10.0000000  )
         4           Hg  tau(   4) = (   1.5460754   2.7021207  10.0000000  )
         5           Hf  tau(   5) = (   6.2263330   3.6109530  12.5446965  )
         6           Hf  tau(   6) = (   1.5670911   0.9088323  12.5446965  )
         7           Hg  tau(   7) = (   3.1131665   3.6109530  12.5446965  )
         8           Hg  tau(   8) = (   4.6802576   0.9088323  12.5446965  )
         9           Hf  tau(   9) = (   3.1393268   1.8206523  14.9923247  )
        10           Hf  tau(  10) = (   7.7985380   4.5227495  14.9923217  )
        11           Hg  tau(  11) = (   6.2586032   1.8241956  15.2785824  )
        12           Hg  tau(  12) = (   4.6915222   4.5263116  15.2785701  )

     number of k points=    74  Fermi-Dirac smearing, width (Ry)=  0.0100
                       cart. coord. in units 2pi/alat
        k(    1) = (   0.0000000   0.0000000   0.0000000), wk =   0.0138889
        k(    2) = (   0.0000000   0.0154200   0.0000000), wk =   0.0277778
        k(    3) = (   0.0000000   0.0308400   0.0000000), wk =   0.0277778
        k(    4) = (   0.0000000   0.0462600   0.0000000), wk =   0.0277778
        k(    5) = (   0.0000000   0.0616800   0.0000000), wk =   0.0277778
        k(    6) = (   0.0000000   0.0770999   0.0000000), wk =   0.0277778
        k(    7) = (   0.0000000  -0.0925199   0.0000000), wk =   0.0138889
        k(    8) = (   0.0133840  -0.0076579   0.0000000), wk =   0.0277778
        k(    9) = (   0.0133840   0.0077620   0.0000000), wk =   0.0277778
        k(   10) = (   0.0133840   0.0231820   0.0000000), wk =   0.0277778
        k(   11) = (   0.0133840   0.0386020   0.0000000), wk =   0.0277778
        k(   12) = (   0.0133840   0.0540220   0.0000000), wk =   0.0277778
        k(   13) = (   0.0133840   0.0694420   0.0000000), wk =   0.0277778
        k(   14) = (   0.0133840  -0.1001779   0.0000000), wk =   0.0277778
        k(   15) = (   0.0133840  -0.0847579   0.0000000), wk =   0.0277778
        k(   16) = (   0.0133840  -0.0693379   0.0000000), wk =   0.0277778
        k(   17) = (   0.0133840  -0.0539179   0.0000000), wk =   0.0277778
        k(   18) = (   0.0133840  -0.0384979   0.0000000), wk =   0.0277778
        k(   19) = (   0.0133840  -0.0230779   0.0000000), wk =   0.0277778
        k(   20) = (   0.0267680  -0.0153159   0.0000000), wk =   0.0277778
        k(   21) = (   0.0267680   0.0001041   0.0000000), wk =   0.0277778
        k(   22) = (   0.0267680   0.0155241   0.0000000), wk =   0.0277778
        k(   23) = (   0.0267680   0.0309441   0.0000000), wk =   0.0277778
        k(   24) = (   0.0267680   0.0463641   0.0000000), wk =   0.0277778
        k(   25) = (   0.0267680   0.0617840   0.0000000), wk =   0.0277778
        k(   26) = (   0.0267680  -0.1078358   0.0000000), wk =   0.0277778
        k(   27) = (   0.0267680  -0.0924158   0.0000000), wk =   0.0277778
        k(   28) = (   0.0267680  -0.0769958   0.0000000), wk =   0.0277778
        k(   29) = (   0.0267680  -0.0615759   0.0000000), wk =   0.0277778
        k(   30) = (   0.0267680  -0.0461559   0.0000000), wk =   0.0277778
        k(   31) = (   0.0267680  -0.0307359   0.0000000), wk =   0.0277778
        k(   32) = (   0.0401520  -0.0229738   0.0000000), wk =   0.0277778
        k(   33) = (   0.0401520  -0.0075539   0.0000000), wk =   0.0277778
        k(   34) = (   0.0401520   0.0078661   0.0000000), wk =   0.0277778
        k(   35) = (   0.0401520   0.0232861   0.0000000), wk =   0.0277778
        k(   36) = (   0.0401520   0.0387061   0.0000000), wk =   0.0277778
        k(   37) = (   0.0401520   0.0541261   0.0000000), wk =   0.0277778
        k(   38) = (   0.0401520  -0.1154938   0.0000000), wk =   0.0277778
        k(   39) = (   0.0401520  -0.1000738   0.0000000), wk =   0.0277778
        k(   40) = (   0.0401520  -0.0846538   0.0000000), wk =   0.0277778
        k(   41) = (   0.0401520  -0.0692338   0.0000000), wk =   0.0277778
        k(   42) = (   0.0401520  -0.0538138   0.0000000), wk =   0.0277778
        k(   43) = (   0.0401520  -0.0383938   0.0000000), wk =   0.0277778
        k(   44) = (   0.0535361  -0.0306318   0.0000000), wk =   0.0277778
        k(   45) = (   0.0535361  -0.0152118   0.0000000), wk =   0.0277778
        k(   46) = (   0.0535361   0.0002082   0.0000000), wk =   0.0277778
        k(   47) = (   0.0535361   0.0156282   0.0000000), wk =   0.0277778
        k(   48) = (   0.0535361   0.0310482   0.0000000), wk =   0.0277778
        k(   49) = (   0.0535361   0.0464682   0.0000000), wk =   0.0277778
        k(   50) = (   0.0535361  -0.1231517   0.0000000), wk =   0.0277778
        k(   51) = (   0.0535361  -0.1077317   0.0000000), wk =   0.0277778
        k(   52) = (   0.0535361  -0.0923117   0.0000000), wk =   0.0277778
        k(   53) = (   0.0535361  -0.0768918   0.0000000), wk =   0.0277778
        k(   54) = (   0.0535361  -0.0614718   0.0000000), wk =   0.0277778
        k(   55) = (   0.0535361  -0.0460518   0.0000000), wk =   0.0277778
        k(   56) = (   0.0669201  -0.0382897   0.0000000), wk =   0.0277778
        k(   57) = (   0.0669201  -0.0228698   0.0000000), wk =   0.0277778
        k(   58) = (   0.0669201  -0.0074498   0.0000000), wk =   0.0277778
        k(   59) = (   0.0669201   0.0079702   0.0000000), wk =   0.0277778
        k(   60) = (   0.0669201   0.0233902   0.0000000), wk =   0.0277778
        k(   61) = (   0.0669201   0.0388102   0.0000000), wk =   0.0277778
        k(   62) = (   0.0669201  -0.1308097   0.0000000), wk =   0.0277778
        k(   63) = (   0.0669201  -0.1153897   0.0000000), wk =   0.0277778
        k(   64) = (   0.0669201  -0.0999697   0.0000000), wk =   0.0277778
        k(   65) = (   0.0669201  -0.0845497   0.0000000), wk =   0.0277778
        k(   66) = (   0.0669201  -0.0691297   0.0000000), wk =   0.0277778
        k(   67) = (   0.0669201  -0.0537097   0.0000000), wk =   0.0277778
        k(   68) = (  -0.0803041   0.0459477   0.0000000), wk =   0.0138889
        k(   69) = (  -0.0803041   0.0613677   0.0000000), wk =   0.0277778
        k(   70) = (  -0.0803041   0.0767877   0.0000000), wk =   0.0277778
        k(   71) = (  -0.0803041   0.0922077   0.0000000), wk =   0.0277778
        k(   72) = (  -0.0803041   0.1076276   0.0000000), wk =   0.0277778
        k(   73) = (  -0.0803041   0.1230476   0.0000000), wk =   0.0277778
        k(   74) = (  -0.0803041  -0.0465722   0.0000000), wk =   0.0138889

     Initial potential from superposition of free atoms

     starting charge  143.98787, renormalised to  144.00000

     negative rho (up, down):  1.269E-03 0.000E+00

     %%%%%%%%%%%%%%%%%%%%%%%%%%%%%%%%%%%%%%%%%%%%%%%%%%%%%%%%%%%%%%%%%%%%%%%%
     %                                                                      %
     % You are using vdW-DF, which was implemented by the Thonhauser group. %
     % Please cite the following two papers that made this development      %
     % possible and the two reviews that describe the various versions:     %
     %                                                                      %
     %   T. Thonhauser et al., PRL 115, 136402 (2015).                      %
     %   T. Thonhauser et al., PRB 76, 125112 (2007).                       %
     %   K. Berland et al., Rep. Prog. Phys. 78, 066501 (2015).             %
     %   D.C. Langreth et al., J. Phys.: Condens. Matter 21, 084203 (2009). %
     %                                                                      %
     %                                                                      %
     % If you are calculating the stress with vdW-DF, please also cite:     %
     %                                                                      %
     %   R. Sabatini et al., J. Phys.: Condens. Matter 24, 424209 (2012).   %
     %                                                                      %
     %%%%%%%%%%%%%%%%%%%%%%%%%%%%%%%%%%%%%%%%%%%%%%%%%%%%%%%%%%%%%%%%%%%%%%%%

     Adding external electric field

     Computed dipole along edir(3) :
        Dipole               -0.0010 Ry au,         -0.0026 Debye
        Dipole field         -0.0000 Ry au,

        Potential amp.        0.0002 Ry
        Total length         46.2268 bohr

     Starting wfcs are  114 randomized atomic wfcs

     Self-consistent Calculation

     iteration #  1     ecut=    55.12 Ry     beta= 0.10
     Davidson diagonalization with overlap
     ethr =  1.00E-02,  avg # of iterations =  2.0

     Threshold (ethr) on eigenvalues was too large:
     Diagonalizing with lowered threshold

     Davidson diagonalization with overlap
     ethr =  8.57E-04,  avg # of iterations =  3.8

[...]

     total energy              =   -1363.54323751 Ry
     estimated scf accuracy    <       1.36561655 Ry

[...]

     iteration #  6     ecut=    55.12 Ry     beta= 0.10
     Davidson diagonalization with overlap
     c_bands:  2 eigenvalues not converged
     c_bands:  1 eigenvalues not converged
     c_bands:  2 eigenvalues not converged
     ethr =  5.10E-05,  avg # of iterations =  6.9

[...]

     iteration # 14     ecut=    55.12 Ry     beta= 0.10
     Davidson diagonalization with overlap
     c_bands:  1 eigenvalues not converged
     ethr =  6.55E-08,  avg # of iterations =  5.8

[...]

     total energy              =   -1363.60916185 Ry
     estimated scf accuracy    <       0.00002650 Ry

     iteration # 15     ecut=    55.12 Ry     beta= 0.10
     Davidson diagonalization with overlap
     ethr =  1.84E-08,  avg # of iterations =  3.0

[...]

     Adding external electric field

     Computed dipole along edir(3) :
        Dipole               -0.0451 Ry au,         -0.1146 Debye
        Dipole field         -0.0001 Ry au,

        Potential amp.        0.0092 Ry
        Total length         46.2268 bohr

     End of self-consistent calculation

          k = 0.0000 0.0000 0.0000 ( 39241 PWs)   bands (ev):

   -61.8006 -61.7783 -61.7149 -61.6925 -61.3279 -61.3049 -30.4032 -30.3559
   -30.3254 -30.2953 -30.2775 -30.2642 -30.2377 -30.2155 -30.1762 -30.1278
   -29.9816 -29.9543 -29.9307 -29.8518 -29.7915 -29.6457 -29.6000 -29.4996
    -7.1720  -6.7735  -6.7610  -6.7093  -6.6679  -6.5799  -6.5262  -6.4390
    -6.4260  -6.3559  -6.3270  -6.3195  -6.1362  -6.0589  -5.9821  -5.9031
    -5.8774  -5.8116  -5.7877  -5.7719  -5.7516  -5.7147  -5.6679  -5.6219
    -5.5650  -5.4982  -5.4464  -5.3659  -5.2601  -5.2295  -5.0105  -4.9196
    -3.4046  -2.4883  -1.7480  -1.3966  -0.7110  -0.4578  -0.3642   0.1718
     0.1774   0.3924   0.6509   0.8141   1.1326   1.2506   1.3499   1.4366
     1.5548   1.7065   1.7841   1.9415   1.9778   2.2992   2.8146   3.0895
     3.0947   3.1525   3.3519   3.6283   3.7008   4.0442

[...]

          k = 0.0669-0.0537 0.0000 ( 39391 PWs)   bands (ev):

[...]

          k =-0.0803 0.0459 0.0000 ( 39414 PWs)   bands (ev):

[...]

          k =-0.0803-0.0466 0.0000 ( 39390 PWs)   bands (ev):

   -61.8006 -61.7783 -61.7149 -61.6925 -61.3278 -61.3049 -30.4048 -30.3562
   -30.3269 -30.2968 -30.2775 -30.2677 -30.2391 -30.2162 -30.1786 -30.1283
   -29.9827 -29.9556 -29.9326 -29.8521 -29.7918 -29.6465 -29.6006 -29.5000
    -6.8831  -6.6320  -6.6297  -6.4996  -6.4867  -6.4801  -6.3313  -6.2948
    -6.2570  -6.2139  -6.1369  -6.1005  -5.9371  -5.8937  -5.8783  -5.8099
    -5.7723  -5.7686  -5.7629  -5.7211  -5.6757  -5.6609  -5.6168  -5.5138
    -5.4558  -5.3999  -5.3713  -5.2699  -5.2283  -5.2161  -4.9489  -4.9146
    -3.4748  -3.2161  -2.2114  -1.9839  -1.6490  -1.5334  -1.2812  -0.6371
    -0.4050  -0.2858  -0.0979   0.0731   0.3823   0.3938   0.6116   0.8949
     1.0714   1.1094   1.3560   1.4461   2.2802   2.4211   2.8262   2.8376
     3.2729   3.3384   3.4437   3.5352   3.8213   3.8440

     the Fermi energy is     1.4275 ev

!    total energy              =   -1363.60916574 Ry
     estimated scf accuracy    <       0.00000349 Ry
     smearing contrib. (-TS)   =      -0.06437119 Ry
     internal energy E=F+TS    =   -1363.54479455 Ry

     The total energy is F=E-TS. E is the sum of the following terms:
     one-electron contribution =   -8619.03003550 Ry
     hartree contribution      =    4344.03397988 Ry
     xc contribution           =    -457.06062774 Ry
     ewald contribution        =    3368.51188432 Ry
     electric field correction =       0.00000448 Ry

     convergence has been achieved in  15 iterations

     negative rho (up, down):  9.836E-04 0.000E+00

     Forces acting on atoms (cartesian axes, Ry/au):

     atom    1 type  1   force =     0.00267913    0.00155502    0.01986924
     atom    2 type  1   force =     0.00267928    0.00155279    0.01987160
     atom    3 type  2   force =    -0.00174507   -0.00100181   -0.01658960
     atom    4 type  2   force =    -0.00172684   -0.00102201   -0.01658673
     atom    5 type  1   force =    -0.00807739   -0.00468623   -0.00030590
     atom    6 type  1   force =    -0.00807907   -0.00468144   -0.00030096
     atom    7 type  2   force =     0.00685986    0.00398677   -0.00127645
     atom    8 type  2   force =     0.00686375    0.00397693   -0.00128426
     atom    9 type  1   force =     0.00001803    0.00001174   -0.00156231
     atom   10 type  1   force =     0.00002232    0.00001180   -0.00156168
     atom   11 type  2   force =     0.00026196    0.00014340   -0.00013133
     atom   12 type  2   force =     0.00024403    0.00015305   -0.00014162

     Total force =     0.040940     Total SCF correction =     0.006675
     SCF correction compared to forces is large: reduce conv_thr to get better values

     Writing output data file ./Hf2Hg2/Hf2Hg2_beef.save/

     General routines

     Parallel routines

   This run was terminated on:  14: 3:55  24Jun2022

   JOB DONE.