     Program PWSCF v.6.6 starts on 24Jun2022 at 14: 3:58

     R & G space division:  proc/nbgrp/npool/nimage =      37
     Fft bands division:     nmany     =       1
     Reading input from Hf2Ir2.in
Warning: card &CELL ignored
Warning: card / ignored

     Current dimensions of program PWSCF are:
     Max number of different atomic species (ntypx) = 10
     Max number of k-points (npk) =  40000
     Max angular momentum in pseudopotentials (lmaxx) =  3
     Presently stress not available with electric field and gates

     Message from routine cell_base_init:
     DEPRECATED: use true lattice parameter, not A to a.u. conversion factor
     file Ir.pbe-n-rrkjus_psl.0.2.3.UPF: wavefunction(s)  5D renormalized

     IMPORTANT: XC functional enforced from input :
     Exchange-correlation= BEEF-VDW
                           (   1   4  43  14   2   0   0)
     Any further DFT definition will be discarded
     Please, verify this is what you really want

     Subspace diagonalization in iterative solution of the eigenvalue problem:
     a serial algorithm will be used

     Found symmetry operation: I + (  0.5000 -0.5000  0.0000)
     This is a supercell, fractional translations are disabled

     bravais-lattice index     =            0
     lattice parameter (alat)  =       1.8897  a.u.
     unit-cell volume          =    4954.9773 (a.u.)^3
     number of atoms/cell      =           12
     number of atomic types    =            2
     number of electrons       =       126.00
     number of Kohn-Sham states=           76
     kinetic-energy cutoff     =      55.1240  Ry
     charge density cutoff     =     551.2396  Ry
     convergence threshold     =      1.0E-05
     mixing beta               =       0.1000
     number of iterations used =           10  plain     mixing
     Exchange-correlation= BEEF-VDW
                           (   1   4  43  14   2   0   0)

     celldm(1)=   1.889726  celldm(2)=   0.000000  celldm(3)=   0.000000
     celldm(4)=   0.000000  celldm(5)=   0.000000  celldm(6)=   0.000000

     crystal axes: (cart. coord. in units of alat)
               a(1) = (   5.702311   0.000000   0.000000 )
               a(2) = (   2.321927   5.208167   0.000000 )
               a(3) = (   0.000000   0.000000  24.723466 )

     reciprocal axes: (cart. coord. in units 2 pi/alat)
               b(1) = (  0.175367 -0.078183  0.000000 )
               b(2) = (  0.000000  0.192006  0.000000 )
               b(3) = (  0.000000  0.000000  0.040447 )

     PseudoPot. # 1 for Hf read from file:
     ../pseudo/Hf.pbe-spn-rrkjus_psl.1.0.0.UPF
     MD5 check sum: 9605440c6f839e558204c6a924125fd0
     Pseudo is Ultrasoft + core correction, Zval = 12.0
     Generated using "atomic" code by A. Dal Corso v.6.2.2
     Using radial grid of 1271 points,  6 beta functions with:
                l(1) =   0
                l(2) =   0
                l(3) =   1
                l(4) =   1
                l(5) =   2
                l(6) =   2
     Q(r) pseudized with 0 coefficients

     PseudoPot. # 2 for Ir read from file:
     ../pseudo/Ir.pbe-n-rrkjus_psl.0.2.3.UPF
     MD5 check sum: a93e608e8ddc29ee62145620b5f41564
     Pseudo is Ultrasoft + core correction, Zval =  9.0
     Generated using "atomic" code by A. Dal Corso v.5.0.2 svn rev. 9415
     Using radial grid of 1277 points,  6 beta functions with:
                l(1) =   0
                l(2) =   0
                l(3) =   1
                l(4) =   1
                l(5) =   2
                l(6) =   2
     Q(r) pseudized with 0 coefficients

     atomic species   valence    mass     pseudopotential
        Hf            12.00   178.49000     Hf( 1.00)
        Ir             9.00   192.21700     Ir( 1.00)

     No symmetry found

   Cartesian axes

     site n.     atom                  positions (alat units)
         1           Hf  tau(   1) = (   0.0000000   0.0000000  10.0000000  )
         2           Hf  tau(   2) = (   4.0121187   2.6040836  10.0000000  )
         3           Ir  tau(   3) = (   2.8511554   0.0000000  10.0000000  )
         4           Ir  tau(   4) = (   1.1609633   2.6040836  10.0000000  )
         5           Hf  tau(   5) = (   5.7023109   3.7011104  12.3617332  )
         6           Hf  tau(   6) = (   1.6901922   1.0970268  12.3617332  )
         7           Ir  tau(   7) = (   2.8511554   3.7011104  12.3617332  )
         8           Ir  tau(   8) = (   4.5413476   1.0970268  12.3617332  )
         9           Hf  tau(   9) = (   3.6975521   2.3999099  14.7289022  )
        10           Hf  tau(  10) = (   7.7096700   5.0040015  14.7289021  )
        11           Ir  tau(  11) = (   6.5561963   2.4047697  14.5305372  )
        12           Ir  tau(  12) = (   4.8660059   5.0088602  14.5305366  )

     number of k points=    74  Fermi-Dirac smearing, width (Ry)=  0.0100
                       cart. coord. in units 2pi/alat
        k(    1) = (   0.0000000   0.0000000   0.0000000), wk =   0.0138889
        k(    2) = (   0.0000000   0.0160005   0.0000000), wk =   0.0277778
        k(    3) = (   0.0000000   0.0320010   0.0000000), wk =   0.0277778
        k(    4) = (   0.0000000   0.0480015   0.0000000), wk =   0.0277778
        k(    5) = (   0.0000000   0.0640020   0.0000000), wk =   0.0277778
        k(    6) = (   0.0000000   0.0800026   0.0000000), wk =   0.0277778
        k(    7) = (   0.0000000  -0.0960031   0.0000000), wk =   0.0138889
        k(    8) = (   0.0146140  -0.0065153   0.0000000), wk =   0.0277778
        k(    9) = (   0.0146140   0.0094853   0.0000000), wk =   0.0277778
        k(   10) = (   0.0146140   0.0254858   0.0000000), wk =   0.0277778
        k(   11) = (   0.0146140   0.0414863   0.0000000), wk =   0.0277778
        k(   12) = (   0.0146140   0.0574868   0.0000000), wk =   0.0277778
        k(   13) = (   0.0146140   0.0734873   0.0000000), wk =   0.0277778
        k(   14) = (   0.0146140  -0.1025183   0.0000000), wk =   0.0277778
        k(   15) = (   0.0146140  -0.0865178   0.0000000), wk =   0.0277778
        k(   16) = (   0.0146140  -0.0705173   0.0000000), wk =   0.0277778
        k(   17) = (   0.0146140  -0.0545168   0.0000000), wk =   0.0277778
        k(   18) = (   0.0146140  -0.0385163   0.0000000), wk =   0.0277778
        k(   19) = (   0.0146140  -0.0225158   0.0000000), wk =   0.0277778
        k(   20) = (   0.0292279  -0.0130305   0.0000000), wk =   0.0277778
        k(   21) = (   0.0292279   0.0029700   0.0000000), wk =   0.0277778
        k(   22) = (   0.0292279   0.0189705   0.0000000), wk =   0.0277778
        k(   23) = (   0.0292279   0.0349710   0.0000000), wk =   0.0277778
        k(   24) = (   0.0292279   0.0509715   0.0000000), wk =   0.0277778
        k(   25) = (   0.0292279   0.0669720   0.0000000), wk =   0.0277778
        k(   26) = (   0.0292279  -0.1090336   0.0000000), wk =   0.0277778
        k(   27) = (   0.0292279  -0.0930331   0.0000000), wk =   0.0277778
        k(   28) = (   0.0292279  -0.0770326   0.0000000), wk =   0.0277778
        k(   29) = (   0.0292279  -0.0610320   0.0000000), wk =   0.0277778
        k(   30) = (   0.0292279  -0.0450315   0.0000000), wk =   0.0277778
        k(   31) = (   0.0292279  -0.0290310   0.0000000), wk =   0.0277778
        k(   32) = (   0.0438419  -0.0195458   0.0000000), wk =   0.0277778
        k(   33) = (   0.0438419  -0.0035453   0.0000000), wk =   0.0277778
        k(   34) = (   0.0438419   0.0124553   0.0000000), wk =   0.0277778
        k(   35) = (   0.0438419   0.0284558   0.0000000), wk =   0.0277778
        k(   36) = (   0.0438419   0.0444563   0.0000000), wk =   0.0277778
        k(   37) = (   0.0438419   0.0604568   0.0000000), wk =   0.0277778
        k(   38) = (   0.0438419  -0.1155488   0.0000000), wk =   0.0277778
        k(   39) = (   0.0438419  -0.0995483   0.0000000), wk =   0.0277778
        k(   40) = (   0.0438419  -0.0835478   0.0000000), wk =   0.0277778
        k(   41) = (   0.0438419  -0.0675473   0.0000000), wk =   0.0277778
        k(   42) = (   0.0438419  -0.0515468   0.0000000), wk =   0.0277778
        k(   43) = (   0.0438419  -0.0355463   0.0000000), wk =   0.0277778
        k(   44) = (   0.0584558  -0.0260610   0.0000000), wk =   0.0277778
        k(   45) = (   0.0584558  -0.0100605   0.0000000), wk =   0.0277778
        k(   46) = (   0.0584558   0.0059400   0.0000000), wk =   0.0277778
        k(   47) = (   0.0584558   0.0219405   0.0000000), wk =   0.0277778
        k(   48) = (   0.0584558   0.0379410   0.0000000), wk =   0.0277778
        k(   49) = (   0.0584558   0.0539415   0.0000000), wk =   0.0277778
        k(   50) = (   0.0584558  -0.1220641   0.0000000), wk =   0.0277778
        k(   51) = (   0.0584558  -0.1060636   0.0000000), wk =   0.0277778
        k(   52) = (   0.0584558  -0.0900631   0.0000000), wk =   0.0277778
        k(   53) = (   0.0584558  -0.0740626   0.0000000), wk =   0.0277778
        k(   54) = (   0.0584558  -0.0580620   0.0000000), wk =   0.0277778
        k(   55) = (   0.0584558  -0.0420615   0.0000000), wk =   0.0277778
        k(   56) = (   0.0730698  -0.0325763   0.0000000), wk =   0.0277778
        k(   57) = (   0.0730698  -0.0165758   0.0000000), wk =   0.0277778
        k(   58) = (   0.0730698  -0.0005753   0.0000000), wk =   0.0277778
        k(   59) = (   0.0730698   0.0154253   0.0000000), wk =   0.0277778
        k(   60) = (   0.0730698   0.0314258   0.0000000), wk =   0.0277778
        k(   61) = (   0.0730698   0.0474263   0.0000000), wk =   0.0277778
        k(   62) = (   0.0730698  -0.1285793   0.0000000), wk =   0.0277778
        k(   63) = (   0.0730698  -0.1125788   0.0000000), wk =   0.0277778
        k(   64) = (   0.0730698  -0.0965783   0.0000000), wk =   0.0277778
        k(   65) = (   0.0730698  -0.0805778   0.0000000), wk =   0.0277778
        k(   66) = (   0.0730698  -0.0645773   0.0000000), wk =   0.0277778
        k(   67) = (   0.0730698  -0.0485768   0.0000000), wk =   0.0277778
        k(   68) = (  -0.0876837   0.0390915   0.0000000), wk =   0.0138889
        k(   69) = (  -0.0876837   0.0550920   0.0000000), wk =   0.0277778
        k(   70) = (  -0.0876837   0.0710926   0.0000000), wk =   0.0277778
        k(   71) = (  -0.0876837   0.0870931   0.0000000), wk =   0.0277778
        k(   72) = (  -0.0876837   0.1030936   0.0000000), wk =   0.0277778
        k(   73) = (  -0.0876837   0.1190941   0.0000000), wk =   0.0277778
        k(   74) = (  -0.0876837  -0.0569115   0.0000000), wk =   0.0138889

     Initial potential from superposition of free atoms

     starting charge  125.98748, renormalised to  126.00000

     negative rho (up, down):  4.902E-04 0.000E+00

     %%%%%%%%%%%%%%%%%%%%%%%%%%%%%%%%%%%%%%%%%%%%%%%%%%%%%%%%%%%%%%%%%%%%%%%%
     %                                                                      %
     % You are using vdW-DF, which was implemented by the Thonhauser group. %
     % Please cite the following two papers that made this development      %
     % possible and the two reviews that describe the various versions:     %
     %                                                                      %
     %   T. Thonhauser et al., PRL 115, 136402 (2015).                      %
     %   T. Thonhauser et al., PRB 76, 125112 (2007).                       %
     %   K. Berland et al., Rep. Prog. Phys. 78, 066501 (2015).             %
     %   D.C. Langreth et al., J. Phys.: Condens. Matter 21, 084203 (2009). %
     %                                                                      %
     %                                                                      %
     % If you are calculating the stress with vdW-DF, please also cite:     %
     %                                                                      %
     %   R. Sabatini et al., J. Phys.: Condens. Matter 24, 424209 (2012).   %
     %                                                                      %
     %%%%%%%%%%%%%%%%%%%%%%%%%%%%%%%%%%%%%%%%%%%%%%%%%%%%%%%%%%%%%%%%%%%%%%%%

     Adding external electric field

     Computed dipole along edir(3) :
        Dipole                0.0006 Ry au,          0.0014 Debye
        Dipole field          0.0000 Ry au,

        Potential amp.       -0.0001 Ry
        Total length         45.5526 bohr

     Starting wfcs are  114 randomized atomic wfcs

     Self-consistent Calculation

     iteration #  1     ecut=    55.12 Ry     beta= 0.10
     Davidson diagonalization with overlap
     ethr =  1.00E-02,  avg # of iterations =  2.0

[...]

     total energy              =   -1136.02913402 Ry
     estimated scf accuracy    <       4.35071092 Ry

[...]

     iteration #  7     ecut=    55.12 Ry     beta= 0.10
     Davidson diagonalization with overlap
     c_bands:  1 eigenvalues not converged
     c_bands:  1 eigenvalues not converged
     c_bands:  3 eigenvalues not converged
     c_bands:  3 eigenvalues not converged
     c_bands:  1 eigenvalues not converged
     c_bands:  1 eigenvalues not converged
     ethr =  2.46E-05,  avg # of iterations = 10.1

[...]

     iteration # 16     ecut=    55.12 Ry     beta= 0.10
     Davidson diagonalization with overlap
     c_bands:  1 eigenvalues not converged
     ethr =  1.71E-08,  avg # of iterations =  7.1

[...]

     total energy              =   -1136.29032918 Ry
     estimated scf accuracy    <       0.00001207 Ry

     iteration # 17     ecut=    55.12 Ry     beta= 0.10
     Davidson diagonalization with overlap
     ethr =  9.58E-09,  avg # of iterations =  3.1

[...]

     Adding external electric field

     Computed dipole along edir(3) :
        Dipole                0.0949 Ry au,          0.2413 Debye
        Dipole field          0.0002 Ry au,

        Potential amp.       -0.0219 Ry
        Total length         45.5526 bohr

     End of self-consistent calculation

          k = 0.0000 0.0000 0.0000 ( 34215 PWs)   bands (ev):

   -61.3540 -61.3292 -61.2685 -61.2436 -60.8566 -60.8309 -29.9682 -29.9604
   -29.9117 -29.8982 -29.8920 -29.8471 -29.7477 -29.6998 -29.6659 -29.6615
   -29.6178 -29.4875 -29.4103 -29.3861 -29.3375 -29.3314 -29.2691 -29.1561
    -6.4821  -4.6353  -4.0279  -3.6965  -3.5752  -3.5699  -3.4283  -3.4046
    -3.2024  -3.1235  -2.6379  -2.5898  -2.4520  -2.1164  -2.0574  -1.6415
    -1.4992  -1.4889  -1.2860  -1.1558  -1.1267  -1.0135  -0.6274  -0.5023
    -0.4939  -0.4282  -0.2572   0.0719   0.1121   0.3434   0.5051   0.6730
     0.8092   0.8477   1.9336   2.0139   2.0834   2.1218   2.2162   2.3771
     2.4615   2.6361   2.6625   2.7843   2.9240   3.0211   3.1983   3.2185
     3.2868   3.6275   3.7180   4.3262

[...]

          k = 0.0731-0.0486 0.0000 ( 34267 PWs)   bands (ev):

[...]

          k =-0.0877 0.0391 0.0000 ( 34300 PWs)   bands (ev):

[...]

          k =-0.0877-0.0569 0.0000 ( 34280 PWs)   bands (ev):

   -61.3537 -61.3291 -61.2681 -61.2435 -60.8563 -60.8307 -29.9773 -29.9679
   -29.9103 -29.9018 -29.9007 -29.8461 -29.7681 -29.7072 -29.6846 -29.6697
   -29.6246 -29.4898 -29.4127 -29.4049 -29.3440 -29.3190 -29.2782 -29.1594
    -4.6159  -4.3633  -3.1506  -3.0787  -2.8115  -2.6931  -2.6514  -2.5715
    -2.5094  -2.1998  -2.0373  -1.9369  -1.8771  -1.7601  -1.6978  -1.5172
    -1.2766  -1.1205  -1.0734  -0.9297  -0.9038  -0.8875  -0.7922  -0.5546
    -0.4936  -0.4163  -0.3314  -0.2671  -0.2121   0.1295   0.1702   0.2776
     0.4311   0.4783   0.4847   0.5317   0.6785   0.7716   0.7902   0.9973
     1.3749   1.6916   2.0030   2.0882   2.1024   2.1730   2.2769   2.6164
     2.7209   2.9691   3.1107   3.2116

     the Fermi energy is     1.7606 ev

!    total energy              =   -1136.29032981 Ry
     estimated scf accuracy    <       0.00000185 Ry
     smearing contrib. (-TS)   =      -0.03180593 Ry
     internal energy E=F+TS    =   -1136.25852388 Ry

     The total energy is F=E-TS. E is the sum of the following terms:
     one-electron contribution =   -7729.10913039 Ry
     hartree contribution      =    3891.56557481 Ry
     xc contribution           =    -452.05485725 Ry
     ewald contribution        =    3153.33986610 Ry
     electric field correction =       0.00002285 Ry

     convergence has been achieved in  17 iterations

     negative rho (up, down):  3.153E-04 0.000E+00

     Forces acting on atoms (cartesian axes, Ry/au):

     atom    1 type  1   force =    -0.02261545   -0.01467680   -0.02016370
     atom    2 type  1   force =    -0.02260922   -0.01467547   -0.02016148
     atom    3 type  2   force =    -0.00714774   -0.00464545    0.04619558
     atom    4 type  2   force =    -0.00714791   -0.00463671    0.04619952
     atom    5 type  1   force =     0.02069614    0.01343198   -0.02494404
     atom    6 type  1   force =     0.02069284    0.01343292   -0.02493667
     atom    7 type  2   force =     0.00872555    0.00566127    0.00476768
     atom    8 type  2   force =     0.00872561    0.00566361    0.00476988
     atom    9 type  1   force =     0.00000923    0.00001060   -0.00210482
     atom   10 type  1   force =     0.00001629    0.00000341   -0.00210813
     atom   11 type  2   force =     0.00032399    0.00021994   -0.00375785
     atom   12 type  2   force =     0.00033068    0.00021070   -0.00375597

     Total force =     0.097164     Total SCF correction =     0.005758

     Writing output data file ./Hf2Ir2/Hf2Ir2_beef.save/

     General routines

     Parallel routines

   This run was terminated on:  14:54:13  24Jun2022

   JOB DONE.