     Program PWSCF v.6.6 starts on 24Jun2022 at 14:54:16

     R & G space division:  proc/nbgrp/npool/nimage =      37
     Fft bands division:     nmany     =       1
     Reading input from Hf2Os2.in
Warning: card &CELL ignored
Warning: card / ignored

     Current dimensions of program PWSCF are:
     Max number of different atomic species (ntypx) = 10
     Max number of k-points (npk) =  40000
     Max angular momentum in pseudopotentials (lmaxx) =  3
     Presently stress not available with electric field and gates

     Message from routine cell_base_init:
     DEPRECATED: use true lattice parameter, not A to a.u. conversion factor

     IMPORTANT: XC functional enforced from input :
     Exchange-correlation= BEEF-VDW
                           (   1   4  43  14   2   0   0)
     Any further DFT definition will be discarded
     Please, verify this is what you really want

     Subspace diagonalization in iterative solution of the eigenvalue problem:
     a serial algorithm will be used

     Found symmetry operation: I + ( -0.5000  0.5000  0.0000)
     This is a supercell, fractional translations are disabled

     bravais-lattice index     =            0
     lattice parameter (alat)  =       1.8897  a.u.
     unit-cell volume          =    4988.7951 (a.u.)^3
     number of atoms/cell      =           12
     number of atomic types    =            2
     number of electrons       =       168.00
     number of Kohn-Sham states=          101
     kinetic-energy cutoff     =      55.1240  Ry
     charge density cutoff     =     551.2396  Ry
     convergence threshold     =      1.0E-05
     mixing beta               =       0.1000
     number of iterations used =           10  plain     mixing
     Exchange-correlation= BEEF-VDW
                           (   1   4  43  14   2   0   0)

     celldm(1)=   1.889726  celldm(2)=   0.000000  celldm(3)=   0.000000
     celldm(4)=   0.000000  celldm(5)=   0.000000  celldm(6)=   0.000000

     crystal axes: (cart. coord. in units of alat)
               a(1) = (   5.649520   0.000000   0.000000 )
               a(2) = (   1.916921   5.314367   0.000000 )
               a(3) = (   0.000000   0.000000  24.622722 )

     reciprocal axes: (cart. coord. in units 2 pi/alat)
               b(1) = (  0.177006 -0.063847  0.000000 )
               b(2) = (  0.000000  0.188169  0.000000 )
               b(3) = (  0.000000  0.000000  0.040613 )

     PseudoPot. # 1 for Hf read from file:
     ../pseudo/Hf.pbe-spn-rrkjus_psl.1.0.0.UPF
     MD5 check sum: 9605440c6f839e558204c6a924125fd0
     Pseudo is Ultrasoft + core correction, Zval = 12.0
     Generated using "atomic" code by A. Dal Corso v.6.2.2
     Using radial grid of 1271 points,  6 beta functions with:
                l(1) =   0
                l(2) =   0
                l(3) =   1
                l(4) =   1
                l(5) =   2
                l(6) =   2
     Q(r) pseudized with 0 coefficients

     PseudoPot. # 2 for Os read from file:
     ../pseudo/Os.pbe-spn-rrkjus_psl.1.0.0.UPF
     MD5 check sum: 3e7416ed594f6513d36e5cb31ba709d9
     Pseudo is Ultrasoft + core correction, Zval = 16.0
     Generated using "atomic" code by A. Dal Corso v.6.2.2
     Using radial grid of 1275 points,  6 beta functions with:
                l(1) =   0
                l(2) =   0
                l(3) =   1
                l(4) =   1
                l(5) =   2
                l(6) =   2
     Q(r) pseudized with 0 coefficients

     atomic species   valence    mass     pseudopotential
        Hf            12.00   178.49000     Hf( 1.00)
        Os            16.00   190.23000     Os( 1.00)

     No symmetry found

   Cartesian axes

     site n.     atom                  positions (alat units)
         1           Hf  tau(   1) = (   0.0000000   0.0000000  10.0000000  )
         2           Hf  tau(   2) = (   3.7832206   2.6571833  10.0000000  )
         3           Os  tau(   3) = (   2.8247601   0.0000000  10.0000000  )
         4           Os  tau(   4) = (   0.9584605   2.6571833  10.0000000  )
         5           Hf  tau(   5) = (   5.6495203   3.9679978  12.3113608  )
         6           Hf  tau(   6) = (   1.8662997   1.3108145  12.3113608  )
         7           Os  tau(   7) = (   2.8247601   3.9679978  12.3113608  )
         8           Os  tau(   8) = (   4.6910598   1.3108145  12.3113608  )
         9           Hf  tau(   9) = (   3.7499205   2.6337866  14.6326846  )
        10           Hf  tau(  10) = (   7.5331256   5.2909731  14.6326866  )
        11           Os  tau(  11) = (   6.5664906   2.6280633  14.4752175  )
        12           Os  tau(  12) = (   4.7002246   5.2852321  14.4751899  )

     number of k points=    74  Fermi-Dirac smearing, width (Ry)=  0.0100
                       cart. coord. in units 2pi/alat
        k(    1) = (   0.0000000   0.0000000   0.0000000), wk =   0.0138889
        k(    2) = (   0.0000000   0.0156808   0.0000000), wk =   0.0277778
        k(    3) = (   0.0000000   0.0313615   0.0000000), wk =   0.0277778
        k(    4) = (   0.0000000   0.0470423   0.0000000), wk =   0.0277778
        k(    5) = (   0.0000000   0.0627231   0.0000000), wk =   0.0277778
        k(    6) = (   0.0000000   0.0784038   0.0000000), wk =   0.0277778
        k(    7) = (   0.0000000  -0.0940846   0.0000000), wk =   0.0138889
        k(    8) = (   0.0147505  -0.0053206   0.0000000), wk =   0.0277778
        k(    9) = (   0.0147505   0.0103602   0.0000000), wk =   0.0277778
        k(   10) = (   0.0147505   0.0260409   0.0000000), wk =   0.0277778
        k(   11) = (   0.0147505   0.0417217   0.0000000), wk =   0.0277778
        k(   12) = (   0.0147505   0.0574025   0.0000000), wk =   0.0277778
        k(   13) = (   0.0147505   0.0730832   0.0000000), wk =   0.0277778
        k(   14) = (   0.0147505  -0.0994052   0.0000000), wk =   0.0277778
        k(   15) = (   0.0147505  -0.0837244   0.0000000), wk =   0.0277778
        k(   16) = (   0.0147505  -0.0680436   0.0000000), wk =   0.0277778
        k(   17) = (   0.0147505  -0.0523629   0.0000000), wk =   0.0277778
        k(   18) = (   0.0147505  -0.0366821   0.0000000), wk =   0.0277778
        k(   19) = (   0.0147505  -0.0210014   0.0000000), wk =   0.0277778
        k(   20) = (   0.0295010  -0.0106412   0.0000000), wk =   0.0277778
        k(   21) = (   0.0295010   0.0050396   0.0000000), wk =   0.0277778
        k(   22) = (   0.0295010   0.0207203   0.0000000), wk =   0.0277778
        k(   23) = (   0.0295010   0.0364011   0.0000000), wk =   0.0277778
        k(   24) = (   0.0295010   0.0520819   0.0000000), wk =   0.0277778
        k(   25) = (   0.0295010   0.0677626   0.0000000), wk =   0.0277778
        k(   26) = (   0.0295010  -0.1047258   0.0000000), wk =   0.0277778
        k(   27) = (   0.0295010  -0.0890450   0.0000000), wk =   0.0277778
        k(   28) = (   0.0295010  -0.0733642   0.0000000), wk =   0.0277778
        k(   29) = (   0.0295010  -0.0576835   0.0000000), wk =   0.0277778
        k(   30) = (   0.0295010  -0.0420027   0.0000000), wk =   0.0277778
        k(   31) = (   0.0295010  -0.0263219   0.0000000), wk =   0.0277778
        k(   32) = (   0.0442515  -0.0159618   0.0000000), wk =   0.0277778
        k(   33) = (   0.0442515  -0.0002810   0.0000000), wk =   0.0277778
        k(   34) = (   0.0442515   0.0153998   0.0000000), wk =   0.0277778
        k(   35) = (   0.0442515   0.0310805   0.0000000), wk =   0.0277778
        k(   36) = (   0.0442515   0.0467613   0.0000000), wk =   0.0277778
        k(   37) = (   0.0442515   0.0624420   0.0000000), wk =   0.0277778
        k(   38) = (   0.0442515  -0.1100464   0.0000000), wk =   0.0277778
        k(   39) = (   0.0442515  -0.0943656   0.0000000), wk =   0.0277778
        k(   40) = (   0.0442515  -0.0786848   0.0000000), wk =   0.0277778
        k(   41) = (   0.0442515  -0.0630041   0.0000000), wk =   0.0277778
        k(   42) = (   0.0442515  -0.0473233   0.0000000), wk =   0.0277778
        k(   43) = (   0.0442515  -0.0316425   0.0000000), wk =   0.0277778
        k(   44) = (   0.0590021  -0.0212824   0.0000000), wk =   0.0277778
        k(   45) = (   0.0590021  -0.0056016   0.0000000), wk =   0.0277778
        k(   46) = (   0.0590021   0.0100792   0.0000000), wk =   0.0277778
        k(   47) = (   0.0590021   0.0257599   0.0000000), wk =   0.0277778
        k(   48) = (   0.0590021   0.0414407   0.0000000), wk =   0.0277778
        k(   49) = (   0.0590021   0.0571215   0.0000000), wk =   0.0277778
        k(   50) = (   0.0590021  -0.1153669   0.0000000), wk =   0.0277778
        k(   51) = (   0.0590021  -0.0996862   0.0000000), wk =   0.0277778
        k(   52) = (   0.0590021  -0.0840054   0.0000000), wk =   0.0277778
        k(   53) = (   0.0590021  -0.0683247   0.0000000), wk =   0.0277778
        k(   54) = (   0.0590021  -0.0526439   0.0000000), wk =   0.0277778
        k(   55) = (   0.0590021  -0.0369631   0.0000000), wk =   0.0277778
        k(   56) = (   0.0737526  -0.0266030   0.0000000), wk =   0.0277778
        k(   57) = (   0.0737526  -0.0109222   0.0000000), wk =   0.0277778
        k(   58) = (   0.0737526   0.0047586   0.0000000), wk =   0.0277778
        k(   59) = (   0.0737526   0.0204393   0.0000000), wk =   0.0277778
        k(   60) = (   0.0737526   0.0361201   0.0000000), wk =   0.0277778
        k(   61) = (   0.0737526   0.0518009   0.0000000), wk =   0.0277778
        k(   62) = (   0.0737526  -0.1206875   0.0000000), wk =   0.0277778
        k(   63) = (   0.0737526  -0.1050068   0.0000000), wk =   0.0277778
        k(   64) = (   0.0737526  -0.0893260   0.0000000), wk =   0.0277778
        k(   65) = (   0.0737526  -0.0736452   0.0000000), wk =   0.0277778
        k(   66) = (   0.0737526  -0.0579645   0.0000000), wk =   0.0277778
        k(   67) = (   0.0737526  -0.0422837   0.0000000), wk =   0.0277778
        k(   68) = (  -0.0885031   0.0319235   0.0000000), wk =   0.0138889
        k(   69) = (  -0.0885031   0.0476043   0.0000000), wk =   0.0277778
        k(   70) = (  -0.0885031   0.0632851   0.0000000), wk =   0.0277778
        k(   71) = (  -0.0885031   0.0789658   0.0000000), wk =   0.0277778
        k(   72) = (  -0.0885031   0.0946466   0.0000000), wk =   0.0277778
        k(   73) = (  -0.0885031   0.1103274   0.0000000), wk =   0.0277778
        k(   74) = (  -0.0885031  -0.0621610   0.0000000), wk =   0.0138889

     Initial potential from superposition of free atoms

     starting charge  167.98691, renormalised to  168.00000

     negative rho (up, down):  5.440E-04 0.000E+00

     %%%%%%%%%%%%%%%%%%%%%%%%%%%%%%%%%%%%%%%%%%%%%%%%%%%%%%%%%%%%%%%%%%%%%%%%
     %                                                                      %
     % You are using vdW-DF, which was implemented by the Thonhauser group. %
     % Please cite the following two papers that made this development      %
     % possible and the two reviews that describe the various versions:     %
     %                                                                      %
     %   T. Thonhauser et al., PRL 115, 136402 (2015).                      %
     %   T. Thonhauser et al., PRB 76, 125112 (2007).                       %
     %   K. Berland et al., Rep. Prog. Phys. 78, 066501 (2015).             %
     %   D.C. Langreth et al., J. Phys.: Condens. Matter 21, 084203 (2009). %
     %                                                                      %
     %                                                                      %
     % If you are calculating the stress with vdW-DF, please also cite:     %
     %                                                                      %
     %   R. Sabatini et al., J. Phys.: Condens. Matter 24, 424209 (2012).   %
     %                                                                      %
     %%%%%%%%%%%%%%%%%%%%%%%%%%%%%%%%%%%%%%%%%%%%%%%%%%%%%%%%%%%%%%%%%%%%%%%%

     Adding external electric field

     Computed dipole along edir(3) :
        Dipole                0.0006 Ry au,          0.0015 Debye
        Dipole field          0.0000 Ry au,

        Potential amp.       -0.0001 Ry
        Total length         45.3669 bohr

     Starting wfcs are  120 randomized atomic wfcs

     Self-consistent Calculation

     iteration #  1     ecut=    55.12 Ry     beta= 0.10
     Davidson diagonalization with overlap
     ethr =  1.00E-02,  avg # of iterations =  3.1

[...]

     total energy              =   -1961.03185670 Ry
     estimated scf accuracy    <       4.38263857 Ry

[...]

     iteration # 10     ecut=    55.12 Ry     beta= 0.10
     Davidson diagonalization with overlap
     c_bands:  1 eigenvalues not converged
     c_bands:  1 eigenvalues not converged
     c_bands:  1 eigenvalues not converged
     c_bands:  1 eigenvalues not converged
     c_bands:  1 eigenvalues not converged
     c_bands:  1 eigenvalues not converged
     ethr =  2.88E-06,  avg # of iterations =  9.7

[...]

     iteration # 12     ecut=    55.12 Ry     beta= 0.10
     Davidson diagonalization with overlap
     c_bands:  1 eigenvalues not converged
     ethr =  8.50E-07,  avg # of iterations =  2.2

[...]

     total energy              =   -1961.26157464 Ry
     estimated scf accuracy    <       0.00002427 Ry

     iteration # 15     ecut=    55.12 Ry     beta= 0.10
     Davidson diagonalization with overlap
     ethr =  1.44E-08,  avg # of iterations =  4.2

[...]

     Adding external electric field

     Computed dipole along edir(3) :
        Dipole                0.0597 Ry au,          0.1516 Debye
        Dipole field          0.0002 Ry au,

        Potential amp.       -0.0136 Ry
        Total length         45.3669 bohr

     End of self-consistent calculation

          k = 0.0000 0.0000 0.0000 ( 34555 PWs)   bands (ev):

   -83.9082 -83.9058 -83.4049 -83.4026 -83.3654 -83.3630 -60.3300 -60.3169
   -60.3161 -60.3029 -59.6042 -59.5896 -43.2929 -43.2082 -43.2070 -43.2035
   -43.2000 -43.1965 -42.7606 -42.7542 -42.7312 -42.7224 -42.7004 -42.6979
   -42.6914 -42.6907 -42.6775 -42.6703 -42.6532 -42.6462 -28.9584 -28.9297
   -28.9263 -28.8980 -28.8952 -28.8828 -28.7242 -28.7067 -28.7034 -28.6840
   -28.5825 -28.5755 -28.3124 -28.1813 -28.1571 -28.1275 -28.0879 -27.9857
    -5.5533  -3.7064  -2.9655  -2.6860  -2.4463  -2.4364  -2.4244  -2.3015
    -2.0837  -2.0236  -1.4223  -1.4144  -1.4008  -0.6283  -0.4917  -0.4329
    -0.3556  -0.2477  -0.2248  -0.0767  -0.0510   0.0203   0.4027   0.7578
     0.7936   0.9549   1.0718   1.4584   1.5217   1.6139   1.7931   1.8767
     2.0818   2.4265   2.7611   3.0099   3.2257   3.5430   3.5748   3.5909
     3.6473   3.7604   3.8431   4.3037   4.3393   4.3999   4.6710   4.6741
     5.0003   5.1512   5.3271   5.4616   5.4720

[...]

          k = 0.0738-0.0423 0.0000 ( 34417 PWs)   bands (ev):

[...]

          k =-0.0885 0.0319 0.0000 ( 34410 PWs)   bands (ev):

[...]

          k =-0.0885-0.0622 0.0000 ( 34482 PWs)   bands (ev):

   -83.9082 -83.9058 -83.4049 -83.4026 -83.3654 -83.3630 -60.3304 -60.3173
   -60.3164 -60.3032 -59.6048 -59.5897 -43.2890 -43.2075 -43.2058 -43.1992
   -43.1981 -43.1933 -42.7565 -42.7502 -42.7248 -42.7195 -42.6978 -42.6942
   -42.6912 -42.6887 -42.6769 -42.6698 -42.6524 -42.6471 -28.9723 -28.9309
   -28.9238 -28.9171 -28.9032 -28.8936 -28.7670 -28.7410 -28.7221 -28.7023
   -28.5888 -28.5815 -28.3331 -28.2134 -28.1747 -28.1136 -28.0958 -27.9930
    -3.4893  -3.2286  -2.1845  -1.9674  -1.6265  -1.5597  -1.5080  -1.3428
    -1.2664  -0.9230  -0.7051  -0.6907  -0.6194  -0.4766  -0.4052  -0.1034
    -0.0584   0.0608   0.2066   0.3502   0.3862   0.5595   0.6611   0.7376
     0.8785   0.9405   0.9940   1.0383   1.1211   1.2292   1.3879   1.4009
     1.5070   1.5093   1.5252   1.8021   1.8235   1.8831   2.1099   2.2217
     2.3762   2.9845   3.2816   3.5769   3.6063   3.6642   3.7606   3.8275
     3.8739   4.1792   4.2183   4.5036   4.5122

     the Fermi energy is     2.1196 ev

!    total energy              =   -1961.26157988 Ry
     estimated scf accuracy    <       0.00000355 Ry
     smearing contrib. (-TS)   =      -0.04719123 Ry
     internal energy E=F+TS    =   -1961.21438865 Ry

     The total energy is F=E-TS. E is the sum of the following terms:
     one-electron contribution =  -14080.00283390 Ry
     hartree contribution      =    7025.78091093 Ry
     xc contribution           =    -493.01119809 Ry
     ewald contribution        =    5586.01872345 Ry
     electric field correction =       0.00000897 Ry

     convergence has been achieved in  15 iterations

     negative rho (up, down):  1.855E-04 0.000E+00

     Forces acting on atoms (cartesian axes, Ry/au):

     atom    1 type  1   force =    -0.00348044   -0.00244568   -0.00622726
     atom    2 type  1   force =    -0.00348190   -0.00244577   -0.00622806
     atom    3 type  2   force =    -0.00016006   -0.00010889    0.04190614
     atom    4 type  2   force =    -0.00015692   -0.00011247    0.04190619
     atom    5 type  1   force =     0.00159968    0.00112155   -0.01979891
     atom    6 type  1   force =     0.00159656    0.00112410   -0.01979524
     atom    7 type  2   force =     0.00047289    0.00033261   -0.00847980
     atom    8 type  2   force =     0.00047545    0.00033331   -0.00848115
     atom    9 type  1   force =     0.00055475    0.00039304   -0.00342028
     atom   10 type  1   force =     0.00056412    0.00039406   -0.00342043
     atom   11 type  2   force =     0.00101385    0.00070200   -0.00398617
     atom   12 type  2   force =     0.00100202    0.00071215   -0.00397504

     Total force =     0.067979     Total SCF correction =     0.006484

     Writing output data file ./Hf2Os2/Hf2Os2_beef.save/

     General routines

     Parallel routines

   This run was terminated on:  15:50:27  24Jun2022

   JOB DONE.