     Program PWSCF v.6.6 starts on 24Jun2022 at 15:50:31

     R & G space division:  proc/nbgrp/npool/nimage =      37
     Fft bands division:     nmany     =       1
     Reading input from Hf2Pt2.in
Warning: card &CELL ignored
Warning: card / ignored

     Current dimensions of program PWSCF are:
     Max number of different atomic species (ntypx) = 10
     Max number of k-points (npk) =  40000
     Max angular momentum in pseudopotentials (lmaxx) =  3
     Presently stress not available with electric field and gates

     Message from routine cell_base_init:
     DEPRECATED: use true lattice parameter, not A to a.u. conversion factor
     file Pt.pbe-n-rrkjus_psl.1.0.0.UPF: wavefunction(s)  6S renormalized

     IMPORTANT: XC functional enforced from input :
     Exchange-correlation= BEEF-VDW
                           (   1   4  43  14   2   0   0)
     Any further DFT definition will be discarded
     Please, verify this is what you really want

     Subspace diagonalization in iterative solution of the eigenvalue problem:
     a serial algorithm will be used

     Found symmetry operation: I + ( -0.5000  0.5000  0.0000)
     This is a supercell, fractional translations are disabled

     bravais-lattice index     =            0
     lattice parameter (alat)  =       1.8897  a.u.
     unit-cell volume          =    5214.8082 (a.u.)^3
     number of atoms/cell      =           12
     number of atomic types    =            2
     number of electrons       =       132.00
     number of Kohn-Sham states=           79
     kinetic-energy cutoff     =      55.1240  Ry
     charge density cutoff     =     551.2396  Ry
     convergence threshold     =      1.0E-05
     mixing beta               =       0.1000
     number of iterations used =           10  plain     mixing
     Exchange-correlation= BEEF-VDW
                           (   1   4  43  14   2   0   0)

     celldm(1)=   1.889726  celldm(2)=   0.000000  celldm(3)=   0.000000
     celldm(4)=   0.000000  celldm(5)=   0.000000  celldm(6)=   0.000000

     crystal axes: (cart. coord. in units of alat)
               a(1) = (   5.776328   0.000000   0.000000 )
               a(2) = (   2.034349   5.406237   0.000000 )
               a(3) = (   0.000000   0.000000  24.745424 )

     reciprocal axes: (cart. coord. in units 2 pi/alat)
               b(1) = (  0.173120 -0.065145  0.000000 )
               b(2) = (  0.000000  0.184972  0.000000 )
               b(3) = (  0.000000  0.000000  0.040412 )

     PseudoPot. # 1 for Hf read from file:
     ../pseudo/Hf.pbe-spn-rrkjus_psl.1.0.0.UPF
     MD5 check sum: 9605440c6f839e558204c6a924125fd0
     Pseudo is Ultrasoft + core correction, Zval = 12.0
     Generated using "atomic" code by A. Dal Corso v.6.2.2
     Using radial grid of 1271 points,  6 beta functions with:
                l(1) =   0
                l(2) =   0
                l(3) =   1
                l(4) =   1
                l(5) =   2
                l(6) =   2
     Q(r) pseudized with 0 coefficients

     PseudoPot. # 2 for Pt read from file:
     ../pseudo/Pt.pbe-n-rrkjus_psl.1.0.0.UPF
     MD5 check sum: 6bc887cfe28d63a5fc1f72d35a7d3ef7
     Pseudo is Ultrasoft + core correction, Zval = 10.0
     Generated using "atomic" code by A. Dal Corso v.6.3
     Using radial grid of 1277 points,  6 beta functions with:
                l(1) =   0
                l(2) =   0
                l(3) =   1
                l(4) =   1
                l(5) =   2
                l(6) =   2
     Q(r) pseudized with 0 coefficients

     atomic species   valence    mass     pseudopotential
        Hf            12.00   178.49000     Hf( 1.00)
        Pt            10.00   195.08400     Pt( 1.00)

     No symmetry found

   Cartesian axes

     site n.     atom                  positions (alat units)
         1           Hf  tau(   1) = (   0.0000000   0.0000000  10.0000000  )
         2           Hf  tau(   2) = (   3.9053385   2.7031183  10.0000000  )
         3           Pt  tau(   3) = (   2.8881641   0.0000000  10.0000000  )
         4           Pt  tau(   4) = (   1.0171743   2.7031183  10.0000000  )
         5           Hf  tau(   5) = (   5.7763282   3.9981422  12.3727118  )
         6           Hf  tau(   6) = (   1.8709898   1.2950239  12.3727118  )
         7           Pt  tau(   7) = (   2.8881641   3.9981422  12.3727118  )
         8           Pt  tau(   8) = (   4.7591539   1.2950239  12.3727118  )
         9           Hf  tau(   9) = (   3.7592222   2.6019831  14.7375177  )
        10           Hf  tau(  10) = (   7.6645584   5.3050994  14.7375173  )
        11           Pt  tau(  11) = (   6.6479524   2.6023731  14.5552887  )
        12           Pt  tau(  12) = (   4.7769624   5.3054937  14.5552879  )

     number of k points=    74  Fermi-Dirac smearing, width (Ry)=  0.0100
                       cart. coord. in units 2pi/alat
        k(    1) = (   0.0000000   0.0000000   0.0000000), wk =   0.0138889
        k(    2) = (   0.0000000   0.0154143   0.0000000), wk =   0.0277778
        k(    3) = (   0.0000000   0.0308286   0.0000000), wk =   0.0277778
        k(    4) = (   0.0000000   0.0462429   0.0000000), wk =   0.0277778
        k(    5) = (   0.0000000   0.0616572   0.0000000), wk =   0.0277778
        k(    6) = (   0.0000000   0.0770715   0.0000000), wk =   0.0277778
        k(    7) = (   0.0000000  -0.0924858   0.0000000), wk =   0.0138889
        k(    8) = (   0.0144267  -0.0054287   0.0000000), wk =   0.0277778
        k(    9) = (   0.0144267   0.0099856   0.0000000), wk =   0.0277778
        k(   10) = (   0.0144267   0.0253999   0.0000000), wk =   0.0277778
        k(   11) = (   0.0144267   0.0408142   0.0000000), wk =   0.0277778
        k(   12) = (   0.0144267   0.0562285   0.0000000), wk =   0.0277778
        k(   13) = (   0.0144267   0.0716428   0.0000000), wk =   0.0277778
        k(   14) = (   0.0144267  -0.0979145   0.0000000), wk =   0.0277778
        k(   15) = (   0.0144267  -0.0825002   0.0000000), wk =   0.0277778
        k(   16) = (   0.0144267  -0.0670859   0.0000000), wk =   0.0277778
        k(   17) = (   0.0144267  -0.0516716   0.0000000), wk =   0.0277778
        k(   18) = (   0.0144267  -0.0362573   0.0000000), wk =   0.0277778
        k(   19) = (   0.0144267  -0.0208430   0.0000000), wk =   0.0277778
        k(   20) = (   0.0288534  -0.0108574   0.0000000), wk =   0.0277778
        k(   21) = (   0.0288534   0.0045569   0.0000000), wk =   0.0277778
        k(   22) = (   0.0288534   0.0199712   0.0000000), wk =   0.0277778
        k(   23) = (   0.0288534   0.0353854   0.0000000), wk =   0.0277778
        k(   24) = (   0.0288534   0.0507997   0.0000000), wk =   0.0277778
        k(   25) = (   0.0288534   0.0662140   0.0000000), wk =   0.0277778
        k(   26) = (   0.0288534  -0.1033432   0.0000000), wk =   0.0277778
        k(   27) = (   0.0288534  -0.0879289   0.0000000), wk =   0.0277778
        k(   28) = (   0.0288534  -0.0725146   0.0000000), wk =   0.0277778
        k(   29) = (   0.0288534  -0.0571003   0.0000000), wk =   0.0277778
        k(   30) = (   0.0288534  -0.0416860   0.0000000), wk =   0.0277778
        k(   31) = (   0.0288534  -0.0262717   0.0000000), wk =   0.0277778
        k(   32) = (   0.0432801  -0.0162862   0.0000000), wk =   0.0277778
        k(   33) = (   0.0432801  -0.0008719   0.0000000), wk =   0.0277778
        k(   34) = (   0.0432801   0.0145424   0.0000000), wk =   0.0277778
        k(   35) = (   0.0432801   0.0299567   0.0000000), wk =   0.0277778
        k(   36) = (   0.0432801   0.0453710   0.0000000), wk =   0.0277778
        k(   37) = (   0.0432801   0.0607853   0.0000000), wk =   0.0277778
        k(   38) = (   0.0432801  -0.1087719   0.0000000), wk =   0.0277778
        k(   39) = (   0.0432801  -0.0933576   0.0000000), wk =   0.0277778
        k(   40) = (   0.0432801  -0.0779433   0.0000000), wk =   0.0277778
        k(   41) = (   0.0432801  -0.0625290   0.0000000), wk =   0.0277778
        k(   42) = (   0.0432801  -0.0471147   0.0000000), wk =   0.0277778
        k(   43) = (   0.0432801  -0.0317004   0.0000000), wk =   0.0277778
        k(   44) = (   0.0577068  -0.0217149   0.0000000), wk =   0.0277778
        k(   45) = (   0.0577068  -0.0063006   0.0000000), wk =   0.0277778
        k(   46) = (   0.0577068   0.0091137   0.0000000), wk =   0.0277778
        k(   47) = (   0.0577068   0.0245280   0.0000000), wk =   0.0277778
        k(   48) = (   0.0577068   0.0399423   0.0000000), wk =   0.0277778
        k(   49) = (   0.0577068   0.0553566   0.0000000), wk =   0.0277778
        k(   50) = (   0.0577068  -0.1142006   0.0000000), wk =   0.0277778
        k(   51) = (   0.0577068  -0.0987863   0.0000000), wk =   0.0277778
        k(   52) = (   0.0577068  -0.0833721   0.0000000), wk =   0.0277778
        k(   53) = (   0.0577068  -0.0679578   0.0000000), wk =   0.0277778
        k(   54) = (   0.0577068  -0.0525435   0.0000000), wk =   0.0277778
        k(   55) = (   0.0577068  -0.0371292   0.0000000), wk =   0.0277778
        k(   56) = (   0.0721335  -0.0271436   0.0000000), wk =   0.0277778
        k(   57) = (   0.0721335  -0.0117293   0.0000000), wk =   0.0277778
        k(   58) = (   0.0721335   0.0036850   0.0000000), wk =   0.0277778
        k(   59) = (   0.0721335   0.0190993   0.0000000), wk =   0.0277778
        k(   60) = (   0.0721335   0.0345136   0.0000000), wk =   0.0277778
        k(   61) = (   0.0721335   0.0499279   0.0000000), wk =   0.0277778
        k(   62) = (   0.0721335  -0.1196294   0.0000000), wk =   0.0277778
        k(   63) = (   0.0721335  -0.1042151   0.0000000), wk =   0.0277778
        k(   64) = (   0.0721335  -0.0888008   0.0000000), wk =   0.0277778
        k(   65) = (   0.0721335  -0.0733865   0.0000000), wk =   0.0277778
        k(   66) = (   0.0721335  -0.0579722   0.0000000), wk =   0.0277778
        k(   67) = (   0.0721335  -0.0425579   0.0000000), wk =   0.0277778
        k(   68) = (  -0.0865602   0.0325723   0.0000000), wk =   0.0138889
        k(   69) = (  -0.0865602   0.0479866   0.0000000), wk =   0.0277778
        k(   70) = (  -0.0865602   0.0634009   0.0000000), wk =   0.0277778
        k(   71) = (  -0.0865602   0.0788152   0.0000000), wk =   0.0277778
        k(   72) = (  -0.0865602   0.0942295   0.0000000), wk =   0.0277778
        k(   73) = (  -0.0865602   0.1096438   0.0000000), wk =   0.0277778
        k(   74) = (  -0.0865602  -0.0599135   0.0000000), wk =   0.0138889

     Initial potential from superposition of free atoms

     starting charge  131.98735, renormalised to  132.00000

     negative rho (up, down):  7.761E-04 0.000E+00

     %%%%%%%%%%%%%%%%%%%%%%%%%%%%%%%%%%%%%%%%%%%%%%%%%%%%%%%%%%%%%%%%%%%%%%%%
     %                                                                      %
     % You are using vdW-DF, which was implemented by the Thonhauser group. %
     % Please cite the following two papers that made this development      %
     % possible and the two reviews that describe the various versions:     %
     %                                                                      %
     %   T. Thonhauser et al., PRL 115, 136402 (2015).                      %
     %   T. Thonhauser et al., PRB 76, 125112 (2007).                       %
     %   K. Berland et al., Rep. Prog. Phys. 78, 066501 (2015).             %
     %   D.C. Langreth et al., J. Phys.: Condens. Matter 21, 084203 (2009). %
     %                                                                      %
     %                                                                      %
     % If you are calculating the stress with vdW-DF, please also cite:     %
     %                                                                      %
     %   R. Sabatini et al., J. Phys.: Condens. Matter 24, 424209 (2012).   %
     %                                                                      %
     %%%%%%%%%%%%%%%%%%%%%%%%%%%%%%%%%%%%%%%%%%%%%%%%%%%%%%%%%%%%%%%%%%%%%%%%

     Adding external electric field

     Computed dipole along edir(3) :
        Dipole                0.0005 Ry au,          0.0014 Debye
        Dipole field          0.0000 Ry au,

        Potential amp.       -0.0001 Ry
        Total length         45.5930 bohr

     Starting wfcs are  114 randomized atomic wfcs

     Self-consistent Calculation

     iteration #  1     ecut=    55.12 Ry     beta= 0.10
     Davidson diagonalization with overlap
     ethr =  1.00E-02,  avg # of iterations =  2.0

     Threshold (ethr) on eigenvalues was too large:
     Diagonalizing with lowered threshold

     Davidson diagonalization with overlap
     ethr =  7.41E-04,  avg # of iterations =  4.2

[...]

     total energy              =   -1154.75608459 Ry
     estimated scf accuracy    <       1.26336404 Ry

[...]

     iteration #  6     ecut=    55.12 Ry     beta= 0.10
     Davidson diagonalization with overlap
     c_bands:  1 eigenvalues not converged
     ethr =  6.44E-05,  avg # of iterations =  8.6

[...]

     iteration # 13     ecut=    55.12 Ry     beta= 0.10
     Davidson diagonalization with overlap
     c_bands:  1 eigenvalues not converged
     ethr =  1.91E-07,  avg # of iterations =  2.8

[...]

     total energy              =   -1154.76536906 Ry
     estimated scf accuracy    <       0.00001754 Ry

     iteration # 16     ecut=    55.12 Ry     beta= 0.10
     Davidson diagonalization with overlap
     ethr =  1.33E-08,  avg # of iterations =  2.5

[...]

     Adding external electric field

     Computed dipole along edir(3) :
        Dipole                0.0605 Ry au,          0.1538 Debye
        Dipole field          0.0001 Ry au,

        Potential amp.       -0.0133 Ry
        Total length         45.5930 bohr

     End of self-consistent calculation

          k = 0.0000 0.0000 0.0000 ( 36033 PWs)   bands (ev):

   -61.8571 -61.8458 -61.7944 -61.7831 -61.4854 -61.4737 -30.4056 -30.3812
   -30.3336 -30.3080 -30.3024 -30.2680 -30.2472 -30.2406 -30.2087 -30.1866
   -30.1177 -30.0311 -29.9697 -29.9448 -29.9224 -29.9135 -29.8876 -29.8298
    -6.6073  -4.8761  -4.2385  -3.9985  -3.9496  -3.8769  -3.8520  -3.7978
    -3.5905  -3.5393  -3.2097  -3.0115  -2.9239  -2.6252  -2.5800  -2.4334
    -2.3644  -2.2899  -2.1566  -2.1393  -2.0701  -1.9427  -1.8574  -1.5582
    -1.5394  -1.5015  -1.4399  -1.2615  -0.8981  -0.7248  -0.6670  -0.3874
    -0.3608   0.3465   0.3501   0.4474   0.7078   1.2212   1.5471   1.8146
     1.8841   1.9184   2.2221   2.3276   2.3330   2.4113   2.6265   2.6930
     2.7273   2.9588   3.2936   3.5212   3.6912   3.7461   3.7981

[...]

          k = 0.0721-0.0426 0.0000 ( 36024 PWs)   bands (ev):

[...]

          k =-0.0866 0.0326 0.0000 ( 36056 PWs)   bands (ev):

[...]

          k =-0.0866-0.0599 0.0000 ( 36072 PWs)   bands (ev):

   -61.8568 -61.8457 -61.7941 -61.7830 -61.4853 -61.4735 -30.4118 -30.3791
   -30.3354 -30.3100 -30.3057 -30.2871 -30.2487 -30.2487 -30.2247 -30.1894
   -30.1223 -30.0330 -29.9715 -29.9495 -29.9209 -29.9150 -29.8969 -29.8335
    -4.6715  -4.6178  -3.6106  -3.5309  -3.1814  -3.0689  -3.0663  -3.0548
    -2.7874  -2.7594  -2.6603  -2.6295  -2.6104  -2.4538  -2.4201  -2.3129
    -1.9710  -1.9205  -1.9032  -1.8566  -1.8071  -1.7677  -1.7672  -1.7031
    -1.4876  -1.4487  -1.3976  -1.3260  -1.3113  -1.2504  -1.0816  -0.7975
    -0.7962  -0.4042  -0.3781  -0.0309   0.0508   0.0854   0.1536   0.2439
     0.4087   1.1141   1.1234   1.3537   1.3797   1.6141   1.6303   1.6666
     2.1852   2.3372   2.3731   2.5027   2.7965   3.1420   3.1546

     the Fermi energy is     1.7472 ev

!    total energy              =   -1154.76536721 Ry
     estimated scf accuracy    <       0.00000482 Ry
     smearing contrib. (-TS)   =      -0.05449768 Ry
     internal energy E=F+TS    =   -1154.71086953 Ry

     The total energy is F=E-TS. E is the sum of the following terms:
     one-electron contribution =   -8096.02856189 Ry
     hartree contribution      =    4077.09771203 Ry
     xc contribution           =    -404.73512674 Ry
     ewald contribution        =    3268.95509823 Ry
     electric field correction =       0.00000882 Ry

     convergence has been achieved in  16 iterations

     negative rho (up, down):  5.291E-04 0.000E+00

     Forces acting on atoms (cartesian axes, Ry/au):

     atom    1 type  1   force =    -0.00152848   -0.00105442   -0.00218168
     atom    2 type  1   force =    -0.00152985   -0.00105930   -0.00217578
     atom    3 type  2   force =    -0.00184202   -0.00127707    0.03187755
     atom    4 type  2   force =    -0.00184497   -0.00127500    0.03186236
     atom    5 type  1   force =     0.00096075    0.00066401   -0.02577307
     atom    6 type  1   force =     0.00094879    0.00065995   -0.02577189
     atom    7 type  2   force =    -0.00057066   -0.00040509    0.00194015
     atom    8 type  2   force =    -0.00058403   -0.00040577    0.00193255
     atom    9 type  1   force =     0.00136045    0.00094300   -0.00234665
     atom   10 type  1   force =     0.00136488    0.00094728   -0.00235018
     atom   11 type  2   force =     0.00163411    0.00113078   -0.00351008
     atom   12 type  2   force =     0.00163103    0.00113164   -0.00350328

     Total force =     0.058707     Total SCF correction =     0.010896
     SCF correction compared to forces is large: reduce conv_thr to get better values

     Writing output data file ./Hf2Pt2/Hf2Pt2_beef.save/

     General routines

     Parallel routines

   This run was terminated on:  16:41:20  24Jun2022

   JOB DONE.