     Program PWSCF v.6.6 starts on 24Jun2022 at 16:41:23

     R & G space division:  proc/nbgrp/npool/nimage =      37
     Fft bands division:     nmany     =       1
     Reading input from Hf2Re2.in
Warning: card &CELL ignored
Warning: card / ignored

     Current dimensions of program PWSCF are:
     Max number of different atomic species (ntypx) = 10
     Max number of k-points (npk) =  40000
     Max angular momentum in pseudopotentials (lmaxx) =  3
     Presently stress not available with electric field and gates

     Message from routine cell_base_init:
     DEPRECATED: use true lattice parameter, not A to a.u. conversion factor

     IMPORTANT: XC functional enforced from input :
     Exchange-correlation= BEEF-VDW
                           (   1   4  43  14   2   0   0)
     Any further DFT definition will be discarded
     Please, verify this is what you really want

     Subspace diagonalization in iterative solution of the eigenvalue problem:
     a serial algorithm will be used

     Found symmetry operation: I + ( -0.5000  0.5000  0.0000)
     This is a supercell, fractional translations are disabled

     bravais-lattice index     =            0
     lattice parameter (alat)  =       1.8897  a.u.
     unit-cell volume          =    5040.6921 (a.u.)^3
     number of atoms/cell      =           12
     number of atomic types    =            2
     number of electrons       =       162.00
     number of Kohn-Sham states=           97
     kinetic-energy cutoff     =      55.1240  Ry
     charge density cutoff     =     551.2396  Ry
     convergence threshold     =      1.0E-05
     mixing beta               =       0.1000
     number of iterations used =           10  plain     mixing
     Exchange-correlation= BEEF-VDW
                           (   1   4  43  14   2   0   0)

     celldm(1)=   1.889726  celldm(2)=   0.000000  celldm(3)=   0.000000
     celldm(4)=   0.000000  celldm(5)=   0.000000  celldm(6)=   0.000000

     crystal axes: (cart. coord. in units of alat)
               a(1) = (   5.673930   0.000000   0.000000 )
               a(2) = (   1.908729   5.343242   0.000000 )
               a(3) = (   0.000000   0.000000  24.637965 )

     reciprocal axes: (cart. coord. in units 2 pi/alat)
               b(1) = (  0.176245 -0.062959  0.000000 )
               b(2) = (  0.000000  0.187152  0.000000 )
               b(3) = (  0.000000  0.000000  0.040588 )

     PseudoPot. # 1 for Hf read from file:
     ../pseudo/Hf.pbe-spn-rrkjus_psl.1.0.0.UPF
     MD5 check sum: 9605440c6f839e558204c6a924125fd0
     Pseudo is Ultrasoft + core correction, Zval = 12.0
     Generated using "atomic" code by A. Dal Corso v.6.2.2
     Using radial grid of 1271 points,  6 beta functions with:
                l(1) =   0
                l(2) =   0
                l(3) =   1
                l(4) =   1
                l(5) =   2
                l(6) =   2
     Q(r) pseudized with 0 coefficients

     PseudoPot. # 2 for Re read from file:
     ../pseudo/Re.pbe-spn-rrkjus_psl.1.0.0.UPF
     MD5 check sum: 1282f1ec51ad523723a04c61ae80a9e6
     Pseudo is Ultrasoft + core correction, Zval = 15.0
     Generated using "atomic" code by A. Dal Corso v.6.2.2
     Using radial grid of 1275 points,  6 beta functions with:
                l(1) =   0
                l(2) =   0
                l(3) =   1
                l(4) =   1
                l(5) =   2
                l(6) =   2
     Q(r) pseudized with 0 coefficients

     atomic species   valence    mass     pseudopotential
        Hf            12.00   178.49000     Hf( 1.00)
        Re            15.00   186.20700     Re( 1.00)

     No symmetry found

   Cartesian axes

     site n.     atom                  positions (alat units)
         1           Hf  tau(   1) = (   0.0000000   0.0000000  10.0000000  )
         2           Hf  tau(   2) = (   3.7913296   2.6716208  10.0000000  )
         3           Re  tau(   3) = (   2.8369648   0.0000000  10.0000000  )
         4           Re  tau(   4) = (   0.9543647   2.6716208  10.0000000  )
         5           Hf  tau(   5) = (   5.6739297   3.9982249  12.3189823  )
         6           Hf  tau(   6) = (   1.8826001   1.3266041  12.3189823  )
         7           Re  tau(   7) = (   2.8369648   3.9982249  12.3189823  )
         8           Re  tau(   8) = (   4.7195649   1.3266041  12.3189823  )
         9           Hf  tau(   9) = (   3.7709748   2.6572679  14.6237532  )
        10           Hf  tau(  10) = (   7.5622819   5.3288899  14.6237526  )
        11           Re  tau(  11) = (   6.6045255   2.6548832  14.5655231  )
        12           Re  tau(  12) = (   4.7219471   5.3264914  14.5654751  )

     number of k points=    74  Fermi-Dirac smearing, width (Ry)=  0.0100
                       cart. coord. in units 2pi/alat
        k(    1) = (   0.0000000   0.0000000   0.0000000), wk =   0.0138889
        k(    2) = (   0.0000000   0.0155960   0.0000000), wk =   0.0277778
        k(    3) = (   0.0000000   0.0311920   0.0000000), wk =   0.0277778
        k(    4) = (   0.0000000   0.0467881   0.0000000), wk =   0.0277778
        k(    5) = (   0.0000000   0.0623841   0.0000000), wk =   0.0277778
        k(    6) = (   0.0000000   0.0779801   0.0000000), wk =   0.0277778
        k(    7) = (   0.0000000  -0.0935761   0.0000000), wk =   0.0138889
        k(    8) = (   0.0146871  -0.0052466   0.0000000), wk =   0.0277778
        k(    9) = (   0.0146871   0.0103495   0.0000000), wk =   0.0277778
        k(   10) = (   0.0146871   0.0259455   0.0000000), wk =   0.0277778
        k(   11) = (   0.0146871   0.0415415   0.0000000), wk =   0.0277778
        k(   12) = (   0.0146871   0.0571375   0.0000000), wk =   0.0277778
        k(   13) = (   0.0146871   0.0727336   0.0000000), wk =   0.0277778
        k(   14) = (   0.0146871  -0.0988227   0.0000000), wk =   0.0277778
        k(   15) = (   0.0146871  -0.0832267   0.0000000), wk =   0.0277778
        k(   16) = (   0.0146871  -0.0676307   0.0000000), wk =   0.0277778
        k(   17) = (   0.0146871  -0.0520346   0.0000000), wk =   0.0277778
        k(   18) = (   0.0146871  -0.0364386   0.0000000), wk =   0.0277778
        k(   19) = (   0.0146871  -0.0208426   0.0000000), wk =   0.0277778
        k(   20) = (   0.0293741  -0.0104931   0.0000000), wk =   0.0277778
        k(   21) = (   0.0293741   0.0051029   0.0000000), wk =   0.0277778
        k(   22) = (   0.0293741   0.0206989   0.0000000), wk =   0.0277778
        k(   23) = (   0.0293741   0.0362950   0.0000000), wk =   0.0277778
        k(   24) = (   0.0293741   0.0518910   0.0000000), wk =   0.0277778
        k(   25) = (   0.0293741   0.0674870   0.0000000), wk =   0.0277778
        k(   26) = (   0.0293741  -0.1040693   0.0000000), wk =   0.0277778
        k(   27) = (   0.0293741  -0.0884732   0.0000000), wk =   0.0277778
        k(   28) = (   0.0293741  -0.0728772   0.0000000), wk =   0.0277778
        k(   29) = (   0.0293741  -0.0572812   0.0000000), wk =   0.0277778
        k(   30) = (   0.0293741  -0.0416852   0.0000000), wk =   0.0277778
        k(   31) = (   0.0293741  -0.0260891   0.0000000), wk =   0.0277778
        k(   32) = (   0.0440612  -0.0157397   0.0000000), wk =   0.0277778
        k(   33) = (   0.0440612  -0.0001436   0.0000000), wk =   0.0277778
        k(   34) = (   0.0440612   0.0154524   0.0000000), wk =   0.0277778
        k(   35) = (   0.0440612   0.0310484   0.0000000), wk =   0.0277778
        k(   36) = (   0.0440612   0.0466444   0.0000000), wk =   0.0277778
        k(   37) = (   0.0440612   0.0622405   0.0000000), wk =   0.0277778
        k(   38) = (   0.0440612  -0.1093158   0.0000000), wk =   0.0277778
        k(   39) = (   0.0440612  -0.0937198   0.0000000), wk =   0.0277778
        k(   40) = (   0.0440612  -0.0781238   0.0000000), wk =   0.0277778
        k(   41) = (   0.0440612  -0.0625277   0.0000000), wk =   0.0277778
        k(   42) = (   0.0440612  -0.0469317   0.0000000), wk =   0.0277778
        k(   43) = (   0.0440612  -0.0313357   0.0000000), wk =   0.0277778
        k(   44) = (   0.0587482  -0.0209862   0.0000000), wk =   0.0277778
        k(   45) = (   0.0587482  -0.0053902   0.0000000), wk =   0.0277778
        k(   46) = (   0.0587482   0.0102058   0.0000000), wk =   0.0277778
        k(   47) = (   0.0587482   0.0258019   0.0000000), wk =   0.0277778
        k(   48) = (   0.0587482   0.0413979   0.0000000), wk =   0.0277778
        k(   49) = (   0.0587482   0.0569939   0.0000000), wk =   0.0277778
        k(   50) = (   0.0587482  -0.1145624   0.0000000), wk =   0.0277778
        k(   51) = (   0.0587482  -0.0989663   0.0000000), wk =   0.0277778
        k(   52) = (   0.0587482  -0.0833703   0.0000000), wk =   0.0277778
        k(   53) = (   0.0587482  -0.0677743   0.0000000), wk =   0.0277778
        k(   54) = (   0.0587482  -0.0521783   0.0000000), wk =   0.0277778
        k(   55) = (   0.0587482  -0.0365822   0.0000000), wk =   0.0277778
        k(   56) = (   0.0734353  -0.0262328   0.0000000), wk =   0.0277778
        k(   57) = (   0.0734353  -0.0106367   0.0000000), wk =   0.0277778
        k(   58) = (   0.0734353   0.0049593   0.0000000), wk =   0.0277778
        k(   59) = (   0.0734353   0.0205553   0.0000000), wk =   0.0277778
        k(   60) = (   0.0734353   0.0361513   0.0000000), wk =   0.0277778
        k(   61) = (   0.0734353   0.0517473   0.0000000), wk =   0.0277778
        k(   62) = (   0.0734353  -0.1198089   0.0000000), wk =   0.0277778
        k(   63) = (   0.0734353  -0.1042129   0.0000000), wk =   0.0277778
        k(   64) = (   0.0734353  -0.0886169   0.0000000), wk =   0.0277778
        k(   65) = (   0.0734353  -0.0730208   0.0000000), wk =   0.0277778
        k(   66) = (   0.0734353  -0.0574248   0.0000000), wk =   0.0277778
        k(   67) = (   0.0734353  -0.0418288   0.0000000), wk =   0.0277778
        k(   68) = (  -0.0881223   0.0314793   0.0000000), wk =   0.0138889
        k(   69) = (  -0.0881223   0.0470754   0.0000000), wk =   0.0277778
        k(   70) = (  -0.0881223   0.0626714   0.0000000), wk =   0.0277778
        k(   71) = (  -0.0881223   0.0782674   0.0000000), wk =   0.0277778
        k(   72) = (  -0.0881223   0.0938634   0.0000000), wk =   0.0277778
        k(   73) = (  -0.0881223   0.1094595   0.0000000), wk =   0.0277778
        k(   74) = (  -0.0881223  -0.0620968   0.0000000), wk =   0.0138889

     Initial potential from superposition of free atoms

     starting charge  161.98657, renormalised to  162.00000

     negative rho (up, down):  4.636E-04 0.000E+00

     %%%%%%%%%%%%%%%%%%%%%%%%%%%%%%%%%%%%%%%%%%%%%%%%%%%%%%%%%%%%%%%%%%%%%%%%
     %                                                                      %
     % You are using vdW-DF, which was implemented by the Thonhauser group. %
     % Please cite the following two papers that made this development      %
     % possible and the two reviews that describe the various versions:     %
     %                                                                      %
     %   T. Thonhauser et al., PRL 115, 136402 (2015).                      %
     %   T. Thonhauser et al., PRB 76, 125112 (2007).                       %
     %   K. Berland et al., Rep. Prog. Phys. 78, 066501 (2015).             %
     %   D.C. Langreth et al., J. Phys.: Condens. Matter 21, 084203 (2009). %
     %                                                                      %
     %                                                                      %
     % If you are calculating the stress with vdW-DF, please also cite:     %
     %                                                                      %
     %   R. Sabatini et al., J. Phys.: Condens. Matter 24, 424209 (2012).   %
     %                                                                      %
     %%%%%%%%%%%%%%%%%%%%%%%%%%%%%%%%%%%%%%%%%%%%%%%%%%%%%%%%%%%%%%%%%%%%%%%%

     Adding external electric field

     Computed dipole along edir(3) :
        Dipole                0.0002 Ry au,          0.0005 Debye
        Dipole field          0.0000 Ry au,

        Potential amp.       -0.0000 Ry
        Total length         45.3950 bohr

     Starting wfcs are  120 randomized atomic wfcs

     Self-consistent Calculation

     iteration #  1     ecut=    55.12 Ry     beta= 0.10
     Davidson diagonalization with overlap
     ethr =  1.00E-02,  avg # of iterations =  2.8

[...]

     total energy              =   -1832.74255181 Ry
     estimated scf accuracy    <       4.38748026 Ry

[...]

     iteration #  7     ecut=    55.12 Ry     beta= 0.10
     Davidson diagonalization with overlap
     c_bands:  1 eigenvalues not converged
     ethr =  2.17E-05,  avg # of iterations =  7.4

[...]

     iteration # 10     ecut=    55.12 Ry     beta= 0.10
     Davidson diagonalization with overlap
     c_bands:  1 eigenvalues not converged
     ethr =  3.38E-06,  avg # of iterations =  3.0

[...]

     total energy              =   -1832.99280423 Ry
     estimated scf accuracy    <       0.00001171 Ry

     iteration # 16     ecut=    55.12 Ry     beta= 0.10
     Davidson diagonalization with overlap
     ethr =  6.48E-09,  avg # of iterations =  4.1

[...]

     Adding external electric field

     Computed dipole along edir(3) :
        Dipole                0.0246 Ry au,          0.0625 Debye
        Dipole field          0.0001 Ry au,

        Potential amp.       -0.0056 Ry
        Total length         45.3950 bohr

     End of self-consistent calculation

          k = 0.0000 0.0000 0.0000 ( 34885 PWs)   bands (ev):

   -77.7382 -77.7348 -77.6102 -77.6070 -77.5727 -77.5694 -60.0172 -60.0061
   -60.0043 -59.9932 -59.3013 -59.2879 -39.5221 -39.5213 -39.5210 -39.5169
   -39.5042 -39.4323 -39.4213 -39.4081 -39.4011 -39.3915 -39.3769 -39.3758
   -39.2902 -39.2899 -39.2771 -39.2692 -39.2634 -39.2545 -28.6340 -28.6292
   -28.6220 -28.6106 -28.6027 -28.5999 -28.4499 -28.4351 -28.4349 -28.4163
   -28.3354 -28.3219 -28.0181 -27.8671 -27.8636 -27.8429 -27.8309 -27.7134
    -5.3282  -3.6146  -2.6894  -2.3255  -2.1434  -2.0819  -2.0502  -1.9349
    -1.7664  -1.6455  -1.1972  -1.1668  -1.1357  -0.0530   0.0076   0.0545
     0.0807   0.1173   0.1354   0.2013   0.2530   0.5206   0.8310   1.0786
     1.0943   1.5262   1.5451   1.6898   1.9199   2.1973   2.2546   2.3123
     2.5879   2.7663   2.9684   3.0984   3.7228   3.7441   3.8441   4.0506
     4.2542   4.3803   4.5369   4.6150   4.8080   4.8955   5.1059   5.1375
     5.5264

[...]

          k = 0.0734-0.0418 0.0000 ( 34831 PWs)   bands (ev):

[...]

          k =-0.0881 0.0315 0.0000 ( 34846 PWs)   bands (ev):

[...]

          k =-0.0881-0.0621 0.0000 ( 34878 PWs)   bands (ev):

   -77.7382 -77.7348 -77.6103 -77.6069 -77.5727 -77.5693 -60.0176 -60.0066
   -60.0045 -59.9934 -59.3019 -59.2880 -39.5192 -39.5155 -39.5117 -39.5079
   -39.4987 -39.4339 -39.4251 -39.4064 -39.3939 -39.3872 -39.3822 -39.3685
   -39.2891 -39.2793 -39.2719 -39.2627 -39.2580 -39.2511 -28.6572 -28.6555
   -28.6375 -28.6136 -28.6126 -28.5880 -28.5034 -28.4777 -28.4593 -28.4413
   -28.3433 -28.3298 -28.0445 -27.9013 -27.8666 -27.8537 -27.8375 -27.7221
    -3.1715  -3.0337  -1.8488  -1.7394  -1.4003  -1.3731  -1.0942  -0.9563
    -0.8367  -0.7030  -0.2114  -0.1957  -0.0625   0.0675   0.0748   0.3161
     0.3287   0.3598   0.5004   0.7862   0.8483   1.0789   1.0875   1.1449
     1.2901   1.3728   1.3795   1.4421   1.5332   1.5557   1.5994   1.7514
     1.7682   1.9327   1.9930   2.1498   2.1531   2.4498   2.4659   2.7400
     2.7967   3.0117   3.7451   3.7741   3.8676   4.0518   4.4071   4.4171
     4.4830

     the Fermi energy is     2.0389 ev

!    total energy              =   -1832.99280515 Ry
     estimated scf accuracy    <       0.00000309 Ry
     smearing contrib. (-TS)   =      -0.06625030 Ry
     internal energy E=F+TS    =   -1832.92655485 Ry

     The total energy is F=E-TS. E is the sum of the following terms:
     one-electron contribution =  -12842.46760874 Ry
     hartree contribution      =    6407.77005204 Ry
     xc contribution           =    -502.68671007 Ry
     ewald contribution        =    5104.45771042 Ry
     electric field correction =       0.00000151 Ry

     convergence has been achieved in  16 iterations

     negative rho (up, down):  1.049E-04 0.000E+00

     Forces acting on atoms (cartesian axes, Ry/au):

     atom    1 type  1   force =    -0.00152849   -0.00107861    0.00366739
     atom    2 type  1   force =    -0.00152947   -0.00107644    0.00367004
     atom    3 type  2   force =    -0.00006416   -0.00004691    0.01828582
     atom    4 type  2   force =    -0.00006350   -0.00004352    0.01828833
     atom    5 type  1   force =     0.00043647    0.00030631   -0.01253187
     atom    6 type  1   force =     0.00042889    0.00030366   -0.01252753
     atom    7 type  2   force =     0.00031183    0.00022899   -0.00537845
     atom    8 type  2   force =     0.00031935    0.00021523   -0.00537631
     atom    9 type  1   force =     0.00044115    0.00031403   -0.00390478
     atom   10 type  1   force =     0.00045836    0.00031962   -0.00390192
     atom   11 type  2   force =     0.00040383    0.00026837   -0.00015226
     atom   12 type  2   force =     0.00038575    0.00028927   -0.00013846

     Total force =     0.033272     Total SCF correction =     0.008868
     SCF correction compared to forces is large: reduce conv_thr to get better values

     Writing output data file ./Hf2Re2/Hf2Re2_beef.save/

     General routines

     Parallel routines

   This run was terminated on:  17:56:50  24Jun2022

   JOB DONE.