     Program PWSCF v.6.6 starts on 24Jun2022 at 17:56:56

     R & G space division:  proc/nbgrp/npool/nimage =      37
     Fft bands division:     nmany     =       1
     Reading input from Hf2Ta2.in
Warning: card &CELL ignored
Warning: card / ignored

     Current dimensions of program PWSCF are:
     Max number of different atomic species (ntypx) = 10
     Max number of k-points (npk) =  40000
     Max angular momentum in pseudopotentials (lmaxx) =  3
     Presently stress not available with electric field and gates

     Message from routine cell_base_init:
     DEPRECATED: use true lattice parameter, not A to a.u. conversion factor
     file Ta.pbe-spfn-rrkjus_psl.1.0.0.UPF: wavefunction(s)  5S 5P renormalized

     IMPORTANT: XC functional enforced from input :
     Exchange-correlation= BEEF-VDW
                           (   1   4  43  14   2   0   0)
     Any further DFT definition will be discarded
     Please, verify this is what you really want

     Subspace diagonalization in iterative solution of the eigenvalue problem:
     a serial algorithm will be used

     Found symmetry operation: I + (  0.5000  0.0000  0.0000)
     This is a supercell, fractional translations are disabled

     bravais-lattice index     =            0
     lattice parameter (alat)  =       1.8897  a.u.
     unit-cell volume          =    5485.9689 (a.u.)^3
     number of atoms/cell      =           12
     number of atomic types    =            2
     number of electrons       =       234.00
     number of Kohn-Sham states=          140
     kinetic-energy cutoff     =      55.1240  Ry
     charge density cutoff     =     551.2396  Ry
     convergence threshold     =      1.0E-05
     mixing beta               =       0.1000
     number of iterations used =           10  plain     mixing
     Exchange-correlation= BEEF-VDW
                           (   1   4  43  14   2   0   0)

     celldm(1)=   1.889726  celldm(2)=   0.000000  celldm(3)=   0.000000
     celldm(4)=   0.000000  celldm(5)=   0.000000  celldm(6)=   0.000000

     crystal axes: (cart. coord. in units of alat)
               a(1) = (   5.914965   0.000000   0.000000 )
               a(2) = (  -2.957482   5.500320   0.000000 )
               a(3) = (   0.000000   0.000000  24.987148 )

     reciprocal axes: (cart. coord. in units 2 pi/alat)
               b(1) = (  0.169063  0.090904 -0.000000 )
               b(2) = (  0.000000  0.181808  0.000000 )
               b(3) = (  0.000000 -0.000000  0.040021 )

     PseudoPot. # 1 for Hf read from file:
     ../pseudo/Hf.pbe-spn-rrkjus_psl.1.0.0.UPF
     MD5 check sum: 9605440c6f839e558204c6a924125fd0
     Pseudo is Ultrasoft + core correction, Zval = 12.0
     Generated using "atomic" code by A. Dal Corso v.6.2.2
     Using radial grid of 1271 points,  6 beta functions with:
                l(1) =   0
                l(2) =   0
                l(3) =   1
                l(4) =   1
                l(5) =   2
                l(6) =   2
     Q(r) pseudized with 0 coefficients

     PseudoPot. # 2 for Ta read from file:
     ../pseudo/Ta.pbe-spfn-rrkjus_psl.1.0.0.UPF
     MD5 check sum: 39d7d349fe394e56adf8454eb9315fbb
     Pseudo is Ultrasoft + core correction, Zval = 27.0
     Generated using "atomic" code by A. Dal Corso v.6.3
     Using radial grid of 1273 points,  8 beta functions with:
                l(1) =   0
                l(2) =   0
                l(3) =   1
                l(4) =   1
                l(5) =   2
                l(6) =   2
                l(7) =   3
                l(8) =   3
     Q(r) pseudized with 0 coefficients

     atomic species   valence    mass     pseudopotential
        Hf            12.00   178.49000     Hf( 1.00)
        Ta            27.00   180.94788     Ta( 1.00)

     No symmetry found

   Cartesian axes

     site n.     atom                  positions (alat units)
         1           Hf  tau(   1) = (   0.0000000   0.0000000  10.0000000  )
         2           Hf  tau(   2) = (   2.9574825   0.0000000  10.0000000  )
         3           Ta  tau(   3) = (   1.4787412   2.7501599  10.0000000  )
         4           Ta  tau(   4) = (  -1.4787412   2.7501599  10.0000000  )
         5           Hf  tau(   5) = (   2.9574825   1.5902171  12.4935742  )
         6           Hf  tau(   6) = (   0.0000000   1.5902171  12.4935742  )
         7           Ta  tau(   7) = (  -1.4787412   4.3403770  12.4935742  )
         8           Ta  tau(   8) = (   1.4787412   4.3403770  12.4935742  )
         9           Hf  tau(   9) = (  -0.0001352   3.2402426  14.9977231  )
        10           Hf  tau(  10) = (   2.9573457   3.2402484  14.9977314  )
        11           Ta  tau(  11) = (   4.4362092   0.3883103  14.8001991  )
        12           Ta  tau(  12) = (   1.4787193   0.3883052  14.8001955  )

     number of k points=    74  Fermi-Dirac smearing, width (Ry)=  0.0100
                       cart. coord. in units 2pi/alat
        k(    1) = (   0.0000000   0.0000000   0.0000000), wk =   0.0138889
        k(    2) = (   0.0000000   0.0151506   0.0000000), wk =   0.0277778
        k(    3) = (   0.0000000   0.0303013   0.0000000), wk =   0.0277778
        k(    4) = (   0.0000000   0.0454519   0.0000000), wk =   0.0277778
        k(    5) = (   0.0000000   0.0606025   0.0000000), wk =   0.0277778
        k(    6) = (   0.0000000   0.0757532   0.0000000), wk =   0.0277778
        k(    7) = (   0.0000000  -0.0909038   0.0000000), wk =   0.0138889
        k(    8) = (   0.0140886   0.0075753   0.0000000), wk =   0.0277778
        k(    9) = (   0.0140886   0.0227259   0.0000000), wk =   0.0277778
        k(   10) = (   0.0140886   0.0378766   0.0000000), wk =   0.0277778
        k(   11) = (   0.0140886   0.0530272   0.0000000), wk =   0.0277778
        k(   12) = (   0.0140886   0.0681779   0.0000000), wk =   0.0277778
        k(   13) = (   0.0140886   0.0833285   0.0000000), wk =   0.0277778
        k(   14) = (   0.0140886  -0.0833285   0.0000000), wk =   0.0277778
        k(   15) = (   0.0140886  -0.0681779   0.0000000), wk =   0.0277778
        k(   16) = (   0.0140886  -0.0530272   0.0000000), wk =   0.0277778
        k(   17) = (   0.0140886  -0.0378766   0.0000000), wk =   0.0277778
        k(   18) = (   0.0140886  -0.0227260   0.0000000), wk =   0.0277778
        k(   19) = (   0.0140886  -0.0075753   0.0000000), wk =   0.0277778
        k(   20) = (   0.0281771   0.0151506   0.0000000), wk =   0.0277778
        k(   21) = (   0.0281771   0.0303013   0.0000000), wk =   0.0277778
        k(   22) = (   0.0281771   0.0454519   0.0000000), wk =   0.0277778
        k(   23) = (   0.0281771   0.0606025   0.0000000), wk =   0.0277778
        k(   24) = (   0.0281771   0.0757532   0.0000000), wk =   0.0277778
        k(   25) = (   0.0281771   0.0909038   0.0000000), wk =   0.0277778
        k(   26) = (   0.0281771  -0.0757532   0.0000000), wk =   0.0277778
        k(   27) = (   0.0281771  -0.0606025   0.0000000), wk =   0.0277778
        k(   28) = (   0.0281771  -0.0454519   0.0000000), wk =   0.0277778
        k(   29) = (   0.0281771  -0.0303013   0.0000000), wk =   0.0277778
        k(   30) = (   0.0281771  -0.0151506   0.0000000), wk =   0.0277778
        k(   31) = (   0.0281771  -0.0000000   0.0000000), wk =   0.0277778
        k(   32) = (   0.0422657   0.0227259   0.0000000), wk =   0.0277778
        k(   33) = (   0.0422657   0.0378766   0.0000000), wk =   0.0277778
        k(   34) = (   0.0422657   0.0530272   0.0000000), wk =   0.0277778
        k(   35) = (   0.0422657   0.0681778   0.0000000), wk =   0.0277778
        k(   36) = (   0.0422657   0.0833285   0.0000000), wk =   0.0277778
        k(   37) = (   0.0422657   0.0984791   0.0000000), wk =   0.0277778
        k(   38) = (   0.0422657  -0.0681779   0.0000000), wk =   0.0277778
        k(   39) = (   0.0422657  -0.0530272   0.0000000), wk =   0.0277778
        k(   40) = (   0.0422657  -0.0378766   0.0000000), wk =   0.0277778
        k(   41) = (   0.0422657  -0.0227260   0.0000000), wk =   0.0277778
        k(   42) = (   0.0422657  -0.0075753   0.0000000), wk =   0.0277778
        k(   43) = (   0.0422657   0.0075753   0.0000000), wk =   0.0277778
        k(   44) = (   0.0563542   0.0303013   0.0000000), wk =   0.0277778
        k(   45) = (   0.0563542   0.0454519   0.0000000), wk =   0.0277778
        k(   46) = (   0.0563542   0.0606025   0.0000000), wk =   0.0277778
        k(   47) = (   0.0563542   0.0757532   0.0000000), wk =   0.0277778
        k(   48) = (   0.0563542   0.0909038   0.0000000), wk =   0.0277778
        k(   49) = (   0.0563542   0.1060544   0.0000000), wk =   0.0277778
        k(   50) = (   0.0563542  -0.0606025   0.0000000), wk =   0.0277778
        k(   51) = (   0.0563542  -0.0454519   0.0000000), wk =   0.0277778
        k(   52) = (   0.0563542  -0.0303013   0.0000000), wk =   0.0277778
        k(   53) = (   0.0563542  -0.0151506   0.0000000), wk =   0.0277778
        k(   54) = (   0.0563542  -0.0000000   0.0000000), wk =   0.0277778
        k(   55) = (   0.0563542   0.0151506   0.0000000), wk =   0.0277778
        k(   56) = (   0.0704428   0.0378766   0.0000000), wk =   0.0277778
        k(   57) = (   0.0704428   0.0530272   0.0000000), wk =   0.0277778
        k(   58) = (   0.0704428   0.0681778   0.0000000), wk =   0.0277778
        k(   59) = (   0.0704428   0.0833285   0.0000000), wk =   0.0277778
        k(   60) = (   0.0704428   0.0984791   0.0000000), wk =   0.0277778
        k(   61) = (   0.0704428   0.1136297   0.0000000), wk =   0.0277778
        k(   62) = (   0.0704428  -0.0530272   0.0000000), wk =   0.0277778
        k(   63) = (   0.0704428  -0.0378766   0.0000000), wk =   0.0277778
        k(   64) = (   0.0704428  -0.0227260   0.0000000), wk =   0.0277778
        k(   65) = (   0.0704428  -0.0075753   0.0000000), wk =   0.0277778
        k(   66) = (   0.0704428   0.0075753   0.0000000), wk =   0.0277778
        k(   67) = (   0.0704428   0.0227259   0.0000000), wk =   0.0277778
        k(   68) = (  -0.0845314  -0.0454519   0.0000000), wk =   0.0138889
        k(   69) = (  -0.0845314  -0.0303013   0.0000000), wk =   0.0277778
        k(   70) = (  -0.0845314  -0.0151506   0.0000000), wk =   0.0277778
        k(   71) = (  -0.0845314   0.0000000   0.0000000), wk =   0.0277778
        k(   72) = (  -0.0845314   0.0151506   0.0000000), wk =   0.0277778
        k(   73) = (  -0.0845314   0.0303013   0.0000000), wk =   0.0277778
        k(   74) = (  -0.0845314  -0.1363557   0.0000000), wk =   0.0138889

     Initial potential from superposition of free atoms

     starting charge  233.98331, renormalised to  234.00000

     negative rho (up, down):  3.786E-04 0.000E+00

     %%%%%%%%%%%%%%%%%%%%%%%%%%%%%%%%%%%%%%%%%%%%%%%%%%%%%%%%%%%%%%%%%%%%%%%%
     %                                                                      %
     % You are using vdW-DF, which was implemented by the Thonhauser group. %
     % Please cite the following two papers that made this development      %
     % possible and the two reviews that describe the various versions:     %
     %                                                                      %
     %   T. Thonhauser et al., PRL 115, 136402 (2015).                      %
     %   T. Thonhauser et al., PRB 76, 125112 (2007).                       %
     %   K. Berland et al., Rep. Prog. Phys. 78, 066501 (2015).             %
     %   D.C. Langreth et al., J. Phys.: Condens. Matter 21, 084203 (2009). %
     %                                                                      %
     %                                                                      %
     % If you are calculating the stress with vdW-DF, please also cite:     %
     %                                                                      %
     %   R. Sabatini et al., J. Phys.: Condens. Matter 24, 424209 (2012).   %
     %                                                                      %
     %%%%%%%%%%%%%%%%%%%%%%%%%%%%%%%%%%%%%%%%%%%%%%%%%%%%%%%%%%%%%%%%%%%%%%%%

     Adding external electric field

     Computed dipole along edir(3) :
        Dipole                0.0008 Ry au,          0.0021 Debye
        Dipole field          0.0000 Ry au,

        Potential amp.       -0.0002 Ry
        Total length         46.0384 bohr

     Starting wfcs are  162 randomized atomic wfcs

     Self-consistent Calculation

     iteration #  1     ecut=    55.12 Ry     beta= 0.10
     Davidson diagonalization with overlap
     ethr =  1.00E-02,  avg # of iterations =  3.0

[...]

     total energy              =   -4848.20860901 Ry
     estimated scf accuracy    <       6.39040213 Ry

[...]

     iteration #  8     ecut=    55.12 Ry     beta= 0.10
     Davidson diagonalization with overlap
     c_bands:  1 eigenvalues not converged
     c_bands:  1 eigenvalues not converged
     c_bands:  1 eigenvalues not converged
     c_bands:  1 eigenvalues not converged
     c_bands:  1 eigenvalues not converged
     c_bands:  1 eigenvalues not converged
     c_bands:  1 eigenvalues not converged
     ethr =  1.42E-05,  avg # of iterations = 12.5

[...]

     iteration # 10     ecut=    55.12 Ry     beta= 0.10
     Davidson diagonalization with overlap
     c_bands:  1 eigenvalues not converged
     c_bands:  1 eigenvalues not converged
     c_bands:  1 eigenvalues not converged
     ethr =  9.74E-07,  avg # of iterations =  9.4

[...]

     total energy              =   -4848.80889711 Ry
     estimated scf accuracy    <       0.00002002 Ry

     iteration # 14     ecut=    55.12 Ry     beta= 0.10
     Davidson diagonalization with overlap
     ethr =  8.55E-09,  avg # of iterations =  4.7

[...]

     Adding external electric field

     Computed dipole along edir(3) :
        Dipole                0.0635 Ry au,          0.1614 Debye
        Dipole field          0.0001 Ry au,

        Potential amp.       -0.0134 Ry
        Total length         46.0384 bohr

     End of self-consistent calculation

          k = 0.0000 0.0000 0.0000 ( 37911 PWs)   bands (ev):

   -66.2072 -66.1763 -66.0949 -66.0635 -66.0154 -65.9843 -60.3249 -60.2783
   -60.2489 -60.2022 -59.7955 -59.7481 -32.7026 -32.6989 -32.6534 -32.6247
   -32.5709 -32.5174 -32.4763 -32.4575 -32.4052 -32.3969 -32.3260 -32.2942
   -32.2167 -32.1452 -32.0956 -32.0841 -32.0412 -32.0176 -29.1494 -29.0996
   -28.9526 -28.8717 -28.8537 -28.7689 -28.7511 -28.7197 -28.6826 -28.6755
   -28.6046 -28.4074 -28.3553 -28.2796 -28.2345 -28.2038 -28.1632 -27.9670
   -17.9088 -17.9072 -17.8983 -17.8975 -17.8960 -17.8943 -17.8909 -17.8887
   -17.8850 -17.8750 -17.8668 -17.8643 -17.8426 -17.8392 -17.7863 -17.7845
   -17.7702 -17.7678 -17.7650 -17.7640 -17.7622 -17.7588 -17.7579 -17.7514
   -17.7493 -17.7472 -17.7254 -17.7234 -17.6947 -17.6924 -17.6798 -17.6746
   -17.6738 -17.6737 -17.6707 -17.6704 -17.6548 -17.6542 -17.6535 -17.6524
   -17.6500 -17.6490  -4.8790  -3.3660  -2.1758  -1.5060  -1.4736  -1.3905
    -1.3754  -1.3002  -1.1522  -0.7691  -0.5780  -0.5682  -0.2946  -0.2181
    -0.1331   0.6652   0.8396   0.9447   1.6549   1.6872   1.9536   2.0123
     2.1762   2.3294   2.4312   2.5117   2.5825   2.7549   2.7678   2.8593
     2.8621   2.9750   3.0549   3.3173   3.5053   3.5628   3.5745   3.6807
     3.9062   3.9287   3.9723   4.0109   4.0396   4.3519   4.8532   5.0175
     5.1023   5.2132   5.2677   5.6253

[...]

          k = 0.0704 0.0227 0.0000 ( 37894 PWs)   bands (ev):

[...]

          k =-0.0845-0.0455 0.0000 ( 37904 PWs)   bands (ev):

[...]

          k =-0.0845-0.1364 0.0000 ( 37904 PWs)   bands (ev):

   -66.1918 -66.1917 -66.0792 -66.0792 -65.9999 -65.9998 -60.3017 -60.3017
   -60.2256 -60.2256 -59.7719 -59.7719 -32.6578 -32.6578 -32.4893 -32.4892
   -32.4356 -32.4356 -32.4256 -32.4256 -32.3735 -32.3734 -32.3553 -32.3553
   -32.2992 -32.2992 -32.2527 -32.2527 -32.0682 -32.0682 -28.9180 -28.9180
   -28.8095 -28.8095 -28.7935 -28.7935 -28.7424 -28.7424 -28.7270 -28.7270
   -28.6490 -28.6490 -28.3577 -28.3577 -28.2414 -28.2414 -28.2056 -28.2056
   -17.9014 -17.9014 -17.9009 -17.9009 -17.8968 -17.8968 -17.8880 -17.8880
   -17.8834 -17.8833 -17.8551 -17.8551 -17.8537 -17.8537 -17.7773 -17.7773
   -17.7751 -17.7751 -17.7631 -17.7631 -17.7620 -17.7620 -17.7559 -17.7559
   -17.7386 -17.7386 -17.7367 -17.7367 -17.6842 -17.6842 -17.6798 -17.6798
   -17.6766 -17.6766 -17.6640 -17.6640 -17.6628 -17.6627 -17.6538 -17.6538
   -17.6528 -17.6527  -3.0569  -3.0569  -1.6972  -1.6972  -0.9025  -0.9025
    -0.5529  -0.5529  -0.3377  -0.3377   0.4319   0.4319   0.7220   0.7220
     0.8829   0.8829   0.9981   0.9981   1.2108   1.2108   1.4299   1.4299
     1.5999   1.5999   1.7875   1.7875   1.8599   1.8599   2.1170   2.1171
     2.3726   2.3726   2.6928   2.6928   2.7850   2.7850   3.0554   3.0554
     3.7565   3.7565   4.0167   4.0167   4.3023   4.3023   4.6172   4.6172
     4.6986   4.6986   4.9402   4.9402

     the Fermi energy is     2.1471 ev

!    total energy              =   -4848.80890317 Ry
     estimated scf accuracy    <       0.00000576 Ry
     smearing contrib. (-TS)   =      -0.08621490 Ry
     internal energy E=F+TS    =   -4848.72268827 Ry

     The total energy is F=E-TS. E is the sum of the following terms:
     one-electron contribution =  -27519.88754745 Ry
     hartree contribution      =   13852.90222971 Ry
     xc contribution           =    -670.30737152 Ry
     ewald contribution        =    9488.56999176 Ry
     electric field correction =       0.00000924 Ry

     convergence has been achieved in  14 iterations

     negative rho (up, down):  2.692E-04 0.000E+00

     Forces acting on atoms (cartesian axes, Ry/au):

     atom    1 type  1   force =     0.00000186   -0.01023406   -0.00123246
     atom    2 type  1   force =    -0.00000149   -0.01023482   -0.00123179
     atom    3 type  2   force =    -0.00000372    0.01121996    0.03188620
     atom    4 type  2   force =     0.00000286    0.01120753    0.03187981
     atom    5 type  1   force =     0.00000197    0.01052425   -0.01086318
     atom    6 type  1   force =     0.00000331    0.01052318   -0.01086532
     atom    7 type  2   force =    -0.00000202   -0.01262362   -0.01554357
     atom    8 type  2   force =    -0.00000373   -0.01261770   -0.01553361
     atom    9 type  1   force =     0.00000653    0.00132641   -0.00281680
     atom   10 type  1   force =     0.00000899    0.00132630   -0.00281781
     atom   11 type  2   force =    -0.00000562   -0.00021702   -0.00143818
     atom   12 type  2   force =    -0.00000893   -0.00020041   -0.00142329

     Total force =     0.061479     Total SCF correction =     0.008077
     SCF correction compared to forces is large: reduce conv_thr to get better values

     Writing output data file ./Hf2Ta2/Hf2Ta2_beef.save/

     General routines

     Parallel routines

   This run was terminated on:  20:28:36  24Jun2022

   JOB DONE.