     Program PWSCF v.6.6 starts on 24Jun2022 at 20:28:40

     R & G space division:  proc/nbgrp/npool/nimage =      37
     Fft bands division:     nmany     =       1
     Reading input from Hf2W2.in
Warning: card &CELL ignored
Warning: card / ignored

     Current dimensions of program PWSCF are:
     Max number of different atomic species (ntypx) = 10
     Max number of k-points (npk) =  40000
     Max angular momentum in pseudopotentials (lmaxx) =  3
     Presently stress not available with electric field and gates

     Message from routine cell_base_init:
     DEPRECATED: use true lattice parameter, not A to a.u. conversion factor
     Message from routine emend_upf/check:
     BEWARE !!! Possible out of bounds while fixing pseudo
     Message from routine emend_upf/check:
     BEWARE !!! Possible out of bounds while fixing pseudo
     Message from routine read_upf:
     Pseudo file W.pbe-spn-rrkjus_psl.0.2.3.UPF has been fixed on the fly.
     To avoid this message in the future, permanently fix
     your pseudo files following these instructions:

     IMPORTANT: XC functional enforced from input :
     Exchange-correlation= BEEF-VDW
                           (   1   4  43  14   2   0   0)
     Any further DFT definition will be discarded
     Please, verify this is what you really want

     Subspace diagonalization in iterative solution of the eigenvalue problem:
     a serial algorithm will be used

     Found symmetry operation: I + ( -0.5000  0.0000  0.0000)
     This is a supercell, fractional translations are disabled

     bravais-lattice index     =            0
     lattice parameter (alat)  =       1.8897  a.u.
     unit-cell volume          =    5191.3129 (a.u.)^3
     number of atoms/cell      =           12
     number of atomic types    =            2
     number of electrons       =       156.00
     number of Kohn-Sham states=           94
     kinetic-energy cutoff     =      55.1240  Ry
     charge density cutoff     =     551.2396  Ry
     convergence threshold     =      1.0E-05
     mixing beta               =       0.1000
     number of iterations used =           10  plain     mixing
     Exchange-correlation= BEEF-VDW
                           (   1   4  43  14   2   0   0)

     celldm(1)=   1.889726  celldm(2)=   0.000000  celldm(3)=   0.000000
     celldm(4)=   0.000000  celldm(5)=   0.000000  celldm(6)=   0.000000

     crystal axes: (cart. coord. in units of alat)
               a(1) = (   5.663236   0.000000   0.000000 )
               a(2) = (  -2.831618   5.467451   0.000000 )
               a(3) = (   0.000000   0.000000  24.844550 )

     reciprocal axes: (cart. coord. in units 2 pi/alat)
               b(1) = (  0.176577  0.091450 -0.000000 )
               b(2) = (  0.000000  0.182901  0.000000 )
               b(3) = (  0.000000 -0.000000  0.040250 )

     PseudoPot. # 1 for Hf read from file:
     ../pseudo/Hf.pbe-spn-rrkjus_psl.1.0.0.UPF
     MD5 check sum: 9605440c6f839e558204c6a924125fd0
     Pseudo is Ultrasoft + core correction, Zval = 12.0
     Generated using "atomic" code by A. Dal Corso v.6.2.2
     Using radial grid of 1271 points,  6 beta functions with:
                l(1) =   0
                l(2) =   0
                l(3) =   1
                l(4) =   1
                l(5) =   2
                l(6) =   2
     Q(r) pseudized with 0 coefficients

     PseudoPot. # 2 for W  read from file:
     ../pseudo/W.pbe-spn-rrkjus_psl.0.2.3.UPF
     MD5 check sum: 25b665cf2bbae626ad8d9f1bc024df95
     Pseudo is Ultrasoft + core correction, Zval = 14.0
     Generated using "atomic" code by A. Dal Corso v.5.0.2 svn rev. 10551
     Using radial grid of 1273 points,  6 beta functions with:
                l(1) =   0
                l(2) =   0
                l(3) =   1
                l(4) =   1
                l(5) =   2
                l(6) =   2
     Q(r) pseudized with 0 coefficients

     atomic species   valence    mass     pseudopotential
        Hf            12.00   178.49000     Hf( 1.00)
        W             14.00   183.84000     W ( 1.00)

     No symmetry found

   Cartesian axes

     site n.     atom                  positions (alat units)
         1           Hf  tau(   1) = (   0.0000000   0.0000000  10.0000000  )
         2           Hf  tau(   2) = (   2.8316181   0.0000000  10.0000000  )
         3           W   tau(   3) = (   1.4158091   2.7337256  10.0000000  )
         4           W   tau(   4) = (  -1.4158091   2.7337256  10.0000000  )
         5           Hf  tau(   5) = (   2.8316181   1.4665081  12.4222748  )
         6           Hf  tau(   6) = (   0.0000000   1.4665081  12.4222748  )
         7           W   tau(   7) = (  -1.4158091   4.2002337  12.4222748  )
         8           W   tau(   8) = (   1.4158091   4.2002337  12.4222748  )
         9           Hf  tau(   9) = (  -0.0000012   3.0082879  14.9697706  )
        10           Hf  tau(  10) = (   2.8316210   3.0082932  14.9697723  )
        11           W   tau(  11) = (   4.2474259   0.1349403  14.6238757  )
        12           W   tau(  12) = (   1.4158068   0.1349385  14.6238759  )

     number of k points=    74  Fermi-Dirac smearing, width (Ry)=  0.0100
                       cart. coord. in units 2pi/alat
        k(    1) = (   0.0000000   0.0000000   0.0000000), wk =   0.0138889
        k(    2) = (   0.0000000   0.0152417   0.0000000), wk =   0.0277778
        k(    3) = (   0.0000000   0.0304834   0.0000000), wk =   0.0277778
        k(    4) = (   0.0000000   0.0457251   0.0000000), wk =   0.0277778
        k(    5) = (   0.0000000   0.0609669   0.0000000), wk =   0.0277778
        k(    6) = (   0.0000000   0.0762086   0.0000000), wk =   0.0277778
        k(    7) = (   0.0000000  -0.0914503   0.0000000), wk =   0.0138889
        k(    8) = (   0.0147148   0.0076209   0.0000000), wk =   0.0277778
        k(    9) = (   0.0147148   0.0228626   0.0000000), wk =   0.0277778
        k(   10) = (   0.0147148   0.0381043   0.0000000), wk =   0.0277778
        k(   11) = (   0.0147148   0.0533460   0.0000000), wk =   0.0277778
        k(   12) = (   0.0147148   0.0685877   0.0000000), wk =   0.0277778
        k(   13) = (   0.0147148   0.0838294   0.0000000), wk =   0.0277778
        k(   14) = (   0.0147148  -0.0838294   0.0000000), wk =   0.0277778
        k(   15) = (   0.0147148  -0.0685877   0.0000000), wk =   0.0277778
        k(   16) = (   0.0147148  -0.0533460   0.0000000), wk =   0.0277778
        k(   17) = (   0.0147148  -0.0381043   0.0000000), wk =   0.0277778
        k(   18) = (   0.0147148  -0.0228626   0.0000000), wk =   0.0277778
        k(   19) = (   0.0147148  -0.0076209   0.0000000), wk =   0.0277778
        k(   20) = (   0.0294296   0.0152417   0.0000000), wk =   0.0277778
        k(   21) = (   0.0294296   0.0304834   0.0000000), wk =   0.0277778
        k(   22) = (   0.0294296   0.0457251   0.0000000), wk =   0.0277778
        k(   23) = (   0.0294296   0.0609669   0.0000000), wk =   0.0277778
        k(   24) = (   0.0294296   0.0762086   0.0000000), wk =   0.0277778
        k(   25) = (   0.0294296   0.0914503   0.0000000), wk =   0.0277778
        k(   26) = (   0.0294296  -0.0762086   0.0000000), wk =   0.0277778
        k(   27) = (   0.0294296  -0.0609669   0.0000000), wk =   0.0277778
        k(   28) = (   0.0294296  -0.0457251   0.0000000), wk =   0.0277778
        k(   29) = (   0.0294296  -0.0304834   0.0000000), wk =   0.0277778
        k(   30) = (   0.0294296  -0.0152417   0.0000000), wk =   0.0277778
        k(   31) = (   0.0294296  -0.0000000   0.0000000), wk =   0.0277778
        k(   32) = (   0.0441444   0.0228626   0.0000000), wk =   0.0277778
        k(   33) = (   0.0441444   0.0381043   0.0000000), wk =   0.0277778
        k(   34) = (   0.0441444   0.0533460   0.0000000), wk =   0.0277778
        k(   35) = (   0.0441444   0.0685877   0.0000000), wk =   0.0277778
        k(   36) = (   0.0441444   0.0838294   0.0000000), wk =   0.0277778
        k(   37) = (   0.0441444   0.0990712   0.0000000), wk =   0.0277778
        k(   38) = (   0.0441444  -0.0685877   0.0000000), wk =   0.0277778
        k(   39) = (   0.0441444  -0.0533460   0.0000000), wk =   0.0277778
        k(   40) = (   0.0441444  -0.0381043   0.0000000), wk =   0.0277778
        k(   41) = (   0.0441444  -0.0228626   0.0000000), wk =   0.0277778
        k(   42) = (   0.0441444  -0.0076209   0.0000000), wk =   0.0277778
        k(   43) = (   0.0441444   0.0076209   0.0000000), wk =   0.0277778
        k(   44) = (   0.0588592   0.0304834   0.0000000), wk =   0.0277778
        k(   45) = (   0.0588592   0.0457251   0.0000000), wk =   0.0277778
        k(   46) = (   0.0588592   0.0609669   0.0000000), wk =   0.0277778
        k(   47) = (   0.0588592   0.0762086   0.0000000), wk =   0.0277778
        k(   48) = (   0.0588592   0.0914503   0.0000000), wk =   0.0277778
        k(   49) = (   0.0588592   0.1066920   0.0000000), wk =   0.0277778
        k(   50) = (   0.0588592  -0.0609669   0.0000000), wk =   0.0277778
        k(   51) = (   0.0588592  -0.0457251   0.0000000), wk =   0.0277778
        k(   52) = (   0.0588592  -0.0304834   0.0000000), wk =   0.0277778
        k(   53) = (   0.0588592  -0.0152417   0.0000000), wk =   0.0277778
        k(   54) = (   0.0588592   0.0000000   0.0000000), wk =   0.0277778
        k(   55) = (   0.0588592   0.0152417   0.0000000), wk =   0.0277778
        k(   56) = (   0.0735740   0.0381043   0.0000000), wk =   0.0277778
        k(   57) = (   0.0735740   0.0533460   0.0000000), wk =   0.0277778
        k(   58) = (   0.0735740   0.0685877   0.0000000), wk =   0.0277778
        k(   59) = (   0.0735740   0.0838294   0.0000000), wk =   0.0277778
        k(   60) = (   0.0735740   0.0990712   0.0000000), wk =   0.0277778
        k(   61) = (   0.0735740   0.1143129   0.0000000), wk =   0.0277778
        k(   62) = (   0.0735740  -0.0533460   0.0000000), wk =   0.0277778
        k(   63) = (   0.0735740  -0.0381043   0.0000000), wk =   0.0277778
        k(   64) = (   0.0735740  -0.0228626   0.0000000), wk =   0.0277778
        k(   65) = (   0.0735740  -0.0076209   0.0000000), wk =   0.0277778
        k(   66) = (   0.0735740   0.0076209   0.0000000), wk =   0.0277778
        k(   67) = (   0.0735740   0.0228626   0.0000000), wk =   0.0277778
        k(   68) = (  -0.0882887  -0.0457251   0.0000000), wk =   0.0138889
        k(   69) = (  -0.0882887  -0.0304834   0.0000000), wk =   0.0277778
        k(   70) = (  -0.0882887  -0.0152417   0.0000000), wk =   0.0277778
        k(   71) = (  -0.0882887   0.0000000   0.0000000), wk =   0.0277778
        k(   72) = (  -0.0882887   0.0152417   0.0000000), wk =   0.0277778
        k(   73) = (  -0.0882887   0.0304834   0.0000000), wk =   0.0277778
        k(   74) = (  -0.0882887  -0.1371754   0.0000000), wk =   0.0138889

     Initial potential from superposition of free atoms

     starting charge  155.98503, renormalised to  156.00000

     negative rho (up, down):  8.793E-04 0.000E+00

     %%%%%%%%%%%%%%%%%%%%%%%%%%%%%%%%%%%%%%%%%%%%%%%%%%%%%%%%%%%%%%%%%%%%%%%%
     %                                                                      %
     % You are using vdW-DF, which was implemented by the Thonhauser group. %
     % Please cite the following two papers that made this development      %
     % possible and the two reviews that describe the various versions:     %
     %                                                                      %
     %   T. Thonhauser et al., PRL 115, 136402 (2015).                      %
     %   T. Thonhauser et al., PRB 76, 125112 (2007).                       %
     %   K. Berland et al., Rep. Prog. Phys. 78, 066501 (2015).             %
     %   D.C. Langreth et al., J. Phys.: Condens. Matter 21, 084203 (2009). %
     %                                                                      %
     %                                                                      %
     % If you are calculating the stress with vdW-DF, please also cite:     %
     %                                                                      %
     %   R. Sabatini et al., J. Phys.: Condens. Matter 24, 424209 (2012).   %
     %                                                                      %
     %%%%%%%%%%%%%%%%%%%%%%%%%%%%%%%%%%%%%%%%%%%%%%%%%%%%%%%%%%%%%%%%%%%%%%%%

     Adding external electric field

     Computed dipole along edir(3) :
        Dipole                0.0010 Ry au,          0.0026 Debye
        Dipole field          0.0000 Ry au,

        Potential amp.       -0.0002 Ry
        Total length         45.7757 bohr

     Starting wfcs are  138 randomized atomic wfcs

     Self-consistent Calculation

     iteration #  1     ecut=    55.12 Ry     beta= 0.10
     Davidson diagonalization with overlap
     ethr =  1.00E-02,  avg # of iterations =  2.0

[...]

     total energy              =   -1711.45228212 Ry
     estimated scf accuracy    <       4.87423721 Ry

[...]

     iteration # 10     ecut=    55.12 Ry     beta= 0.10
     Davidson diagonalization with overlap
     c_bands:  1 eigenvalues not converged
     c_bands:  1 eigenvalues not converged
     ethr =  6.92E-06,  avg # of iterations =  7.9

[...]

     iteration # 12     ecut=    55.12 Ry     beta= 0.10
     Davidson diagonalization with overlap
     c_bands:  1 eigenvalues not converged
     c_bands:  1 eigenvalues not converged
     ethr =  1.15E-06,  avg # of iterations =  4.1

[...]

     total energy              =   -1711.86514721 Ry
     estimated scf accuracy    <       0.00001253 Ry

     iteration # 17     ecut=    55.12 Ry     beta= 0.10
     Davidson diagonalization with overlap
     ethr =  8.03E-09,  avg # of iterations =  3.9

[...]

     Adding external electric field

     Computed dipole along edir(3) :
        Dipole                0.1167 Ry au,          0.2966 Debye
        Dipole field          0.0003 Ry au,

        Potential amp.       -0.0259 Ry
        Total length         45.7757 bohr

     End of self-consistent calculation

          k = 0.0000 0.0000 0.0000 ( 35891 PWs)   bands (ev):

   -72.2831 -72.2461 -72.1507 -72.1141 -72.0148 -71.9778 -60.3863 -60.3075
   -60.2139 -60.1343 -59.8201 -59.7392 -36.6473 -36.6304 -36.5696 -36.4309
   -36.3450 -36.3179 -36.2456 -36.2420 -36.1818 -36.1775 -36.1104 -36.0829
   -36.0107 -36.0101 -35.8861 -35.8287 -35.8204 -35.7282 -29.3612 -29.2528
   -29.1073 -28.9722 -28.9575 -28.9524 -28.8243 -28.8201 -28.6976 -28.6692
   -28.5440 -28.3253 -28.2672 -28.2601 -28.1974 -28.1502 -28.1424 -27.8389
    -5.3555  -3.6918  -2.6667  -2.1612  -2.1408  -2.0692  -1.9409  -1.8652
    -1.5972  -1.2946  -1.0647  -0.9653  -0.9323  -0.9307  -0.8308  -0.0027
     0.4358   0.4743   0.6342   0.8743   0.9328   1.3766   1.6550   1.8101
     1.9400   2.0592   2.0950   2.1438   2.3810   2.5929   2.6220   2.8020
     2.8369   2.8370   3.0067   3.2400   3.2732   3.3153   3.4181   3.7080
     3.7233   3.9480   3.9688   4.1334   4.1541   4.4353

[...]

          k = 0.0736 0.0229 0.0000 ( 35860 PWs)   bands (ev):

[...]

          k =-0.0883-0.0457 0.0000 ( 35894 PWs)   bands (ev):

[...]

          k =-0.0883-0.1372 0.0000 ( 35894 PWs)   bands (ev):

   -72.2646 -72.2646 -72.1324 -72.1324 -71.9964 -71.9964 -60.3471 -60.3471
   -60.1743 -60.1743 -59.7798 -59.7798 -36.6073 -36.6073 -36.3264 -36.3264
   -36.2796 -36.2796 -36.2101 -36.2101 -36.1443 -36.1443 -36.1312 -36.1312
   -36.0458 -36.0458 -36.0422 -36.0422 -35.8573 -35.8573 -29.0430 -29.0429
   -28.8916 -28.8916 -28.8370 -28.8370 -28.7656 -28.7656 -28.7247 -28.7247
   -28.6131 -28.6131 -28.4189 -28.4189 -28.2655 -28.2655 -28.2022 -28.2022
    -3.4413  -3.4413  -1.9965  -1.9965  -1.3591  -1.3591  -1.0658  -1.0658
    -0.8475  -0.8475  -0.2830  -0.2830   0.1253   0.1253   0.2712   0.2712
     0.4341   0.4341   0.6915   0.6915   1.0007   1.0007   1.1644   1.1644
     1.3623   1.3623   1.3952   1.3952   1.7521   1.7522   1.9604   1.9604
     2.1590   2.1590   2.3216   2.3216   2.7009   2.7009   3.2713   3.2713
     3.5946   3.5947   3.8015   3.8015   4.0990   4.0991

     the Fermi energy is     2.0496 ev

!    total energy              =   -1711.86512501 Ry
     estimated scf accuracy    <       0.00000336 Ry
     smearing contrib. (-TS)   =      -0.07953742 Ry
     internal energy E=F+TS    =   -1711.78558759 Ry

     The total energy is F=E-TS. E is the sum of the following terms:
     one-electron contribution =  -11478.38266529 Ry
     hartree contribution      =    5724.04341343 Ry
     xc contribution           =    -504.46475562 Ry
     ewald contribution        =    4547.01838693 Ry
     electric field correction =       0.00003296 Ry

     convergence has been achieved in  17 iterations

     negative rho (up, down):  1.043E-03 0.000E+00

     Forces acting on atoms (cartesian axes, Ry/au):

     atom    1 type  1   force =     0.00000023   -0.02082905   -0.03173323
     atom    2 type  1   force =     0.00000468   -0.02082795   -0.03173128
     atom    3 type  2   force =     0.00000092    0.00944342    0.04854759
     atom    4 type  2   force =     0.00000010    0.00944144    0.04854784
     atom    5 type  1   force =    -0.00000186    0.02201280    0.00271425
     atom    6 type  1   force =    -0.00000125    0.02201444    0.00271049
     atom    7 type  2   force =    -0.00000376   -0.00943410   -0.01306737
     atom    8 type  2   force =    -0.00000450   -0.00943359   -0.01307302
     atom    9 type  1   force =    -0.00000111    0.00011549   -0.00326342
     atom   10 type  1   force =     0.00000271    0.00011144   -0.00326452
     atom   11 type  2   force =    -0.00000256   -0.00130481   -0.00319365
     atom   12 type  2   force =     0.00000639   -0.00130953   -0.00319366

     Total force =     0.096552     Total SCF correction =     0.007467

     Writing output data file ./Hf2W2/Hf2W2_beef.save/

     General routines

     Parallel routines

   This run was terminated on:  21:40:22  24Jun2022

   JOB DONE.