     Program PWSCF v.6.6 starts on 24Jun2022 at 21:40:24

     R & G space division:  proc/nbgrp/npool/nimage =      37
     Fft bands division:     nmany     =       1
     Reading input from Hf2Y2.in
Warning: card &CELL ignored
Warning: card / ignored

     Current dimensions of program PWSCF are:
     Max number of different atomic species (ntypx) = 10
     Max number of k-points (npk) =  40000
     Max angular momentum in pseudopotentials (lmaxx) =  3
     Presently stress not available with electric field and gates

     Message from routine cell_base_init:
     DEPRECATED: use true lattice parameter, not A to a.u. conversion factor
     file Y.pbe-spn-rrkjus_psl.1.0.0.UPF: wavefunction(s)  4S renormalized

     IMPORTANT: XC functional enforced from input :
     Exchange-correlation= BEEF-VDW
                           (   1   4  43  14   2   0   0)
     Any further DFT definition will be discarded
     Please, verify this is what you really want

     Subspace diagonalization in iterative solution of the eigenvalue problem:
     a serial algorithm will be used

     bravais-lattice index     =            0
     lattice parameter (alat)  =       1.8897  a.u.
     unit-cell volume          =    6666.8448 (a.u.)^3
     number of atoms/cell      =           12
     number of atomic types    =            2
     number of electrons       =       138.00
     number of Kohn-Sham states=           83
     kinetic-energy cutoff     =      55.1240  Ry
     charge density cutoff     =     551.2396  Ry
     convergence threshold     =      1.0E-05
     mixing beta               =       0.1000
     number of iterations used =           10  plain     mixing
     Exchange-correlation= BEEF-VDW
                           (   1   4  43  14   2   0   0)

     celldm(1)=   1.889726  celldm(2)=   0.000000  celldm(3)=   0.000000
     celldm(4)=   0.000000  celldm(5)=   0.000000  celldm(6)=   0.000000

     crystal axes: (cart. coord. in units of alat)
               a(1) = (   6.550380   0.000000   0.000000 )
               a(2) = (  -3.275190   5.924176   0.000000 )
               a(3) = (   0.000000   0.000000  25.458299 )

     reciprocal axes: (cart. coord. in units 2 pi/alat)
               b(1) = (  0.152663  0.084400 -0.000000 )
               b(2) = (  0.000000  0.168800  0.000000 )
               b(3) = (  0.000000 -0.000000  0.039280 )

     PseudoPot. # 1 for Hf read from file:
     ../pseudo/Hf.pbe-spn-rrkjus_psl.1.0.0.UPF
     MD5 check sum: 9605440c6f839e558204c6a924125fd0
     Pseudo is Ultrasoft + core correction, Zval = 12.0
     Generated using "atomic" code by A. Dal Corso v.6.2.2
     Using radial grid of 1271 points,  6 beta functions with:
                l(1) =   0
                l(2) =   0
                l(3) =   1
                l(4) =   1
                l(5) =   2
                l(6) =   2
     Q(r) pseudized with 0 coefficients

     PseudoPot. # 2 for Y  read from file:
     ../pseudo/Y.pbe-spn-rrkjus_psl.1.0.0.UPF
     MD5 check sum: 5fe32e6a006803c2ec2edff47948a3c8
     Pseudo is Ultrasoft + core correction, Zval = 11.0
     Generated using "atomic" code by A. Dal Corso v.6.2.2
     Using radial grid of 1223 points,  6 beta functions with:
                l(1) =   0
                l(2) =   0
                l(3) =   1
                l(4) =   1
                l(5) =   2
                l(6) =   2
     Q(r) pseudized with 0 coefficients

     atomic species   valence    mass     pseudopotential
        Hf            12.00   178.49000     Hf( 1.00)
        Y             11.00    88.90584     Y ( 1.00)

     No symmetry found

   Cartesian axes

     site n.     atom                  positions (alat units)
         1           Hf  tau(   1) = (   0.0000000   0.0000000  10.0000000  )
         2           Hf  tau(   2) = (  -0.0000000   5.9241758  10.0000000  )
         3           Y   tau(   3) = (   1.6375951   2.9620879  10.0000000  )
         4           Y   tau(   4) = (  -1.6375951   2.9620879  10.0000000  )
         5           Hf  tau(   5) = (   3.2751901   1.8106941  12.7291495  )
         6           Hf  tau(   6) = (  -0.0000000   1.8106941  12.7291495  )
         7           Y   tau(   7) = (  -1.6375951   4.7727820  12.7291495  )
         8           Y   tau(   8) = (   1.6375951   4.7727820  12.7291495  )
         9           Hf  tau(   9) = (  -0.0005492   3.5756722  15.2108137  )
        10           Hf  tau(  10) = (   3.2757403   3.5757836  15.2108680  )
        11           Y   tau(  11) = (   4.9128560   0.7375677  15.4977241  )
        12           Y   tau(  12) = (   1.6374921   0.7377543  15.4976744  )

     number of k points=    74  Fermi-Dirac smearing, width (Ry)=  0.0100
                       cart. coord. in units 2pi/alat
        k(    1) = (   0.0000000   0.0000000   0.0000000), wk =   0.0138889
        k(    2) = (   0.0000000   0.0140667   0.0000000), wk =   0.0277778
        k(    3) = (   0.0000000   0.0281333   0.0000000), wk =   0.0277778
        k(    4) = (   0.0000000   0.0422000   0.0000000), wk =   0.0277778
        k(    5) = (   0.0000000   0.0562666   0.0000000), wk =   0.0277778
        k(    6) = (   0.0000000   0.0703333   0.0000000), wk =   0.0277778
        k(    7) = (   0.0000000  -0.0843999   0.0000000), wk =   0.0138889
        k(    8) = (   0.0127219   0.0070333   0.0000000), wk =   0.0277778
        k(    9) = (   0.0127219   0.0211000   0.0000000), wk =   0.0277778
        k(   10) = (   0.0127219   0.0351666   0.0000000), wk =   0.0277778
        k(   11) = (   0.0127219   0.0492333   0.0000000), wk =   0.0277778
        k(   12) = (   0.0127219   0.0632999   0.0000000), wk =   0.0277778
        k(   13) = (   0.0127219   0.0773666   0.0000000), wk =   0.0277778
        k(   14) = (   0.0127219  -0.0773666   0.0000000), wk =   0.0277778
        k(   15) = (   0.0127219  -0.0632999   0.0000000), wk =   0.0277778
        k(   16) = (   0.0127219  -0.0492333   0.0000000), wk =   0.0277778
        k(   17) = (   0.0127219  -0.0351666   0.0000000), wk =   0.0277778
        k(   18) = (   0.0127219  -0.0211000   0.0000000), wk =   0.0277778
        k(   19) = (   0.0127219  -0.0070333   0.0000000), wk =   0.0277778
        k(   20) = (   0.0254438   0.0140667   0.0000000), wk =   0.0277778
        k(   21) = (   0.0254438   0.0281333   0.0000000), wk =   0.0277778
        k(   22) = (   0.0254438   0.0422000   0.0000000), wk =   0.0277778
        k(   23) = (   0.0254438   0.0562666   0.0000000), wk =   0.0277778
        k(   24) = (   0.0254438   0.0703333   0.0000000), wk =   0.0277778
        k(   25) = (   0.0254438   0.0843999   0.0000000), wk =   0.0277778
        k(   26) = (   0.0254438  -0.0703333   0.0000000), wk =   0.0277778
        k(   27) = (   0.0254438  -0.0562666   0.0000000), wk =   0.0277778
        k(   28) = (   0.0254438  -0.0422000   0.0000000), wk =   0.0277778
        k(   29) = (   0.0254438  -0.0281333   0.0000000), wk =   0.0277778
        k(   30) = (   0.0254438  -0.0140667   0.0000000), wk =   0.0277778
        k(   31) = (   0.0254438  -0.0000000   0.0000000), wk =   0.0277778
        k(   32) = (   0.0381657   0.0211000   0.0000000), wk =   0.0277778
        k(   33) = (   0.0381657   0.0351666   0.0000000), wk =   0.0277778
        k(   34) = (   0.0381657   0.0492333   0.0000000), wk =   0.0277778
        k(   35) = (   0.0381657   0.0632999   0.0000000), wk =   0.0277778
        k(   36) = (   0.0381657   0.0773666   0.0000000), wk =   0.0277778
        k(   37) = (   0.0381657   0.0914333   0.0000000), wk =   0.0277778
        k(   38) = (   0.0381657  -0.0632999   0.0000000), wk =   0.0277778
        k(   39) = (   0.0381657  -0.0492333   0.0000000), wk =   0.0277778
        k(   40) = (   0.0381657  -0.0351666   0.0000000), wk =   0.0277778
        k(   41) = (   0.0381657  -0.0211000   0.0000000), wk =   0.0277778
        k(   42) = (   0.0381657  -0.0070333   0.0000000), wk =   0.0277778
        k(   43) = (   0.0381657   0.0070333   0.0000000), wk =   0.0277778
        k(   44) = (   0.0508876   0.0281333   0.0000000), wk =   0.0277778
        k(   45) = (   0.0508876   0.0422000   0.0000000), wk =   0.0277778
        k(   46) = (   0.0508876   0.0562666   0.0000000), wk =   0.0277778
        k(   47) = (   0.0508876   0.0703333   0.0000000), wk =   0.0277778
        k(   48) = (   0.0508876   0.0843999   0.0000000), wk =   0.0277778
        k(   49) = (   0.0508876   0.0984666   0.0000000), wk =   0.0277778
        k(   50) = (   0.0508876  -0.0562666   0.0000000), wk =   0.0277778
        k(   51) = (   0.0508876  -0.0422000   0.0000000), wk =   0.0277778
        k(   52) = (   0.0508876  -0.0281333   0.0000000), wk =   0.0277778
        k(   53) = (   0.0508876  -0.0140667   0.0000000), wk =   0.0277778
        k(   54) = (   0.0508876   0.0000000   0.0000000), wk =   0.0277778
        k(   55) = (   0.0508876   0.0140667   0.0000000), wk =   0.0277778
        k(   56) = (   0.0636095   0.0351666   0.0000000), wk =   0.0277778
        k(   57) = (   0.0636095   0.0492333   0.0000000), wk =   0.0277778
        k(   58) = (   0.0636095   0.0632999   0.0000000), wk =   0.0277778
        k(   59) = (   0.0636095   0.0773666   0.0000000), wk =   0.0277778
        k(   60) = (   0.0636095   0.0914333   0.0000000), wk =   0.0277778
        k(   61) = (   0.0636095   0.1054999   0.0000000), wk =   0.0277778
        k(   62) = (   0.0636095  -0.0492333   0.0000000), wk =   0.0277778
        k(   63) = (   0.0636095  -0.0351666   0.0000000), wk =   0.0277778
        k(   64) = (   0.0636095  -0.0211000   0.0000000), wk =   0.0277778
        k(   65) = (   0.0636095  -0.0070333   0.0000000), wk =   0.0277778
        k(   66) = (   0.0636095   0.0070333   0.0000000), wk =   0.0277778
        k(   67) = (   0.0636095   0.0211000   0.0000000), wk =   0.0277778
        k(   68) = (  -0.0763314  -0.0422000   0.0000000), wk =   0.0138889
        k(   69) = (  -0.0763314  -0.0281333   0.0000000), wk =   0.0277778
        k(   70) = (  -0.0763314  -0.0140667   0.0000000), wk =   0.0277778
        k(   71) = (  -0.0763314   0.0000000   0.0000000), wk =   0.0277778
        k(   72) = (  -0.0763314   0.0140667   0.0000000), wk =   0.0277778
        k(   73) = (  -0.0763314   0.0281333   0.0000000), wk =   0.0277778
        k(   74) = (  -0.0763314  -0.1265999   0.0000000), wk =   0.0138889

     Initial potential from superposition of free atoms

     starting charge  137.96386, renormalised to  138.00000

     negative rho (up, down):  4.563E-04 0.000E+00

     %%%%%%%%%%%%%%%%%%%%%%%%%%%%%%%%%%%%%%%%%%%%%%%%%%%%%%%%%%%%%%%%%%%%%%%%
     %                                                                      %
     % You are using vdW-DF, which was implemented by the Thonhauser group. %
     % Please cite the following two papers that made this development      %
     % possible and the two reviews that describe the various versions:     %
     %                                                                      %
     %   T. Thonhauser et al., PRL 115, 136402 (2015).                      %
     %   T. Thonhauser et al., PRB 76, 125112 (2007).                       %
     %   K. Berland et al., Rep. Prog. Phys. 78, 066501 (2015).             %
     %   D.C. Langreth et al., J. Phys.: Condens. Matter 21, 084203 (2009). %
     %                                                                      %
     %                                                                      %
     % If you are calculating the stress with vdW-DF, please also cite:     %
     %                                                                      %
     %   R. Sabatini et al., J. Phys.: Condens. Matter 24, 424209 (2012).   %
     %                                                                      %
     %%%%%%%%%%%%%%%%%%%%%%%%%%%%%%%%%%%%%%%%%%%%%%%%%%%%%%%%%%%%%%%%%%%%%%%%

     Adding external electric field

     Computed dipole along edir(3) :
        Dipole                0.0013 Ry au,          0.0033 Debye
        Dipole field          0.0000 Ry au,

        Potential amp.       -0.0002 Ry
        Total length         46.9065 bohr

     Starting wfcs are  138 randomized atomic wfcs

     Self-consistent Calculation

     iteration #  1     ecut=    55.12 Ry     beta= 0.10
     Davidson diagonalization with overlap
     ethr =  1.00E-02,  avg # of iterations =  2.0

[...]

     total energy              =   -1260.83740582 Ry
     estimated scf accuracy    <       6.83120776 Ry

[...]

     iteration #  8     ecut=    55.12 Ry     beta= 0.10
     Davidson diagonalization with overlap
     c_bands:  1 eigenvalues not converged
     c_bands:  1 eigenvalues not converged
     ethr =  2.65E-05,  avg # of iterations =  9.7

[...]

     total energy              =   -1261.49472037 Ry
     estimated scf accuracy    <       0.00001068 Ry

     iteration # 18     ecut=    55.12 Ry     beta= 0.10
     Davidson diagonalization with overlap
     ethr =  7.74E-09,  avg # of iterations =  2.3

[...]

     Adding external electric field

     Computed dipole along edir(3) :
        Dipole                0.0373 Ry au,          0.0947 Debye
        Dipole field          0.0001 Ry au,

        Potential amp.       -0.0066 Ry
        Total length         46.9065 bohr

     End of self-consistent calculation

          k = 0.0000 0.0000 0.0000 ( 46109 PWs)   bands (ev):

   -61.6889 -61.6770 -61.4283 -61.4161 -61.1456 -61.1335 -41.7220 -41.6760
   -41.6598 -41.6137 -40.9811 -40.9173 -30.2017 -30.2014 -30.1723 -30.1310
   -30.0993 -30.0029 -29.9702 -29.9388 -29.9184 -29.9126 -29.8804 -29.7378
   -29.7135 -29.6366 -29.6037 -29.5205 -29.4928 -29.4496 -21.9948 -21.9549
   -21.7508 -21.7011 -21.6726 -21.6236 -21.6174 -21.5662 -21.5443 -21.4921
   -21.3546 -21.3131 -21.3047 -20.9646 -20.9151 -20.8906 -20.8383 -20.6478
    -4.1848  -3.0668  -1.9984  -1.4905  -0.9837  -0.9014  -0.8516  -0.7904
    -0.7327  -0.6488  -0.4776  -0.2684  -0.0182   0.0871   0.1324   0.6445
     0.7024   0.7633   1.2490   1.3794   1.6597   1.8140   1.8250   1.8798
     1.9651   2.0340   2.0392   2.2148   2.3708   2.4730   2.4913   2.7239
     2.7558   2.8260   2.9073

[...]

          k = 0.0636 0.0211 0.0000 ( 46009 PWs)   bands (ev):

[...]

          k =-0.0763-0.0422 0.0000 ( 46060 PWs)   bands (ev):

[...]

          k =-0.0763-0.1266 0.0000 ( 46060 PWs)   bands (ev):

   -61.6830 -61.6830 -61.4222 -61.4221 -61.1396 -61.1395 -41.6911 -41.6911
   -41.6451 -41.6451 -40.9497 -40.9492 -30.1867 -30.1867 -30.1139 -30.1139
   -30.0614 -30.0614 -29.9543 -29.9542 -29.8955 -29.8954 -29.8601 -29.8591
   -29.6194 -29.6194 -29.5952 -29.5952 -29.5065 -29.5064 -21.7149 -21.7149
   -21.6857 -21.6854 -21.6616 -21.6616 -21.6448 -21.6448 -21.5864 -21.5863
   -21.5342 -21.5342 -20.9880 -20.9876 -20.9275 -20.9271 -20.8819 -20.8815
    -2.7446  -2.7444  -1.7481  -1.7478  -0.8999  -0.8997  -0.2946  -0.2946
    -0.1379  -0.1377   0.5205   0.5206   0.6552   0.6555   0.7849   0.7851
     0.8740   0.8742   1.0473   1.0473   1.1480   1.1482   1.2465   1.2466
     1.4747   1.4748   1.5336   1.5339   1.7812   1.7820   1.9680   1.9685
     2.3023   2.3027   2.4027

     the Fermi energy is     1.2500 ev

!    total energy              =   -1261.49472112 Ry
     estimated scf accuracy    <       0.00000211 Ry
     smearing contrib. (-TS)   =      -0.10081177 Ry
     internal energy E=F+TS    =   -1261.39390935 Ry

     The total energy is F=E-TS. E is the sum of the following terms:
     one-electron contribution =   -6953.83296524 Ry
     hartree contribution      =    3465.32615595 Ry
     xc contribution           =    -367.43600852 Ry
     ewald contribution        =    2594.54890584 Ry
     electric field correction =       0.00000262 Ry

     convergence has been achieved in  18 iterations

     negative rho (up, down):  1.175E-04 0.000E+00

     Forces acting on atoms (cartesian axes, Ry/au):

     atom    1 type  1   force =    -0.00000651    0.00846360    0.02626515
     atom    2 type  1   force =     0.00000615    0.00846656    0.02626632
     atom    3 type  2   force =     0.00000269   -0.01078441   -0.00802493
     atom    4 type  2   force =    -0.00000202   -0.01078931   -0.00803419
     atom    5 type  1   force =     0.00001702   -0.00250736   -0.00527476
     atom    6 type  1   force =    -0.00001846   -0.00251501   -0.00528615
     atom    7 type  2   force =    -0.00000206    0.00406388   -0.01130520
     atom    8 type  2   force =     0.00000272    0.00402395   -0.01125682
     atom    9 type  1   force =     0.00006724    0.00079901   -0.00029509
     atom   10 type  1   force =    -0.00006866    0.00077602   -0.00030381
     atom   11 type  2   force =    -0.00002383    0.00000413   -0.00136735
     atom   12 type  2   force =     0.00002572   -0.00000107   -0.00138318

     Total force =     0.047388     Total SCF correction =     0.003703

     Writing output data file ./Hf2Y2/Hf2Y2_beef.save/

     General routines

     Parallel routines

   This run was terminated on:  23:46:38  24Jun2022

   JOB DONE.