     Program PWSCF v.6.6 starts on 23Jun2022 at 22:21:50

     R & G space division:  proc/nbgrp/npool/nimage =      37
     Fft bands division:     nmany     =       1
     Reading input from Ir2Au2.in
Warning: card &CELL ignored
Warning: card / ignored

     Current dimensions of program PWSCF are:
     Max number of different atomic species (ntypx) = 10
     Max number of k-points (npk) =  40000
     Max angular momentum in pseudopotentials (lmaxx) =  3
     Presently stress not available with electric field and gates

     Message from routine cell_base_init:
     DEPRECATED: use true lattice parameter, not A to a.u. conversion factor
     file Ir.pbe-n-rrkjus_psl.0.2.3.UPF: wavefunction(s)  5D renormalized

     IMPORTANT: XC functional enforced from input :
     Exchange-correlation= BEEF-VDW
                           (   1   4  43  14   2   0   0)
     Any further DFT definition will be discarded
     Please, verify this is what you really want

     Subspace diagonalization in iterative solution of the eigenvalue problem:
     a serial algorithm will be used

     Found symmetry operation: I + (  0.5000  0.0000  0.0000)
     This is a supercell, fractional translations are disabled

     bravais-lattice index     =            0
     lattice parameter (alat)  =       1.8897  a.u.
     unit-cell volume          =    4683.7559 (a.u.)^3
     number of atoms/cell      =           12
     number of atomic types    =            2
     number of electrons       =       120.00
     number of Kohn-Sham states=           72
     kinetic-energy cutoff     =      55.1240  Ry
     charge density cutoff     =     551.2396  Ry
     convergence threshold     =      1.0E-05
     mixing beta               =       0.1000
     number of iterations used =           10  plain     mixing
     Exchange-correlation= BEEF-VDW
                           (   1   4  43  14   2   0   0)

     celldm(1)=   1.889726  celldm(2)=   0.000000  celldm(3)=   0.000000
     celldm(4)=   0.000000  celldm(5)=   0.000000  celldm(6)=   0.000000

     crystal axes: (cart. coord. in units of alat)
               a(1) = (   5.643484   0.000000   0.000000 )
               a(2) = (  -2.821742   4.988450   0.000000 )
               a(3) = (   0.000000   0.000000  24.653854 )

     reciprocal axes: (cart. coord. in units 2 pi/alat)
               b(1) = (  0.177196  0.100232 -0.000000 )
               b(2) = (  0.000000  0.200463  0.000000 )
               b(3) = (  0.000000 -0.000000  0.040562 )

     PseudoPot. # 1 for Ir read from file:
     ../pseudo/Ir.pbe-n-rrkjus_psl.0.2.3.UPF
     MD5 check sum: a93e608e8ddc29ee62145620b5f41564
     Pseudo is Ultrasoft + core correction, Zval =  9.0
     Generated using "atomic" code by A. Dal Corso v.5.0.2 svn rev. 9415
     Using radial grid of 1277 points,  6 beta functions with:
                l(1) =   0
                l(2) =   0
                l(3) =   1
                l(4) =   1
                l(5) =   2
                l(6) =   2
     Q(r) pseudized with 0 coefficients

     PseudoPot. # 2 for Au read from file:
     ../pseudo/Au.pbe-n-rrkjus_psl.1.0.0.UPF
     MD5 check sum: d7e77ba19504afed2c9b41c931dde4f0
     Pseudo is Ultrasoft + core correction, Zval = 11.0
     Generated using "atomic" code by A. Dal Corso v.6.3
     Using radial grid of 1279 points,  6 beta functions with:
                l(1) =   0
                l(2) =   0
                l(3) =   1
                l(4) =   1
                l(5) =   2
                l(6) =   2
     Q(r) pseudized with 0 coefficients

     atomic species   valence    mass     pseudopotential
        Ir             9.00   192.21700     Ir( 1.00)
        Au            11.00   196.96657     Au( 1.00)

     No symmetry found

   Cartesian axes

     site n.     atom                  positions (alat units)
         1           Ir  tau(   1) = (   0.0000000   0.0000000  10.0000000  )
         2           Ir  tau(   2) = (   2.8217420   0.0000000  10.0000000  )
         3           Au  tau(   3) = (   1.4108710   2.4942248  10.0000000  )
         4           Au  tau(   4) = (  -1.4108710   2.4942248  10.0000000  )
         5           Ir  tau(   5) = (   2.8217420   1.5961328  12.3269268  )
         6           Ir  tau(   6) = (  -0.0000000   1.5961328  12.3269268  )
         7           Au  tau(   7) = (  -1.4108710   4.0903576  12.3269268  )
         8           Au  tau(   8) = (   1.4108710   4.0903576  12.3269268  )
         9           Ir  tau(   9) = (  -0.0000007   2.6741982  14.5735499  )
        10           Ir  tau(  10) = (   2.8217363   2.6742112  14.5735527  )
        11           Au  tau(  11) = (   4.2326270   0.2214566  14.9624147  )
        12           Au  tau(  12) = (   1.4108460   0.2214473  14.9624197  )

     number of k points=    74  Fermi-Dirac smearing, width (Ry)=  0.0100
                       cart. coord. in units 2pi/alat
        k(    1) = (   0.0000000   0.0000000   0.0000000), wk =   0.0138889
        k(    2) = (   0.0000000   0.0167053   0.0000000), wk =   0.0277778
        k(    3) = (   0.0000000   0.0334105   0.0000000), wk =   0.0277778
        k(    4) = (   0.0000000   0.0501158   0.0000000), wk =   0.0277778
        k(    5) = (   0.0000000   0.0668210   0.0000000), wk =   0.0277778
        k(    6) = (   0.0000000   0.0835263   0.0000000), wk =   0.0277778
        k(    7) = (   0.0000000  -0.1002315   0.0000000), wk =   0.0138889
        k(    8) = (   0.0147663   0.0083526   0.0000000), wk =   0.0277778
        k(    9) = (   0.0147663   0.0250579   0.0000000), wk =   0.0277778
        k(   10) = (   0.0147663   0.0417631   0.0000000), wk =   0.0277778
        k(   11) = (   0.0147663   0.0584684   0.0000000), wk =   0.0277778
        k(   12) = (   0.0147663   0.0751737   0.0000000), wk =   0.0277778
        k(   13) = (   0.0147663   0.0918789   0.0000000), wk =   0.0277778
        k(   14) = (   0.0147663  -0.0918789   0.0000000), wk =   0.0277778
        k(   15) = (   0.0147663  -0.0751737   0.0000000), wk =   0.0277778
        k(   16) = (   0.0147663  -0.0584684   0.0000000), wk =   0.0277778
        k(   17) = (   0.0147663  -0.0417631   0.0000000), wk =   0.0277778
        k(   18) = (   0.0147663  -0.0250579   0.0000000), wk =   0.0277778
        k(   19) = (   0.0147663  -0.0083526   0.0000000), wk =   0.0277778
        k(   20) = (   0.0295326   0.0167053   0.0000000), wk =   0.0277778
        k(   21) = (   0.0295326   0.0334105   0.0000000), wk =   0.0277778
        k(   22) = (   0.0295326   0.0501158   0.0000000), wk =   0.0277778
        k(   23) = (   0.0295326   0.0668210   0.0000000), wk =   0.0277778
        k(   24) = (   0.0295326   0.0835263   0.0000000), wk =   0.0277778
        k(   25) = (   0.0295326   0.1002315   0.0000000), wk =   0.0277778
        k(   26) = (   0.0295326  -0.0835263   0.0000000), wk =   0.0277778
        k(   27) = (   0.0295326  -0.0668210   0.0000000), wk =   0.0277778
        k(   28) = (   0.0295326  -0.0501158   0.0000000), wk =   0.0277778
        k(   29) = (   0.0295326  -0.0334105   0.0000000), wk =   0.0277778
        k(   30) = (   0.0295326  -0.0167053   0.0000000), wk =   0.0277778
        k(   31) = (   0.0295326  -0.0000000   0.0000000), wk =   0.0277778
        k(   32) = (   0.0442989   0.0250579   0.0000000), wk =   0.0277778
        k(   33) = (   0.0442989   0.0417631   0.0000000), wk =   0.0277778
        k(   34) = (   0.0442989   0.0584684   0.0000000), wk =   0.0277778
        k(   35) = (   0.0442989   0.0751737   0.0000000), wk =   0.0277778
        k(   36) = (   0.0442989   0.0918789   0.0000000), wk =   0.0277778
        k(   37) = (   0.0442989   0.1085842   0.0000000), wk =   0.0277778
        k(   38) = (   0.0442989  -0.0751737   0.0000000), wk =   0.0277778
        k(   39) = (   0.0442989  -0.0584684   0.0000000), wk =   0.0277778
        k(   40) = (   0.0442989  -0.0417631   0.0000000), wk =   0.0277778
        k(   41) = (   0.0442989  -0.0250579   0.0000000), wk =   0.0277778
        k(   42) = (   0.0442989  -0.0083526   0.0000000), wk =   0.0277778
        k(   43) = (   0.0442989   0.0083526   0.0000000), wk =   0.0277778
        k(   44) = (   0.0590652   0.0334105   0.0000000), wk =   0.0277778
        k(   45) = (   0.0590652   0.0501158   0.0000000), wk =   0.0277778
        k(   46) = (   0.0590652   0.0668210   0.0000000), wk =   0.0277778
        k(   47) = (   0.0590652   0.0835263   0.0000000), wk =   0.0277778
        k(   48) = (   0.0590652   0.1002315   0.0000000), wk =   0.0277778
        k(   49) = (   0.0590652   0.1169368   0.0000000), wk =   0.0277778
        k(   50) = (   0.0590652  -0.0668210   0.0000000), wk =   0.0277778
        k(   51) = (   0.0590652  -0.0501158   0.0000000), wk =   0.0277778
        k(   52) = (   0.0590652  -0.0334105   0.0000000), wk =   0.0277778
        k(   53) = (   0.0590652  -0.0167053   0.0000000), wk =   0.0277778
        k(   54) = (   0.0590652   0.0000000   0.0000000), wk =   0.0277778
        k(   55) = (   0.0590652   0.0167053   0.0000000), wk =   0.0277778
        k(   56) = (   0.0738315   0.0417631   0.0000000), wk =   0.0277778
        k(   57) = (   0.0738315   0.0584684   0.0000000), wk =   0.0277778
        k(   58) = (   0.0738315   0.0751737   0.0000000), wk =   0.0277778
        k(   59) = (   0.0738315   0.0918789   0.0000000), wk =   0.0277778
        k(   60) = (   0.0738315   0.1085842   0.0000000), wk =   0.0277778
        k(   61) = (   0.0738315   0.1252894   0.0000000), wk =   0.0277778
        k(   62) = (   0.0738315  -0.0584684   0.0000000), wk =   0.0277778
        k(   63) = (   0.0738315  -0.0417631   0.0000000), wk =   0.0277778
        k(   64) = (   0.0738315  -0.0250579   0.0000000), wk =   0.0277778
        k(   65) = (   0.0738315  -0.0083526   0.0000000), wk =   0.0277778
        k(   66) = (   0.0738315   0.0083526   0.0000000), wk =   0.0277778
        k(   67) = (   0.0738315   0.0250579   0.0000000), wk =   0.0277778
        k(   68) = (  -0.0885978  -0.0501158   0.0000000), wk =   0.0138889
        k(   69) = (  -0.0885978  -0.0334105   0.0000000), wk =   0.0277778
        k(   70) = (  -0.0885978  -0.0167053   0.0000000), wk =   0.0277778
        k(   71) = (  -0.0885978   0.0000000   0.0000000), wk =   0.0277778
        k(   72) = (  -0.0885978   0.0167053   0.0000000), wk =   0.0277778
        k(   73) = (  -0.0885978   0.0334105   0.0000000), wk =   0.0277778
        k(   74) = (  -0.0885978  -0.1503473   0.0000000), wk =   0.0138889

     Initial potential from superposition of free atoms

     starting charge  119.99845, renormalised to  120.00000

     negative rho (up, down):  9.671E-04 0.000E+00

     %%%%%%%%%%%%%%%%%%%%%%%%%%%%%%%%%%%%%%%%%%%%%%%%%%%%%%%%%%%%%%%%%%%%%%%%
     %                                                                      %
     % You are using vdW-DF, which was implemented by the Thonhauser group. %
     % Please cite the following two papers that made this development      %
     % possible and the two reviews that describe the various versions:     %
     %                                                                      %
     %   T. Thonhauser et al., PRL 115, 136402 (2015).                      %
     %   T. Thonhauser et al., PRB 76, 125112 (2007).                       %
     %   K. Berland et al., Rep. Prog. Phys. 78, 066501 (2015).             %
     %   D.C. Langreth et al., J. Phys.: Condens. Matter 21, 084203 (2009). %
     %                                                                      %
     %                                                                      %
     % If you are calculating the stress with vdW-DF, please also cite:     %
     %                                                                      %
     %   R. Sabatini et al., J. Phys.: Condens. Matter 24, 424209 (2012).   %
     %                                                                      %
     %%%%%%%%%%%%%%%%%%%%%%%%%%%%%%%%%%%%%%%%%%%%%%%%%%%%%%%%%%%%%%%%%%%%%%%%

     Adding external electric field

     Computed dipole along edir(3) :
        Dipole               -0.0000 Ry au,         -0.0001 Debye
        Dipole field         -0.0000 Ry au,

        Potential amp.        0.0000 Ry
        Total length         45.4243 bohr

     Starting wfcs are  108 randomized atomic wfcs

     Self-consistent Calculation

     iteration #  1     ecut=    55.12 Ry     beta= 0.10
     Davidson diagonalization with overlap
     ethr =  1.00E-02,  avg # of iterations =  2.0

[...]

     total energy              =    -896.37131020 Ry
     estimated scf accuracy    <       5.30674948 Ry

[...]

     iteration # 15     ecut=    55.12 Ry     beta= 0.10
     Davidson diagonalization with overlap
     c_bands:  1 eigenvalues not converged
     ethr =  1.31E-08,  avg # of iterations =  6.2

[...]

     iteration # 16     ecut=    55.12 Ry     beta= 0.10
     Davidson diagonalization with overlap
     c_bands:  1 eigenvalues not converged
     ethr =  1.07E-08,  avg # of iterations =  2.3

[...]

     total energy              =    -896.88913264 Ry
     estimated scf accuracy    <       0.00001143 Ry

     iteration # 17     ecut=    55.12 Ry     beta= 0.10
     Davidson diagonalization with overlap
     ethr =  9.52E-09,  avg # of iterations =  2.0

[...]

     Adding external electric field

     Computed dipole along edir(3) :
        Dipole                0.0527 Ry au,          0.1340 Debye
        Dipole field          0.0001 Ry au,

        Potential amp.       -0.0128 Ry
        Total length         45.4243 bohr

     End of self-consistent calculation

          k = 0.0000 0.0000 0.0000 ( 32385 PWs)   bands (ev):

    -8.0806  -6.4806  -6.0862  -5.9756  -5.8012  -5.7043  -5.6084  -5.5867
    -5.3578  -5.2853  -5.2562  -5.0383  -5.0170  -5.0073  -4.7037  -4.1858
    -4.1201  -4.0245  -3.7529  -3.6525  -3.6219  -3.5131  -3.3634  -3.2670
    -3.1587  -2.9206  -2.8992  -2.8737  -2.8351  -2.7227  -2.6841  -2.6522
    -2.5167  -2.1785  -2.0998  -1.8399  -1.8281  -1.5625  -1.3762  -1.3631
    -1.3485  -1.0578  -1.0272  -1.0076  -0.8211  -0.5604  -0.4178  -0.3994
    -0.3887  -0.3061  -0.0536   0.0102   0.0419   0.4029   0.5693   0.6250
     0.7130   0.7899   0.9105   0.9830   1.0621   1.0852   1.1152   1.4747
     1.5035   1.7631   1.9080   2.2555   2.8800   3.1560   3.3494   3.7095

[...]

          k = 0.0738 0.0251 0.0000 ( 32354 PWs)   bands (ev):

[...]

          k =-0.0886-0.0501 0.0000 ( 32340 PWs)   bands (ev):

[...]

          k =-0.0886-0.1503 0.0000 ( 32340 PWs)   bands (ev):

    -6.4151  -6.4151  -5.2277  -5.2276  -5.0490  -5.0490  -4.9613  -4.9613
    -4.7387  -4.7387  -4.5320  -4.5320  -4.2932  -4.2932  -4.2000  -4.2000
    -3.9362  -3.9362  -3.7752  -3.7752  -3.5769  -3.5768  -3.5132  -3.5132
    -3.3812  -3.3811  -3.2773  -3.2772  -3.1801  -3.1800  -2.9723  -2.9722
    -2.8019  -2.8019  -2.6189  -2.6189  -2.4294  -2.4293  -1.9195  -1.9194
    -1.7542  -1.7541  -1.3365  -1.3365  -1.1972  -1.1972  -0.9616  -0.9616
    -0.8902  -0.8901  -0.8719  -0.8719  -0.7905  -0.7904  -0.5695  -0.5694
    -0.2481  -0.2480   0.1380   0.1380   0.4168   0.4168   0.6530   0.6531
     1.7195   1.7195   2.1826   2.1826   2.9229   2.9229   4.4364   4.4365

     the Fermi energy is     0.4847 ev

!    total energy              =    -896.88913439 Ry
     estimated scf accuracy    <       0.00000105 Ry
     smearing contrib. (-TS)   =      -0.07637729 Ry
     internal energy E=F+TS    =    -896.81275709 Ry

     The total energy is F=E-TS. E is the sum of the following terms:
     one-electron contribution =   -7061.45014877 Ry
     hartree contribution      =    3608.00673887 Ry
     xc contribution           =    -394.00674036 Ry
     ewald contribution        =    2950.63738572 Ry
     electric field correction =       0.00000745 Ry

     convergence has been achieved in  17 iterations

     negative rho (up, down):  9.605E-04 0.000E+00

     Forces acting on atoms (cartesian axes, Ry/au):

     atom    1 type  1   force =     0.00000381    0.02017402    0.01706361
     atom    2 type  1   force =     0.00000190    0.02016556    0.01705000
     atom    3 type  2   force =    -0.00001097   -0.00398197   -0.03789006
     atom    4 type  2   force =     0.00000748   -0.00398682   -0.03788317
     atom    5 type  1   force =     0.00000374   -0.02128420   -0.00129210
     atom    6 type  1   force =    -0.00000274   -0.02125939   -0.00124800
     atom    7 type  2   force =     0.00004983    0.00466657    0.01557169
     atom    8 type  2   force =    -0.00004695    0.00466223    0.01557622
     atom    9 type  1   force =     0.00000105    0.00054609    0.00411518
     atom   10 type  1   force =    -0.00000070    0.00053804    0.00412915
     atom   11 type  2   force =    -0.00001306   -0.00011657    0.00240064
     atom   12 type  2   force =     0.00000662   -0.00012356    0.00240684

     Total force =     0.076033     Total SCF correction =     0.003205

     Writing output data file ./Ir2Au2/Ir2Au2_beef.save/

     General routines

     Parallel routines

   This run was terminated on:  23:22: 7  23Jun2022

   JOB DONE.