     Program PWSCF v.6.6 starts on 24Jun2022 at 10:15:20

     R & G space division:  proc/nbgrp/npool/nimage =      37
     Fft bands division:     nmany     =       1
     Reading input from Ir2Pt2.in
Warning: card &CELL ignored
Warning: card / ignored

     Current dimensions of program PWSCF are:
     Max number of different atomic species (ntypx) = 10
     Max number of k-points (npk) =  40000
     Max angular momentum in pseudopotentials (lmaxx) =  3
     Presently stress not available with electric field and gates

     Message from routine cell_base_init:
     DEPRECATED: use true lattice parameter, not A to a.u. conversion factor
     file Ir.pbe-n-rrkjus_psl.0.2.3.UPF: wavefunction(s)  5D renormalized
     file Pt.pbe-n-rrkjus_psl.1.0.0.UPF: wavefunction(s)  6S renormalized

     IMPORTANT: XC functional enforced from input :
     Exchange-correlation= BEEF-VDW
                           (   1   4  43  14   2   0   0)
     Any further DFT definition will be discarded
     Please, verify this is what you really want

     Subspace diagonalization in iterative solution of the eigenvalue problem:
     a serial algorithm will be used

     Found symmetry operation: I + ( -0.5000  0.5000  0.0000)
     This is a supercell, fractional translations are disabled

     bravais-lattice index     =            0
     lattice parameter (alat)  =       1.8897  a.u.
     unit-cell volume          =    4437.2434 (a.u.)^3
     number of atoms/cell      =           12
     number of atomic types    =            2
     number of electrons       =       114.00
     number of Kohn-Sham states=           68
     kinetic-energy cutoff     =      55.1240  Ry
     charge density cutoff     =     551.2396  Ry
     convergence threshold     =      1.0E-05
     mixing beta               =       0.1000
     number of iterations used =           10  plain     mixing
     Exchange-correlation= BEEF-VDW
                           (   1   4  43  14   2   0   0)

     celldm(1)=   1.889726  celldm(2)=   0.000000  celldm(3)=   0.000000
     celldm(4)=   0.000000  celldm(5)=   0.000000  celldm(6)=   0.000000

     crystal axes: (cart. coord. in units of alat)
               a(1) = (   5.552601   0.000000   0.000000 )
               a(2) = (   2.747378   4.825277   0.000000 )
               a(3) = (   0.000000   0.000000  24.541326 )

     reciprocal axes: (cart. coord. in units 2 pi/alat)
               b(1) = (  0.180096 -0.102542  0.000000 )
               b(2) = (  0.000000  0.207242  0.000000 )
               b(3) = (  0.000000  0.000000  0.040748 )

     PseudoPot. # 1 for Ir read from file:
     ../pseudo/Ir.pbe-n-rrkjus_psl.0.2.3.UPF
     MD5 check sum: a93e608e8ddc29ee62145620b5f41564
     Pseudo is Ultrasoft + core correction, Zval =  9.0
     Generated using "atomic" code by A. Dal Corso v.5.0.2 svn rev. 9415
     Using radial grid of 1277 points,  6 beta functions with:
                l(1) =   0
                l(2) =   0
                l(3) =   1
                l(4) =   1
                l(5) =   2
                l(6) =   2
     Q(r) pseudized with 0 coefficients

     PseudoPot. # 2 for Pt read from file:
     ../pseudo/Pt.pbe-n-rrkjus_psl.1.0.0.UPF
     MD5 check sum: 6bc887cfe28d63a5fc1f72d35a7d3ef7
     Pseudo is Ultrasoft + core correction, Zval = 10.0
     Generated using "atomic" code by A. Dal Corso v.6.3
     Using radial grid of 1277 points,  6 beta functions with:
                l(1) =   0
                l(2) =   0
                l(3) =   1
                l(4) =   1
                l(5) =   2
                l(6) =   2
     Q(r) pseudized with 0 coefficients

     atomic species   valence    mass     pseudopotential
        Ir             9.00   192.21700     Ir( 1.00)
        Pt            10.00   195.08400     Pt( 1.00)

     No symmetry found

   Cartesian axes

     site n.     atom                  positions (alat units)
         1           Ir  tau(   1) = (   0.0000000   0.0000000  10.0000000  )
         2           Ir  tau(   2) = (   4.1499898   2.4126383  10.0000000  )
         3           Pt  tau(   3) = (   2.7763006   0.0000000  10.0000000  )
         4           Pt  tau(   4) = (   1.3736892   2.4126383  10.0000000  )
         5           Ir  tau(   5) = (   5.5526013   3.2280605  12.2706629  )
         6           Ir  tau(   6) = (   1.4026115   0.8154223  12.2706629  )
         7           Pt  tau(   7) = (   2.7763006   3.2280605  12.2706629  )
         8           Pt  tau(   8) = (   4.1789121   0.8154223  12.2706629  )
         9           Ir  tau(   9) = (   2.7643883   1.6071047  14.4680797  )
        10           Ir  tau(  10) = (   6.9143621   4.0197322  14.4680633  )
        11           Pt  tau(  11) = (   5.5650654   1.6212844  14.5762737  )
        12           Pt  tau(  12) = (   4.1624618   4.0339068  14.5762764  )

     number of k points=    74  Fermi-Dirac smearing, width (Ry)=  0.0100
                       cart. coord. in units 2pi/alat
        k(    1) = (   0.0000000   0.0000000   0.0000000), wk =   0.0138889
        k(    2) = (   0.0000000   0.0172702   0.0000000), wk =   0.0277778
        k(    3) = (   0.0000000   0.0345403   0.0000000), wk =   0.0277778
        k(    4) = (   0.0000000   0.0518105   0.0000000), wk =   0.0277778
        k(    5) = (   0.0000000   0.0690807   0.0000000), wk =   0.0277778
        k(    6) = (   0.0000000   0.0863508   0.0000000), wk =   0.0277778
        k(    7) = (   0.0000000  -0.1036210   0.0000000), wk =   0.0138889
        k(    8) = (   0.0150080  -0.0085451   0.0000000), wk =   0.0277778
        k(    9) = (   0.0150080   0.0087250   0.0000000), wk =   0.0277778
        k(   10) = (   0.0150080   0.0259952   0.0000000), wk =   0.0277778
        k(   11) = (   0.0150080   0.0432654   0.0000000), wk =   0.0277778
        k(   12) = (   0.0150080   0.0605355   0.0000000), wk =   0.0277778
        k(   13) = (   0.0150080   0.0778057   0.0000000), wk =   0.0277778
        k(   14) = (   0.0150080  -0.1121661   0.0000000), wk =   0.0277778
        k(   15) = (   0.0150080  -0.0948960   0.0000000), wk =   0.0277778
        k(   16) = (   0.0150080  -0.0776258   0.0000000), wk =   0.0277778
        k(   17) = (   0.0150080  -0.0603556   0.0000000), wk =   0.0277778
        k(   18) = (   0.0150080  -0.0430855   0.0000000), wk =   0.0277778
        k(   19) = (   0.0150080  -0.0258153   0.0000000), wk =   0.0277778
        k(   20) = (   0.0300160  -0.0170903   0.0000000), wk =   0.0277778
        k(   21) = (   0.0300160   0.0001799   0.0000000), wk =   0.0277778
        k(   22) = (   0.0300160   0.0174501   0.0000000), wk =   0.0277778
        k(   23) = (   0.0300160   0.0347202   0.0000000), wk =   0.0277778
        k(   24) = (   0.0300160   0.0519904   0.0000000), wk =   0.0277778
        k(   25) = (   0.0300160   0.0692606   0.0000000), wk =   0.0277778
        k(   26) = (   0.0300160  -0.1207112   0.0000000), wk =   0.0277778
        k(   27) = (   0.0300160  -0.1034411   0.0000000), wk =   0.0277778
        k(   28) = (   0.0300160  -0.0861709   0.0000000), wk =   0.0277778
        k(   29) = (   0.0300160  -0.0689007   0.0000000), wk =   0.0277778
        k(   30) = (   0.0300160  -0.0516306   0.0000000), wk =   0.0277778
        k(   31) = (   0.0300160  -0.0343604   0.0000000), wk =   0.0277778
        k(   32) = (   0.0450239  -0.0256354   0.0000000), wk =   0.0277778
        k(   33) = (   0.0450239  -0.0083652   0.0000000), wk =   0.0277778
        k(   34) = (   0.0450239   0.0089050   0.0000000), wk =   0.0277778
        k(   35) = (   0.0450239   0.0261751   0.0000000), wk =   0.0277778
        k(   36) = (   0.0450239   0.0434453   0.0000000), wk =   0.0277778
        k(   37) = (   0.0450239   0.0607155   0.0000000), wk =   0.0277778
        k(   38) = (   0.0450239  -0.1292564   0.0000000), wk =   0.0277778
        k(   39) = (   0.0450239  -0.1119862   0.0000000), wk =   0.0277778
        k(   40) = (   0.0450239  -0.0947160   0.0000000), wk =   0.0277778
        k(   41) = (   0.0450239  -0.0774459   0.0000000), wk =   0.0277778
        k(   42) = (   0.0450239  -0.0601757   0.0000000), wk =   0.0277778
        k(   43) = (   0.0450239  -0.0429055   0.0000000), wk =   0.0277778
        k(   44) = (   0.0600319  -0.0341805   0.0000000), wk =   0.0277778
        k(   45) = (   0.0600319  -0.0169103   0.0000000), wk =   0.0277778
        k(   46) = (   0.0600319   0.0003598   0.0000000), wk =   0.0277778
        k(   47) = (   0.0600319   0.0176300   0.0000000), wk =   0.0277778
        k(   48) = (   0.0600319   0.0349002   0.0000000), wk =   0.0277778
        k(   49) = (   0.0600319   0.0521703   0.0000000), wk =   0.0277778
        k(   50) = (   0.0600319  -0.1378015   0.0000000), wk =   0.0277778
        k(   51) = (   0.0600319  -0.1205313   0.0000000), wk =   0.0277778
        k(   52) = (   0.0600319  -0.1032612   0.0000000), wk =   0.0277778
        k(   53) = (   0.0600319  -0.0859910   0.0000000), wk =   0.0277778
        k(   54) = (   0.0600319  -0.0687208   0.0000000), wk =   0.0277778
        k(   55) = (   0.0600319  -0.0514507   0.0000000), wk =   0.0277778
        k(   56) = (   0.0750399  -0.0427256   0.0000000), wk =   0.0277778
        k(   57) = (   0.0750399  -0.0254555   0.0000000), wk =   0.0277778
        k(   58) = (   0.0750399  -0.0081853   0.0000000), wk =   0.0277778
        k(   59) = (   0.0750399   0.0090849   0.0000000), wk =   0.0277778
        k(   60) = (   0.0750399   0.0263550   0.0000000), wk =   0.0277778
        k(   61) = (   0.0750399   0.0436252   0.0000000), wk =   0.0277778
        k(   62) = (   0.0750399  -0.1463466   0.0000000), wk =   0.0277778
        k(   63) = (   0.0750399  -0.1290765   0.0000000), wk =   0.0277778
        k(   64) = (   0.0750399  -0.1118063   0.0000000), wk =   0.0277778
        k(   65) = (   0.0750399  -0.0945361   0.0000000), wk =   0.0277778
        k(   66) = (   0.0750399  -0.0772660   0.0000000), wk =   0.0277778
        k(   67) = (   0.0750399  -0.0599958   0.0000000), wk =   0.0277778
        k(   68) = (  -0.0900479   0.0512708   0.0000000), wk =   0.0138889
        k(   69) = (  -0.0900479   0.0685409   0.0000000), wk =   0.0277778
        k(   70) = (  -0.0900479   0.0858111   0.0000000), wk =   0.0277778
        k(   71) = (  -0.0900479   0.1030813   0.0000000), wk =   0.0277778
        k(   72) = (  -0.0900479   0.1203514   0.0000000), wk =   0.0277778
        k(   73) = (  -0.0900479   0.1376216   0.0000000), wk =   0.0277778
        k(   74) = (  -0.0900479  -0.0523502   0.0000000), wk =   0.0138889

     Initial potential from superposition of free atoms

     starting charge  113.99809, renormalised to  114.00000

     negative rho (up, down):  7.379E-04 0.000E+00

     %%%%%%%%%%%%%%%%%%%%%%%%%%%%%%%%%%%%%%%%%%%%%%%%%%%%%%%%%%%%%%%%%%%%%%%%
     %                                                                      %
     % You are using vdW-DF, which was implemented by the Thonhauser group. %
     % Please cite the following two papers that made this development      %
     % possible and the two reviews that describe the various versions:     %
     %                                                                      %
     %   T. Thonhauser et al., PRL 115, 136402 (2015).                      %
     %   T. Thonhauser et al., PRB 76, 125112 (2007).                       %
     %   K. Berland et al., Rep. Prog. Phys. 78, 066501 (2015).             %
     %   D.C. Langreth et al., J. Phys.: Condens. Matter 21, 084203 (2009). %
     %                                                                      %
     %                                                                      %
     % If you are calculating the stress with vdW-DF, please also cite:     %
     %                                                                      %
     %   R. Sabatini et al., J. Phys.: Condens. Matter 24, 424209 (2012).   %
     %                                                                      %
     %%%%%%%%%%%%%%%%%%%%%%%%%%%%%%%%%%%%%%%%%%%%%%%%%%%%%%%%%%%%%%%%%%%%%%%%

     Adding external electric field

     Computed dipole along edir(3) :
        Dipole                0.0000 Ry au,          0.0000 Debye
        Dipole field          0.0000 Ry au,

        Potential amp.       -0.0000 Ry
        Total length         45.2170 bohr

     Starting wfcs are  108 randomized atomic wfcs

     Self-consistent Calculation

     iteration #  1     ecut=    55.12 Ry     beta= 0.10
     Davidson diagonalization with overlap
     ethr =  1.00E-02,  avg # of iterations =  2.0

[...]

     total energy              =    -774.54113932 Ry
     estimated scf accuracy    <       4.84286989 Ry

[...]

     total energy              =    -775.10651539 Ry
     estimated scf accuracy    <       0.00001788 Ry

     iteration # 16     ecut=    55.12 Ry     beta= 0.10
     Davidson diagonalization with overlap
     ethr =  1.57E-08,  avg # of iterations =  3.3

[...]

     Adding external electric field

     Computed dipole along edir(3) :
        Dipole               -0.0044 Ry au,         -0.0112 Debye
        Dipole field         -0.0000 Ry au,

        Potential amp.        0.0011 Ry
        Total length         45.2170 bohr

     End of self-consistent calculation

          k = 0.0000 0.0000 0.0000 ( 30713 PWs)   bands (ev):

    -8.5490  -6.7022  -6.3039  -6.0462  -5.9498  -5.9218  -5.7496  -5.7014
    -5.6492  -5.2471  -5.2175  -5.2129  -5.0437  -4.9840  -4.9365  -3.6467
    -3.5649  -3.4925  -3.2013  -3.1560  -3.1417  -2.9574  -2.9419  -2.6798
    -2.6390  -2.5865  -2.4922  -2.3899  -2.3504  -2.2873  -2.2208  -2.1065
    -1.9556  -1.6952  -1.5947  -0.9071  -0.8563  -0.8134  -0.6664  -0.6456
    -0.6188  -0.4489  -0.4204  -0.1768   0.0611   0.2098   0.2837   0.3984
     0.6512   0.6792   0.7611   0.8349   0.8956   0.9727   1.0001   1.1246
     1.1688   1.2807   1.3169   1.3820   1.5444   1.6237   1.7370   1.8210
     1.8631   1.8784   1.8878   3.6047

[...]

          k = 0.0750-0.0600 0.0000 ( 30619 PWs)   bands (ev):

[...]

          k =-0.0900 0.0513 0.0000 ( 30620 PWs)   bands (ev):

[...]

          k =-0.0900-0.0524 0.0000 ( 30662 PWs)   bands (ev):

    -6.8086  -6.6643  -5.3942  -5.2530  -5.0821  -5.0396  -4.9961  -4.9211
    -4.7644  -4.7611  -4.5734  -4.2352  -4.1551  -3.9759  -3.9197  -3.8490
    -3.7631  -3.7383  -3.5387  -3.4839  -3.4379  -3.0488  -2.8676  -2.7665
    -2.6822  -2.6332  -2.6085  -2.5264  -2.4493  -2.3775  -2.3346  -2.2081
    -2.1670  -1.9867  -1.9810  -1.9199  -1.9102  -1.8921  -1.8456  -1.7811
    -1.7664  -1.2476  -1.1950  -1.1506  -1.1356  -1.1051  -0.8981  -0.7584
    -0.7307  -0.5121  -0.3335  -0.3149  -0.1306  -0.0551  -0.0417   0.2382
     0.2609   0.3814   0.4274   0.6284   0.8810   0.9401   1.0455   1.6942
     2.3364   2.5644   2.6402   3.5723

     the Fermi energy is     0.6175 ev

!    total energy              =    -775.10651578 Ry
     estimated scf accuracy    <       0.00000608 Ry
     smearing contrib. (-TS)   =      -0.09404101 Ry
     internal energy E=F+TS    =    -775.01247477 Ry

     The total energy is F=E-TS. E is the sum of the following terms:
     one-electron contribution =   -6865.66734816 Ry
     hartree contribution      =    3503.59674690 Ry
     xc contribution           =    -343.04594762 Ry
     ewald contribution        =    2930.10407406 Ry
     electric field correction =       0.00000005 Ry

     convergence has been achieved in  16 iterations

     negative rho (up, down):  7.152E-04 0.000E+00

     Forces acting on atoms (cartesian axes, Ry/au):

     atom    1 type  1   force =     0.00663169    0.00387119    0.01711345
     atom    2 type  1   force =     0.00665121    0.00386142    0.01712805
     atom    3 type  2   force =    -0.00498816   -0.00291576   -0.01663936
     atom    4 type  2   force =    -0.00503511   -0.00290469   -0.01663290
     atom    5 type  1   force =    -0.00714070   -0.00415713   -0.00223260
     atom    6 type  1   force =    -0.00714294   -0.00415284   -0.00223101
     atom    7 type  2   force =     0.00552114    0.00321705   -0.00919121
     atom    8 type  2   force =     0.00553316    0.00320220   -0.00921071
     atom    9 type  1   force =     0.00093411    0.00052871    0.00487095
     atom   10 type  1   force =     0.00092183    0.00054177    0.00485958
     atom   11 type  2   force =    -0.00094864   -0.00054825    0.00608989
     atom   12 type  2   force =    -0.00093758   -0.00054367    0.00607587

     Total force =     0.042995     Total SCF correction =     0.007924
     SCF correction compared to forces is large: reduce conv_thr to get better values

     Writing output data file ./Ir2Pt2/Ir2Pt2_beef.save/

     General routines

     Parallel routines

   This run was terminated on:  10:54:49  24Jun2022

   JOB DONE.