     Program PWSCF v.6.6 starts on 23Jun2022 at 23:51: 6

     R & G space division:  proc/nbgrp/npool/nimage =      37
     Fft bands division:     nmany     =       1
     Reading input from La2Ag2.in
Warning: card &CELL ignored
Warning: card / ignored

     Current dimensions of program PWSCF are:
     Max number of different atomic species (ntypx) = 10
     Max number of k-points (npk) =  40000
     Max angular momentum in pseudopotentials (lmaxx) =  3
     Presently stress not available with electric field and gates

     Message from routine cell_base_init:
     DEPRECATED: use true lattice parameter, not A to a.u. conversion factor
     file La.pbe-spfn-rrkjus_psl.1.0.0.UPF: wavefunction(s)  4F renormalized

     IMPORTANT: XC functional enforced from input :
     Exchange-correlation= BEEF-VDW
                           (   1   4  43  14   2   0   0)
     Any further DFT definition will be discarded
     Please, verify this is what you really want

     Subspace diagonalization in iterative solution of the eigenvalue problem:
     a serial algorithm will be used

     bravais-lattice index     =            0
     lattice parameter (alat)  =       1.8897  a.u.
     unit-cell volume          =    7294.5138 (a.u.)^3
     number of atoms/cell      =           12
     number of atomic types    =            2
     number of electrons       =       132.00
     number of Kohn-Sham states=           79
     kinetic-energy cutoff     =      55.1240  Ry
     charge density cutoff     =     551.2396  Ry
     convergence threshold     =      1.0E-05
     mixing beta               =       0.1000
     number of iterations used =           10  plain     mixing
     Exchange-correlation= BEEF-VDW
                           (   1   4  43  14   2   0   0)

     celldm(1)=   1.889726  celldm(2)=   0.000000  celldm(3)=   0.000000
     celldm(4)=   0.000000  celldm(5)=   0.000000  celldm(6)=   0.000000

     crystal axes: (cart. coord. in units of alat)
               a(1) = (   6.706325   0.000000   0.000000 )
               a(2) = (   2.220564   6.328024   0.000000 )
               a(3) = (   0.000000   0.000000  25.471066 )

     reciprocal axes: (cart. coord. in units 2 pi/alat)
               b(1) = (  0.149113 -0.052325  0.000000 )
               b(2) = (  0.000000  0.158027  0.000000 )
               b(3) = (  0.000000  0.000000  0.039260 )

     PseudoPot. # 1 for La read from file:
     ../pseudo/La.pbe-spfn-rrkjus_psl.1.0.0.UPF
     MD5 check sum: e3bc141c2ecb461b8d0a035ce9ac970e
     Pseudo is Ultrasoft + core correction, Zval = 11.0
     Generated using "atomic" code by A. Dal Corso v.6.2.2
     Using radial grid of 1253 points,  8 beta functions with:
                l(1) =   0
                l(2) =   0
                l(3) =   1
                l(4) =   1
                l(5) =   2
                l(6) =   2
                l(7) =   3
                l(8) =   3
     Q(r) pseudized with 0 coefficients

     PseudoPot. # 2 for Ag read from file:
     ../pseudo/Ag.pbe-n-rrkjus_psl.1.0.0.UPF
     MD5 check sum: d841cbfac2b0861aec33b46768a516bf
     Pseudo is Ultrasoft + core correction, Zval = 11.0
     Generated using "atomic" code by A. Dal Corso v.6.2.2
     Using radial grid of 1237 points,  6 beta functions with:
                l(1) =   0
                l(2) =   0
                l(3) =   1
                l(4) =   1
                l(5) =   2
                l(6) =   2
     Q(r) pseudized with 0 coefficients

     atomic species   valence    mass     pseudopotential
        La            11.00   138.90547     La( 1.00)
        Ag            11.00   107.86820     Ag( 1.00)

     No symmetry found

   Cartesian axes

     site n.     atom                  positions (alat units)
         1           La  tau(   1) = (   0.0000000   0.0000000  10.0000000  )
         2           La  tau(   2) = (   4.4634447   3.1640121  10.0000000  )
         3           Ag  tau(   3) = (   3.3531625   0.0000000  10.0000000  )
         4           Ag  tau(   4) = (   1.1102822   3.1640121  10.0000000  )
         5           La  tau(   5) = (   6.7063250   4.7539277  12.7355330  )
         6           La  tau(   6) = (   2.2428804   1.5899156  12.7355330  )
         7           Ag  tau(   7) = (   3.3531625   4.7539277  12.7355330  )
         8           Ag  tau(   8) = (   5.5960429   1.5899156  12.7355330  )
         9           La  tau(   9) = (   4.4822161   3.1773119  15.4441897  )
        10           La  tau(  10) = (   0.0188043   0.0133360  15.4442885  )
        11           Ag  tau(  11) = (   1.1309314   3.1787279  15.3124126  )
        12           Ag  tau(  12) = (   3.3738699   0.0146054  15.3124209  )

     number of k points=    74  Fermi-Dirac smearing, width (Ry)=  0.0100
                       cart. coord. in units 2pi/alat
        k(    1) = (   0.0000000   0.0000000   0.0000000), wk =   0.0138889
        k(    2) = (   0.0000000   0.0131689   0.0000000), wk =   0.0277778
        k(    3) = (   0.0000000   0.0263379   0.0000000), wk =   0.0277778
        k(    4) = (   0.0000000   0.0395068   0.0000000), wk =   0.0277778
        k(    5) = (   0.0000000   0.0526757   0.0000000), wk =   0.0277778
        k(    6) = (   0.0000000   0.0658447   0.0000000), wk =   0.0277778
        k(    7) = (   0.0000000  -0.0790136   0.0000000), wk =   0.0138889
        k(    8) = (   0.0124261  -0.0043604   0.0000000), wk =   0.0277778
        k(    9) = (   0.0124261   0.0088085   0.0000000), wk =   0.0277778
        k(   10) = (   0.0124261   0.0219774   0.0000000), wk =   0.0277778
        k(   11) = (   0.0124261   0.0351464   0.0000000), wk =   0.0277778
        k(   12) = (   0.0124261   0.0483153   0.0000000), wk =   0.0277778
        k(   13) = (   0.0124261   0.0614842   0.0000000), wk =   0.0277778
        k(   14) = (   0.0124261  -0.0833740   0.0000000), wk =   0.0277778
        k(   15) = (   0.0124261  -0.0702051   0.0000000), wk =   0.0277778
        k(   16) = (   0.0124261  -0.0570362   0.0000000), wk =   0.0277778
        k(   17) = (   0.0124261  -0.0438672   0.0000000), wk =   0.0277778
        k(   18) = (   0.0124261  -0.0306983   0.0000000), wk =   0.0277778
        k(   19) = (   0.0124261  -0.0175294   0.0000000), wk =   0.0277778
        k(   20) = (   0.0248522  -0.0087209   0.0000000), wk =   0.0277778
        k(   21) = (   0.0248522   0.0044481   0.0000000), wk =   0.0277778
        k(   22) = (   0.0248522   0.0176170   0.0000000), wk =   0.0277778
        k(   23) = (   0.0248522   0.0307859   0.0000000), wk =   0.0277778
        k(   24) = (   0.0248522   0.0439549   0.0000000), wk =   0.0277778
        k(   25) = (   0.0248522   0.0571238   0.0000000), wk =   0.0277778
        k(   26) = (   0.0248522  -0.0877345   0.0000000), wk =   0.0277778
        k(   27) = (   0.0248522  -0.0745655   0.0000000), wk =   0.0277778
        k(   28) = (   0.0248522  -0.0613966   0.0000000), wk =   0.0277778
        k(   29) = (   0.0248522  -0.0482277   0.0000000), wk =   0.0277778
        k(   30) = (   0.0248522  -0.0350587   0.0000000), wk =   0.0277778
        k(   31) = (   0.0248522  -0.0218898   0.0000000), wk =   0.0277778
        k(   32) = (   0.0372782  -0.0130813   0.0000000), wk =   0.0277778
        k(   33) = (   0.0372782   0.0000876   0.0000000), wk =   0.0277778
        k(   34) = (   0.0372782   0.0132566   0.0000000), wk =   0.0277778
        k(   35) = (   0.0372782   0.0264255   0.0000000), wk =   0.0277778
        k(   36) = (   0.0372782   0.0395944   0.0000000), wk =   0.0277778
        k(   37) = (   0.0372782   0.0527634   0.0000000), wk =   0.0277778
        k(   38) = (   0.0372782  -0.0920949   0.0000000), wk =   0.0277778
        k(   39) = (   0.0372782  -0.0789260   0.0000000), wk =   0.0277778
        k(   40) = (   0.0372782  -0.0657570   0.0000000), wk =   0.0277778
        k(   41) = (   0.0372782  -0.0525881   0.0000000), wk =   0.0277778
        k(   42) = (   0.0372782  -0.0394192   0.0000000), wk =   0.0277778
        k(   43) = (   0.0372782  -0.0262502   0.0000000), wk =   0.0277778
        k(   44) = (   0.0497043  -0.0174417   0.0000000), wk =   0.0277778
        k(   45) = (   0.0497043  -0.0042728   0.0000000), wk =   0.0277778
        k(   46) = (   0.0497043   0.0088961   0.0000000), wk =   0.0277778
        k(   47) = (   0.0497043   0.0220651   0.0000000), wk =   0.0277778
        k(   48) = (   0.0497043   0.0352340   0.0000000), wk =   0.0277778
        k(   49) = (   0.0497043   0.0484030   0.0000000), wk =   0.0277778
        k(   50) = (   0.0497043  -0.0964553   0.0000000), wk =   0.0277778
        k(   51) = (   0.0497043  -0.0832864   0.0000000), wk =   0.0277778
        k(   52) = (   0.0497043  -0.0701175   0.0000000), wk =   0.0277778
        k(   53) = (   0.0497043  -0.0569485   0.0000000), wk =   0.0277778
        k(   54) = (   0.0497043  -0.0437796   0.0000000), wk =   0.0277778
        k(   55) = (   0.0497043  -0.0306107   0.0000000), wk =   0.0277778
        k(   56) = (   0.0621304  -0.0218022   0.0000000), wk =   0.0277778
        k(   57) = (   0.0621304  -0.0086332   0.0000000), wk =   0.0277778
        k(   58) = (   0.0621304   0.0045357   0.0000000), wk =   0.0277778
        k(   59) = (   0.0621304   0.0177047   0.0000000), wk =   0.0277778
        k(   60) = (   0.0621304   0.0308736   0.0000000), wk =   0.0277778
        k(   61) = (   0.0621304   0.0440425   0.0000000), wk =   0.0277778
        k(   62) = (   0.0621304  -0.1008158   0.0000000), wk =   0.0277778
        k(   63) = (   0.0621304  -0.0876468   0.0000000), wk =   0.0277778
        k(   64) = (   0.0621304  -0.0744779   0.0000000), wk =   0.0277778
        k(   65) = (   0.0621304  -0.0613090   0.0000000), wk =   0.0277778
        k(   66) = (   0.0621304  -0.0481400   0.0000000), wk =   0.0277778
        k(   67) = (   0.0621304  -0.0349711   0.0000000), wk =   0.0277778
        k(   68) = (  -0.0745565   0.0261626   0.0000000), wk =   0.0138889
        k(   69) = (  -0.0745565   0.0393315   0.0000000), wk =   0.0277778
        k(   70) = (  -0.0745565   0.0525004   0.0000000), wk =   0.0277778
        k(   71) = (  -0.0745565   0.0656694   0.0000000), wk =   0.0277778
        k(   72) = (  -0.0745565   0.0788383   0.0000000), wk =   0.0277778
        k(   73) = (  -0.0745565   0.0920073   0.0000000), wk =   0.0277778
        k(   74) = (  -0.0745565  -0.0528510   0.0000000), wk =   0.0138889

     Initial potential from superposition of free atoms

     starting charge  131.81888, renormalised to  132.00000

     negative rho (up, down):  4.598E-04 0.000E+00

     %%%%%%%%%%%%%%%%%%%%%%%%%%%%%%%%%%%%%%%%%%%%%%%%%%%%%%%%%%%%%%%%%%%%%%%%
     %                                                                      %
     % You are using vdW-DF, which was implemented by the Thonhauser group. %
     % Please cite the following two papers that made this development      %
     % possible and the two reviews that describe the various versions:     %
     %                                                                      %
     %   T. Thonhauser et al., PRL 115, 136402 (2015).                      %
     %   T. Thonhauser et al., PRB 76, 125112 (2007).                       %
     %   K. Berland et al., Rep. Prog. Phys. 78, 066501 (2015).             %
     %   D.C. Langreth et al., J. Phys.: Condens. Matter 21, 084203 (2009). %
     %                                                                      %
     %                                                                      %
     % If you are calculating the stress with vdW-DF, please also cite:     %
     %                                                                      %
     %   R. Sabatini et al., J. Phys.: Condens. Matter 24, 424209 (2012).   %
     %                                                                      %
     %%%%%%%%%%%%%%%%%%%%%%%%%%%%%%%%%%%%%%%%%%%%%%%%%%%%%%%%%%%%%%%%%%%%%%%%

     Adding external electric field

     Computed dipole along edir(3) :
        Dipole                0.0073 Ry au,          0.0186 Debye
        Dipole field          0.0000 Ry au,

        Potential amp.       -0.0012 Ry
        Total length         46.9300 bohr

     Starting wfcs are  174 randomized atomic wfcs

     Self-consistent Calculation

     iteration #  1     ecut=    55.12 Ry     beta= 0.10
     Davidson diagonalization with overlap
     ethr =  1.00E-02,  avg # of iterations =  2.0

[...]

     total energy              =   -1274.25517897 Ry
     estimated scf accuracy    <       2.99319401 Ry

[...]

     iteration #  3     ecut=    55.12 Ry     beta= 0.10
     Davidson diagonalization with overlap
     c_bands:  2 eigenvalues not converged
     c_bands:  1 eigenvalues not converged
     c_bands:  1 eigenvalues not converged
     c_bands:  1 eigenvalues not converged
     c_bands:  2 eigenvalues not converged
     c_bands:  2 eigenvalues not converged
     c_bands:  2 eigenvalues not converged
     c_bands:  1 eigenvalues not converged
     c_bands:  1 eigenvalues not converged
     c_bands:  2 eigenvalues not converged
     c_bands:  2 eigenvalues not converged
     c_bands:  2 eigenvalues not converged
     ethr =  5.01E-04,  avg # of iterations = 15.7

[...]

     iteration # 10     ecut=    55.12 Ry     beta= 0.10
     Davidson diagonalization with overlap
     ethr =  2.64E-05,  avg # of iterations =  3.7

[...]

     total energy              =   -1274.49249618 Ry
     estimated scf accuracy    <       0.00003393 Ry

     iteration # 16     ecut=    55.12 Ry     beta= 0.10
     Davidson diagonalization with overlap
     c_bands:  1 eigenvalues not converged
     c_bands:  1 eigenvalues not converged
     c_bands:  2 eigenvalues not converged
     c_bands:  2 eigenvalues not converged
     c_bands:  1 eigenvalues not converged
     ethr =  2.57E-08,  avg # of iterations = 12.5

[...]

     Adding external electric field

     Computed dipole along edir(3) :
        Dipole                0.0542 Ry au,          0.1377 Debye
        Dipole field          0.0001 Ry au,

        Potential amp.       -0.0088 Ry
        Total length         46.9300 bohr

     End of self-consistent calculation

          k = 0.0000 0.0000 0.0000 ( 50349 PWs)   bands (ev):

   -32.4556 -32.4530 -32.4129 -32.4127 -32.0444 -32.0046 -16.2577 -16.2489
   -16.2085 -16.1717 -16.1613 -16.1293 -16.1169 -16.0929 -16.0664 -16.0189
   -15.9704 -15.7462 -15.7400 -15.6932 -15.6173 -15.5871 -15.5513 -15.4299
    -3.6846  -3.6333  -3.6224  -3.6140  -3.5892  -3.5779  -3.5546  -3.5512
    -3.5242  -3.5101  -3.4593  -3.4197  -3.4085  -3.4028  -3.3888  -3.3850
    -3.3641  -3.3579  -3.3526  -3.3310  -3.2802  -3.2683  -3.2571  -3.2481
    -3.1905  -3.0986  -3.0640  -3.0517  -2.9831  -2.9337  -2.9295  -1.9111
    -1.1033  -1.0117  -0.9680  -0.7010   1.0768   1.2271   1.2675   1.2683
     1.2833   1.4382   1.6184   1.7884   2.0074   2.0138   2.0446   2.0807
     2.0903   2.1510   2.1527   2.2179   2.2273   2.3151   2.3244

[...]

          k = 0.0621-0.0350 0.0000 ( 50396 PWs)   bands (ev):

[...]

          k =-0.0746 0.0262 0.0000 ( 50386 PWs)   bands (ev):

[...]

          k =-0.0746-0.0529 0.0000 ( 50514 PWs)   bands (ev):

   -32.4527 -32.4523 -32.4149 -32.4128 -32.0461 -32.0025 -16.2780 -16.2604
   -16.2504 -16.2037 -16.1516 -16.1462 -16.0959 -16.0948 -16.0768 -16.0164
   -15.9701 -15.7474 -15.7417 -15.6436 -15.6314 -15.6207 -15.5684 -15.4387
    -3.5649  -3.5358  -3.4987  -3.4669  -3.4217  -3.3916  -3.3642  -3.3619
    -3.3359  -3.3217  -3.3048  -3.3031  -3.2927  -3.2832  -3.2729  -3.2602
    -3.2530  -3.2447  -3.2406  -3.2287  -3.2105  -3.2085  -3.2071  -3.1972
    -3.1936  -3.1623  -3.1028  -3.0556  -2.9863  -2.9165  -1.6964  -1.4702
    -0.7433  -0.6444  -0.5664  -0.4650  -0.2066   0.1827   0.2994   0.4134
     0.6622   0.7694   0.8354   0.9780   1.0376   1.3998   1.4805   1.6911
     1.7011   2.0462   2.1686   2.1713   2.1830   2.2485   2.2942

     the Fermi energy is     1.3466 ev

!    total energy              =   -1274.49249684 Ry
     estimated scf accuracy    <       0.00000909 Ry
     smearing contrib. (-TS)   =      -0.07683323 Ry
     internal energy E=F+TS    =   -1274.41566361 Ry

     The total energy is F=E-TS. E is the sum of the following terms:
     one-electron contribution =   -5722.03240750 Ry
     hartree contribution      =    2912.97814144 Ry
     xc contribution           =    -586.09076803 Ry
     ewald contribution        =    2120.72936542 Ry
     electric field correction =       0.00000506 Ry

     convergence has been achieved in  16 iterations

     negative rho (up, down):  1.161E-04 0.000E+00

     Forces acting on atoms (cartesian axes, Ry/au):

     atom    1 type  1   force =     0.00023502    0.00016277    0.00221978
     atom    2 type  1   force =     0.00024146    0.00017572    0.00222031
     atom    3 type  2   force =    -0.00001226   -0.00000266    0.00840539
     atom    4 type  2   force =    -0.00001433   -0.00001688    0.00842744
     atom    5 type  1   force =    -0.00011350   -0.00005396   -0.00876912
     atom    6 type  1   force =    -0.00006974   -0.00007125   -0.00876067
     atom    7 type  2   force =    -0.00004409    0.00000391   -0.00024862
     atom    8 type  2   force =     0.00000446   -0.00002963   -0.00025699
     atom    9 type  1   force =    -0.00000563   -0.00001842   -0.00232353
     atom   10 type  1   force =    -0.00004429   -0.00002041   -0.00228951
     atom   11 type  2   force =    -0.00007925   -0.00006323    0.00068407
     atom   12 type  2   force =    -0.00009786   -0.00006597    0.00069146

     Total force =     0.017808     Total SCF correction =     0.007480
     SCF correction compared to forces is large: reduce conv_thr to get better values

     Writing output data file ./La2Ag2/La2Ag2_beef.save/

     General routines

     Parallel routines

   This run was terminated on:   1:39:52  24Jun2022

   JOB DONE.