     Program PWSCF v.6.6 starts on 24Jun2022 at 10:18:24

     R & G space division:  proc/nbgrp/npool/nimage =      37
     Fft bands division:     nmany     =       1
     Reading input from La2Au2.in
Warning: card &CELL ignored
Warning: card / ignored

     Current dimensions of program PWSCF are:
     Max number of different atomic species (ntypx) = 10
     Max number of k-points (npk) =  40000
     Max angular momentum in pseudopotentials (lmaxx) =  3
     Presently stress not available with electric field and gates

     Message from routine cell_base_init:
     DEPRECATED: use true lattice parameter, not A to a.u. conversion factor
     file La.pbe-spfn-rrkjus_psl.1.0.0.UPF: wavefunction(s)  4F renormalized

     IMPORTANT: XC functional enforced from input :
     Exchange-correlation= BEEF-VDW
                           (   1   4  43  14   2   0   0)
     Any further DFT definition will be discarded
     Please, verify this is what you really want

     Subspace diagonalization in iterative solution of the eigenvalue problem:
     a serial algorithm will be used

     bravais-lattice index     =            0
     lattice parameter (alat)  =       1.8897  a.u.
     unit-cell volume          =    6846.7275 (a.u.)^3
     number of atoms/cell      =           12
     number of atomic types    =            2
     number of electrons       =       132.00
     number of Kohn-Sham states=           79
     kinetic-energy cutoff     =      55.1240  Ry
     charge density cutoff     =     551.2396  Ry
     convergence threshold     =      1.0E-05
     mixing beta               =       0.1000
     number of iterations used =           10  plain     mixing
     Exchange-correlation= BEEF-VDW
                           (   1   4  43  14   2   0   0)

     celldm(1)=   1.889726  celldm(2)=   0.000000  celldm(3)=   0.000000
     celldm(4)=   0.000000  celldm(5)=   0.000000  celldm(6)=   0.000000

     crystal axes: (cart. coord. in units of alat)
               a(1) = (   6.553564   0.000000   0.000000 )
               a(2) = (   2.410882   6.094001   0.000000 )
               a(3) = (   0.000000   0.000000  25.404255 )

     reciprocal axes: (cart. coord. in units 2 pi/alat)
               b(1) = (  0.152589 -0.060366  0.000000 )
               b(2) = (  0.000000  0.164096  0.000000 )
               b(3) = (  0.000000  0.000000  0.039363 )

     PseudoPot. # 1 for La read from file:
     ../pseudo/La.pbe-spfn-rrkjus_psl.1.0.0.UPF
     MD5 check sum: e3bc141c2ecb461b8d0a035ce9ac970e
     Pseudo is Ultrasoft + core correction, Zval = 11.0
     Generated using "atomic" code by A. Dal Corso v.6.2.2
     Using radial grid of 1253 points,  8 beta functions with:
                l(1) =   0
                l(2) =   0
                l(3) =   1
                l(4) =   1
                l(5) =   2
                l(6) =   2
                l(7) =   3
                l(8) =   3
     Q(r) pseudized with 0 coefficients

     PseudoPot. # 2 for Au read from file:
     ../pseudo/Au.pbe-n-rrkjus_psl.1.0.0.UPF
     MD5 check sum: d7e77ba19504afed2c9b41c931dde4f0
     Pseudo is Ultrasoft + core correction, Zval = 11.0
     Generated using "atomic" code by A. Dal Corso v.6.3
     Using radial grid of 1279 points,  6 beta functions with:
                l(1) =   0
                l(2) =   0
                l(3) =   1
                l(4) =   1
                l(5) =   2
                l(6) =   2
     Q(r) pseudized with 0 coefficients

     atomic species   valence    mass     pseudopotential
        La            11.00   138.90547     La( 1.00)
        Au            11.00   196.96657     Au( 1.00)

     No symmetry found

   Cartesian axes

     site n.     atom                  positions (alat units)
         1           La  tau(   1) = (   0.0000000   0.0000000  10.0000000  )
         2           La  tau(   2) = (   4.4822229   3.0470005  10.0000000  )
         3           Au  tau(   3) = (   3.2767819   0.0000000  10.0000000  )
         4           Au  tau(   4) = (   1.2054410   3.0470005  10.0000000  )
         5           La  tau(   5) = (   6.5535639   4.4550913  12.7021273  )
         6           La  tau(   6) = (   2.0713410   1.4080908  12.7021273  )
         7           Au  tau(   7) = (   3.2767819   4.4550913  12.7021273  )
         8           Au  tau(   8) = (   5.3481229   1.4080908  12.7021273  )
         9           La  tau(   9) = (   4.2673377   2.9009200  15.4219579  )
        10           La  tau(  10) = (   8.7520150   5.9496131  15.4218063  )
        11           Au  tau(  11) = (   7.5363223   2.8949116  15.2628773  )
        12           Au  tau(  12) = (   5.4643514   5.9428916  15.2628098  )

     number of k points=    74  Fermi-Dirac smearing, width (Ry)=  0.0100
                       cart. coord. in units 2pi/alat
        k(    1) = (   0.0000000   0.0000000   0.0000000), wk =   0.0138889
        k(    2) = (   0.0000000   0.0136747   0.0000000), wk =   0.0277778
        k(    3) = (   0.0000000   0.0273493   0.0000000), wk =   0.0277778
        k(    4) = (   0.0000000   0.0410240   0.0000000), wk =   0.0277778
        k(    5) = (   0.0000000   0.0546986   0.0000000), wk =   0.0277778
        k(    6) = (   0.0000000   0.0683733   0.0000000), wk =   0.0277778
        k(    7) = (   0.0000000  -0.0820479   0.0000000), wk =   0.0138889
        k(    8) = (   0.0127157  -0.0050305   0.0000000), wk =   0.0277778
        k(    9) = (   0.0127157   0.0086441   0.0000000), wk =   0.0277778
        k(   10) = (   0.0127157   0.0223188   0.0000000), wk =   0.0277778
        k(   11) = (   0.0127157   0.0359934   0.0000000), wk =   0.0277778
        k(   12) = (   0.0127157   0.0496681   0.0000000), wk =   0.0277778
        k(   13) = (   0.0127157   0.0633427   0.0000000), wk =   0.0277778
        k(   14) = (   0.0127157  -0.0870784   0.0000000), wk =   0.0277778
        k(   15) = (   0.0127157  -0.0734038   0.0000000), wk =   0.0277778
        k(   16) = (   0.0127157  -0.0597291   0.0000000), wk =   0.0277778
        k(   17) = (   0.0127157  -0.0460545   0.0000000), wk =   0.0277778
        k(   18) = (   0.0127157  -0.0323798   0.0000000), wk =   0.0277778
        k(   19) = (   0.0127157  -0.0187052   0.0000000), wk =   0.0277778
        k(   20) = (   0.0254315  -0.0100611   0.0000000), wk =   0.0277778
        k(   21) = (   0.0254315   0.0036136   0.0000000), wk =   0.0277778
        k(   22) = (   0.0254315   0.0172882   0.0000000), wk =   0.0277778
        k(   23) = (   0.0254315   0.0309629   0.0000000), wk =   0.0277778
        k(   24) = (   0.0254315   0.0446375   0.0000000), wk =   0.0277778
        k(   25) = (   0.0254315   0.0583122   0.0000000), wk =   0.0277778
        k(   26) = (   0.0254315  -0.0921090   0.0000000), wk =   0.0277778
        k(   27) = (   0.0254315  -0.0784343   0.0000000), wk =   0.0277778
        k(   28) = (   0.0254315  -0.0647597   0.0000000), wk =   0.0277778
        k(   29) = (   0.0254315  -0.0510850   0.0000000), wk =   0.0277778
        k(   30) = (   0.0254315  -0.0374104   0.0000000), wk =   0.0277778
        k(   31) = (   0.0254315  -0.0237357   0.0000000), wk =   0.0277778
        k(   32) = (   0.0381472  -0.0150916   0.0000000), wk =   0.0277778
        k(   33) = (   0.0381472  -0.0014170   0.0000000), wk =   0.0277778
        k(   34) = (   0.0381472   0.0122577   0.0000000), wk =   0.0277778
        k(   35) = (   0.0381472   0.0259323   0.0000000), wk =   0.0277778
        k(   36) = (   0.0381472   0.0396070   0.0000000), wk =   0.0277778
        k(   37) = (   0.0381472   0.0532816   0.0000000), wk =   0.0277778
        k(   38) = (   0.0381472  -0.0971395   0.0000000), wk =   0.0277778
        k(   39) = (   0.0381472  -0.0834649   0.0000000), wk =   0.0277778
        k(   40) = (   0.0381472  -0.0697902   0.0000000), wk =   0.0277778
        k(   41) = (   0.0381472  -0.0561156   0.0000000), wk =   0.0277778
        k(   42) = (   0.0381472  -0.0424409   0.0000000), wk =   0.0277778
        k(   43) = (   0.0381472  -0.0287663   0.0000000), wk =   0.0277778
        k(   44) = (   0.0508629  -0.0201222   0.0000000), wk =   0.0277778
        k(   45) = (   0.0508629  -0.0064475   0.0000000), wk =   0.0277778
        k(   46) = (   0.0508629   0.0072271   0.0000000), wk =   0.0277778
        k(   47) = (   0.0508629   0.0209018   0.0000000), wk =   0.0277778
        k(   48) = (   0.0508629   0.0345764   0.0000000), wk =   0.0277778
        k(   49) = (   0.0508629   0.0482511   0.0000000), wk =   0.0277778
        k(   50) = (   0.0508629  -0.1021701   0.0000000), wk =   0.0277778
        k(   51) = (   0.0508629  -0.0884954   0.0000000), wk =   0.0277778
        k(   52) = (   0.0508629  -0.0748208   0.0000000), wk =   0.0277778
        k(   53) = (   0.0508629  -0.0611461   0.0000000), wk =   0.0277778
        k(   54) = (   0.0508629  -0.0474715   0.0000000), wk =   0.0277778
        k(   55) = (   0.0508629  -0.0337968   0.0000000), wk =   0.0277778
        k(   56) = (   0.0635786  -0.0251527   0.0000000), wk =   0.0277778
        k(   57) = (   0.0635786  -0.0114781   0.0000000), wk =   0.0277778
        k(   58) = (   0.0635786   0.0021966   0.0000000), wk =   0.0277778
        k(   59) = (   0.0635786   0.0158712   0.0000000), wk =   0.0277778
        k(   60) = (   0.0635786   0.0295459   0.0000000), wk =   0.0277778
        k(   61) = (   0.0635786   0.0432206   0.0000000), wk =   0.0277778
        k(   62) = (   0.0635786  -0.1072006   0.0000000), wk =   0.0277778
        k(   63) = (   0.0635786  -0.0935260   0.0000000), wk =   0.0277778
        k(   64) = (   0.0635786  -0.0798513   0.0000000), wk =   0.0277778
        k(   65) = (   0.0635786  -0.0661767   0.0000000), wk =   0.0277778
        k(   66) = (   0.0635786  -0.0525020   0.0000000), wk =   0.0277778
        k(   67) = (   0.0635786  -0.0388274   0.0000000), wk =   0.0277778
        k(   68) = (  -0.0762944   0.0301832   0.0000000), wk =   0.0138889
        k(   69) = (  -0.0762944   0.0438579   0.0000000), wk =   0.0277778
        k(   70) = (  -0.0762944   0.0575325   0.0000000), wk =   0.0277778
        k(   71) = (  -0.0762944   0.0712072   0.0000000), wk =   0.0277778
        k(   72) = (  -0.0762944   0.0848818   0.0000000), wk =   0.0277778
        k(   73) = (  -0.0762944   0.0985565   0.0000000), wk =   0.0277778
        k(   74) = (  -0.0762944  -0.0518647   0.0000000), wk =   0.0138889

     Initial potential from superposition of free atoms

     starting charge  131.82061, renormalised to  132.00000

     negative rho (up, down):  1.122E-03 0.000E+00

     %%%%%%%%%%%%%%%%%%%%%%%%%%%%%%%%%%%%%%%%%%%%%%%%%%%%%%%%%%%%%%%%%%%%%%%%
     %                                                                      %
     % You are using vdW-DF, which was implemented by the Thonhauser group. %
     % Please cite the following two papers that made this development      %
     % possible and the two reviews that describe the various versions:     %
     %                                                                      %
     %   T. Thonhauser et al., PRL 115, 136402 (2015).                      %
     %   T. Thonhauser et al., PRB 76, 125112 (2007).                       %
     %   K. Berland et al., Rep. Prog. Phys. 78, 066501 (2015).             %
     %   D.C. Langreth et al., J. Phys.: Condens. Matter 21, 084203 (2009). %
     %                                                                      %
     %                                                                      %
     % If you are calculating the stress with vdW-DF, please also cite:     %
     %                                                                      %
     %   R. Sabatini et al., J. Phys.: Condens. Matter 24, 424209 (2012).   %
     %                                                                      %
     %%%%%%%%%%%%%%%%%%%%%%%%%%%%%%%%%%%%%%%%%%%%%%%%%%%%%%%%%%%%%%%%%%%%%%%%

     Adding external electric field

     Computed dipole along edir(3) :
        Dipole                0.0089 Ry au,          0.0227 Debye
        Dipole field          0.0000 Ry au,

        Potential amp.       -0.0015 Ry
        Total length         46.8069 bohr

     Starting wfcs are  174 randomized atomic wfcs

     Self-consistent Calculation

     iteration #  1     ecut=    55.12 Ry     beta= 0.10
     Davidson diagonalization with overlap
     ethr =  1.00E-02,  avg # of iterations =  2.0

[...]

     total energy              =   -1283.26379492 Ry
     estimated scf accuracy    <       4.09481233 Ry

     iteration #  2     ecut=    55.12 Ry     beta= 0.10
     Davidson diagonalization with overlap
     c_bands:  1 eigenvalues not converged
     c_bands:  4 eigenvalues not converged
     ethr =  3.10E-03,  avg # of iterations = 11.0

[...]

     iteration #  8     ecut=    55.12 Ry     beta= 0.10
     Davidson diagonalization with overlap
     ethr =  4.80E-05,  avg # of iterations =  5.8

[...]

     total energy              =   -1283.54758409 Ry
     estimated scf accuracy    <       0.00004232 Ry

     iteration # 17     ecut=    55.12 Ry     beta= 0.10
     Davidson diagonalization with overlap
     c_bands:  1 eigenvalues not converged
     c_bands:  1 eigenvalues not converged
     ethr =  3.21E-08,  avg # of iterations = 11.5

[...]

     Adding external electric field

     Computed dipole along edir(3) :
        Dipole                0.0400 Ry au,          0.1017 Debye
        Dipole field          0.0001 Ry au,

        Potential amp.       -0.0069 Ry
        Total length         46.8069 bohr

     End of self-consistent calculation

          k = 0.0000 0.0000 0.0000 ( 47361 PWs)   bands (ev):

   -31.7838 -31.7636 -31.7073 -31.6874 -31.4385 -31.3644 -15.7597 -15.7360
   -15.6084 -15.5609 -15.5285 -15.5258 -15.4797 -15.4545 -15.4151 -15.3958
   -15.3292 -15.1166 -15.0119 -14.9599 -14.9585 -14.9366 -14.9013 -14.7156
    -3.8257  -3.3667  -3.2821  -3.2615  -3.2110  -3.1514  -3.1085  -3.0591
    -3.0177  -2.9938  -2.8879  -2.8746  -2.8210  -2.7807  -2.7745  -2.7012
    -2.6712  -2.6511  -2.5506  -2.5175  -2.4969  -2.4766  -2.4303  -2.4030
    -2.3848  -2.2642  -2.1142  -2.0875  -2.0476  -1.9791  -1.9676  -1.8428
    -1.3092  -1.0074  -0.8815  -0.7438   1.6800   1.7147   1.7911   1.7990
     1.8687   2.1219   2.2827   2.5222   2.5623   2.6137   2.6470   2.6572
     2.7247   2.7760   2.8501   2.8746   2.8779   2.9269   2.9864

[...]

          k = 0.0636-0.0388 0.0000 ( 47264 PWs)   bands (ev):

[...]

          k =-0.0763 0.0302 0.0000 ( 47336 PWs)   bands (ev):

[...]

          k =-0.0763-0.0519 0.0000 ( 47276 PWs)   bands (ev):

   -31.7805 -31.7605 -31.7087 -31.6886 -31.4406 -31.3609 -15.8004 -15.7615
   -15.6781 -15.6051 -15.5617 -15.5143 -15.4896 -15.4669 -15.4225 -15.3856
   -15.3362 -15.0648 -15.0144 -15.0113 -14.9627 -14.9405 -14.9326 -14.7304
    -3.0563  -3.0434  -2.8850  -2.8614  -2.7532  -2.7412  -2.7052  -2.7015
    -2.6575  -2.5829  -2.5704  -2.5579  -2.5389  -2.5168  -2.4710  -2.4691
    -2.4551  -2.4333  -2.4242  -2.3832  -2.3796  -2.3646  -2.3403  -2.3215
    -2.2857  -2.2655  -2.2047  -2.1192  -2.0417  -2.0279  -1.8352  -1.6906
    -1.1020  -0.8715  -0.7678  -0.0418   0.1938   0.2834   0.4602   0.6537
     0.7187   1.1921   1.2112   1.2481   1.4337   1.8232   1.9662   2.2708
     2.3184   2.4773   2.6157   2.6983   2.7205   2.9015   2.9274

     the Fermi energy is     1.9179 ev

!    total energy              =   -1283.54758141 Ry
     estimated scf accuracy    <       0.00000882 Ry
     smearing contrib. (-TS)   =      -0.06615412 Ry
     internal energy E=F+TS    =   -1283.48142729 Ry

     The total energy is F=E-TS. E is the sum of the following terms:
     one-electron contribution =   -5946.14911501 Ry
     hartree contribution      =    3025.05684917 Ry
     xc contribution           =    -646.79171695 Ry
     ewald contribution        =    2284.40255257 Ry
     electric field correction =       0.00000294 Ry

     convergence has been achieved in  17 iterations

     negative rho (up, down):  6.657E-04 0.000E+00

     Forces acting on atoms (cartesian axes, Ry/au):

     atom    1 type  1   force =    -0.00508208   -0.00345446   -0.00331223
     atom    2 type  1   force =    -0.00510429   -0.00346250   -0.00333247
     atom    3 type  2   force =    -0.00041766   -0.00030992    0.00803481
     atom    4 type  2   force =    -0.00046342   -0.00028851    0.00802482
     atom    5 type  1   force =     0.00425745    0.00289073   -0.00770597
     atom    6 type  1   force =     0.00424523    0.00289309   -0.00784647
     atom    7 type  2   force =     0.00048356    0.00031738    0.00106862
     atom    8 type  2   force =     0.00047819    0.00032495    0.00105577
     atom    9 type  1   force =     0.00032864    0.00023803    0.00134839
     atom   10 type  1   force =     0.00003813    0.00002221    0.00136289
     atom   11 type  2   force =     0.00054161    0.00052773    0.00064580
     atom   12 type  2   force =     0.00069462    0.00030126    0.00065605

     Total force =     0.020248     Total SCF correction =     0.007784
     SCF correction compared to forces is large: reduce conv_thr to get better values

     Writing output data file ./La2Au2/La2Au2_beef.save/

     General routines

     Parallel routines

   This run was terminated on:  12:50: 2  24Jun2022

   JOB DONE.