     Program PWSCF v.6.6 starts on 24Jun2022 at 12:50: 5

     R & G space division:  proc/nbgrp/npool/nimage =      37
     Fft bands division:     nmany     =       1
     Reading input from La2Cd2.in
Warning: card &CELL ignored
Warning: card / ignored

     Current dimensions of program PWSCF are:
     Max number of different atomic species (ntypx) = 10
     Max number of k-points (npk) =  40000
     Max angular momentum in pseudopotentials (lmaxx) =  3
     Presently stress not available with electric field and gates

     Message from routine cell_base_init:
     DEPRECATED: use true lattice parameter, not A to a.u. conversion factor
     file La.pbe-spfn-rrkjus_psl.1.0.0.UPF: wavefunction(s)  4F renormalized
     file Cd.pbe-n-rrkjus_psl.1.0.0.UPF: wavefunction(s)  4D renormalized

     IMPORTANT: XC functional enforced from input :
     Exchange-correlation= BEEF-VDW
                           (   1   4  43  14   2   0   0)
     Any further DFT definition will be discarded
     Please, verify this is what you really want

     Subspace diagonalization in iterative solution of the eigenvalue problem:
     a serial algorithm will be used

     Found symmetry operation: I + ( -0.5000  0.5000  0.0000)
     This is a supercell, fractional translations are disabled

     bravais-lattice index     =            0
     lattice parameter (alat)  =       1.8897  a.u.
     unit-cell volume          =    7793.2337 (a.u.)^3
     number of atoms/cell      =           12
     number of atomic types    =            2
     number of electrons       =       138.00
     number of Kohn-Sham states=           83
     kinetic-energy cutoff     =      55.1240  Ry
     charge density cutoff     =     551.2396  Ry
     convergence threshold     =      1.0E-05
     mixing beta               =       0.1000
     number of iterations used =           10  plain     mixing
     Exchange-correlation= BEEF-VDW
                           (   1   4  43  14   2   0   0)

     celldm(1)=   1.889726  celldm(2)=   0.000000  celldm(3)=   0.000000
     celldm(4)=   0.000000  celldm(5)=   0.000000  celldm(6)=   0.000000

     crystal axes: (cart. coord. in units of alat)
               a(1) = (   6.897631   0.000000   0.000000 )
               a(2) = (   2.187198   6.541673   0.000000 )
               a(3) = (   0.000000   0.000000  25.593660 )

     reciprocal axes: (cart. coord. in units 2 pi/alat)
               b(1) = (  0.144977 -0.048473  0.000000 )
               b(2) = (  0.000000  0.152866  0.000000 )
               b(3) = (  0.000000  0.000000  0.039072 )

     PseudoPot. # 1 for La read from file:
     ../pseudo/La.pbe-spfn-rrkjus_psl.1.0.0.UPF
     MD5 check sum: e3bc141c2ecb461b8d0a035ce9ac970e
     Pseudo is Ultrasoft + core correction, Zval = 11.0
     Generated using "atomic" code by A. Dal Corso v.6.2.2
     Using radial grid of 1253 points,  8 beta functions with:
                l(1) =   0
                l(2) =   0
                l(3) =   1
                l(4) =   1
                l(5) =   2
                l(6) =   2
                l(7) =   3
                l(8) =   3
     Q(r) pseudized with 0 coefficients

     PseudoPot. # 2 for Cd read from file:
     ../pseudo/Cd.pbe-n-rrkjus_psl.1.0.0.UPF
     MD5 check sum: a744746c89d2344a134ead0d8ab94e7a
     Pseudo is Ultrasoft + core correction, Zval = 12.0
     Generated using "atomic" code by A. Dal Corso v.6.3
     Using radial grid of 1239 points,  6 beta functions with:
                l(1) =   0
                l(2) =   0
                l(3) =   1
                l(4) =   1
                l(5) =   2
                l(6) =   2
     Q(r) pseudized with 0 coefficients

     atomic species   valence    mass     pseudopotential
        La            11.00   138.90547     La( 1.00)
        Cd            12.00   112.41400     Cd( 1.00)

     No symmetry found

   Cartesian axes

     site n.     atom                  positions (alat units)
         1           La  tau(   1) = (   0.0000000   0.0000000  10.0000000  )
         2           La  tau(   2) = (   4.5424148   3.2708363  10.0000000  )
         3           Cd  tau(   3) = (   3.4488157   0.0000000  10.0000000  )
         4           Cd  tau(   4) = (   1.0935992   3.2708363  10.0000000  )
         5           La  tau(   5) = (   6.8976313   4.9667466  12.7968301  )
         6           La  tau(   6) = (   2.3552165   1.6959102  12.7968301  )
         7           Cd  tau(   7) = (   3.4488157   4.9667466  12.7968301  )
         8           Cd  tau(   8) = (   5.8040322   1.6959102  12.7968301  )
         9           La  tau(   9) = (   4.6912332   3.3779444  15.4951406  )
        10           La  tau(  10) = (   0.1487773   0.1071699  15.4951315  )
        11           Cd  tau(  11) = (   1.2528930   3.3855436  15.5627972  )
        12           Cd  tau(  12) = (   3.6080464   0.1146736  15.5627908  )

     number of k points=    74  Fermi-Dirac smearing, width (Ry)=  0.0100
                       cart. coord. in units 2pi/alat
        k(    1) = (   0.0000000   0.0000000   0.0000000), wk =   0.0138889
        k(    2) = (   0.0000000   0.0127388   0.0000000), wk =   0.0277778
        k(    3) = (   0.0000000   0.0254777   0.0000000), wk =   0.0277778
        k(    4) = (   0.0000000   0.0382165   0.0000000), wk =   0.0277778
        k(    5) = (   0.0000000   0.0509554   0.0000000), wk =   0.0277778
        k(    6) = (   0.0000000   0.0636942   0.0000000), wk =   0.0277778
        k(    7) = (   0.0000000  -0.0764330   0.0000000), wk =   0.0138889
        k(    8) = (   0.0120814  -0.0040394   0.0000000), wk =   0.0277778
        k(    9) = (   0.0120814   0.0086994   0.0000000), wk =   0.0277778
        k(   10) = (   0.0120814   0.0214383   0.0000000), wk =   0.0277778
        k(   11) = (   0.0120814   0.0341771   0.0000000), wk =   0.0277778
        k(   12) = (   0.0120814   0.0469160   0.0000000), wk =   0.0277778
        k(   13) = (   0.0120814   0.0596548   0.0000000), wk =   0.0277778
        k(   14) = (   0.0120814  -0.0804725   0.0000000), wk =   0.0277778
        k(   15) = (   0.0120814  -0.0677336   0.0000000), wk =   0.0277778
        k(   16) = (   0.0120814  -0.0549948   0.0000000), wk =   0.0277778
        k(   17) = (   0.0120814  -0.0422559   0.0000000), wk =   0.0277778
        k(   18) = (   0.0120814  -0.0295171   0.0000000), wk =   0.0277778
        k(   19) = (   0.0120814  -0.0167783   0.0000000), wk =   0.0277778
        k(   20) = (   0.0241629  -0.0080788   0.0000000), wk =   0.0277778
        k(   21) = (   0.0241629   0.0046600   0.0000000), wk =   0.0277778
        k(   22) = (   0.0241629   0.0173989   0.0000000), wk =   0.0277778
        k(   23) = (   0.0241629   0.0301377   0.0000000), wk =   0.0277778
        k(   24) = (   0.0241629   0.0428765   0.0000000), wk =   0.0277778
        k(   25) = (   0.0241629   0.0556154   0.0000000), wk =   0.0277778
        k(   26) = (   0.0241629  -0.0845119   0.0000000), wk =   0.0277778
        k(   27) = (   0.0241629  -0.0717730   0.0000000), wk =   0.0277778
        k(   28) = (   0.0241629  -0.0590342   0.0000000), wk =   0.0277778
        k(   29) = (   0.0241629  -0.0462953   0.0000000), wk =   0.0277778
        k(   30) = (   0.0241629  -0.0335565   0.0000000), wk =   0.0277778
        k(   31) = (   0.0241629  -0.0208177   0.0000000), wk =   0.0277778
        k(   32) = (   0.0362443  -0.0121182   0.0000000), wk =   0.0277778
        k(   33) = (   0.0362443   0.0006206   0.0000000), wk =   0.0277778
        k(   34) = (   0.0362443   0.0133594   0.0000000), wk =   0.0277778
        k(   35) = (   0.0362443   0.0260983   0.0000000), wk =   0.0277778
        k(   36) = (   0.0362443   0.0388371   0.0000000), wk =   0.0277778
        k(   37) = (   0.0362443   0.0515760   0.0000000), wk =   0.0277778
        k(   38) = (   0.0362443  -0.0885513   0.0000000), wk =   0.0277778
        k(   39) = (   0.0362443  -0.0758124   0.0000000), wk =   0.0277778
        k(   40) = (   0.0362443  -0.0630736   0.0000000), wk =   0.0277778
        k(   41) = (   0.0362443  -0.0503348   0.0000000), wk =   0.0277778
        k(   42) = (   0.0362443  -0.0375959   0.0000000), wk =   0.0277778
        k(   43) = (   0.0362443  -0.0248571   0.0000000), wk =   0.0277778
        k(   44) = (   0.0483258  -0.0161576   0.0000000), wk =   0.0277778
        k(   45) = (   0.0483258  -0.0034188   0.0000000), wk =   0.0277778
        k(   46) = (   0.0483258   0.0093200   0.0000000), wk =   0.0277778
        k(   47) = (   0.0483258   0.0220589   0.0000000), wk =   0.0277778
        k(   48) = (   0.0483258   0.0347977   0.0000000), wk =   0.0277778
        k(   49) = (   0.0483258   0.0475366   0.0000000), wk =   0.0277778
        k(   50) = (   0.0483258  -0.0925907   0.0000000), wk =   0.0277778
        k(   51) = (   0.0483258  -0.0798519   0.0000000), wk =   0.0277778
        k(   52) = (   0.0483258  -0.0671130   0.0000000), wk =   0.0277778
        k(   53) = (   0.0483258  -0.0543742   0.0000000), wk =   0.0277778
        k(   54) = (   0.0483258  -0.0416353   0.0000000), wk =   0.0277778
        k(   55) = (   0.0483258  -0.0288965   0.0000000), wk =   0.0277778
        k(   56) = (   0.0604072  -0.0201971   0.0000000), wk =   0.0277778
        k(   57) = (   0.0604072  -0.0074582   0.0000000), wk =   0.0277778
        k(   58) = (   0.0604072   0.0052806   0.0000000), wk =   0.0277778
        k(   59) = (   0.0604072   0.0180195   0.0000000), wk =   0.0277778
        k(   60) = (   0.0604072   0.0307583   0.0000000), wk =   0.0277778
        k(   61) = (   0.0604072   0.0434971   0.0000000), wk =   0.0277778
        k(   62) = (   0.0604072  -0.0966301   0.0000000), wk =   0.0277778
        k(   63) = (   0.0604072  -0.0838913   0.0000000), wk =   0.0277778
        k(   64) = (   0.0604072  -0.0711524   0.0000000), wk =   0.0277778
        k(   65) = (   0.0604072  -0.0584136   0.0000000), wk =   0.0277778
        k(   66) = (   0.0604072  -0.0456747   0.0000000), wk =   0.0277778
        k(   67) = (   0.0604072  -0.0329359   0.0000000), wk =   0.0277778
        k(   68) = (  -0.0724887   0.0242365   0.0000000), wk =   0.0138889
        k(   69) = (  -0.0724887   0.0369753   0.0000000), wk =   0.0277778
        k(   70) = (  -0.0724887   0.0497141   0.0000000), wk =   0.0277778
        k(   71) = (  -0.0724887   0.0624530   0.0000000), wk =   0.0277778
        k(   72) = (  -0.0724887   0.0751918   0.0000000), wk =   0.0277778
        k(   73) = (  -0.0724887   0.0879307   0.0000000), wk =   0.0277778
        k(   74) = (  -0.0724887  -0.0521966   0.0000000), wk =   0.0138889

     Initial potential from superposition of free atoms

     starting charge  137.79197, renormalised to  138.00000

     negative rho (up, down):  3.388E-03 0.000E+00

     %%%%%%%%%%%%%%%%%%%%%%%%%%%%%%%%%%%%%%%%%%%%%%%%%%%%%%%%%%%%%%%%%%%%%%%%
     %                                                                      %
     % You are using vdW-DF, which was implemented by the Thonhauser group. %
     % Please cite the following two papers that made this development      %
     % possible and the two reviews that describe the various versions:     %
     %                                                                      %
     %   T. Thonhauser et al., PRL 115, 136402 (2015).                      %
     %   T. Thonhauser et al., PRB 76, 125112 (2007).                       %
     %   K. Berland et al., Rep. Prog. Phys. 78, 066501 (2015).             %
     %   D.C. Langreth et al., J. Phys.: Condens. Matter 21, 084203 (2009). %
     %                                                                      %
     %                                                                      %
     % If you are calculating the stress with vdW-DF, please also cite:     %
     %                                                                      %
     %   R. Sabatini et al., J. Phys.: Condens. Matter 24, 424209 (2012).   %
     %                                                                      %
     %%%%%%%%%%%%%%%%%%%%%%%%%%%%%%%%%%%%%%%%%%%%%%%%%%%%%%%%%%%%%%%%%%%%%%%%

     Adding external electric field

     Computed dipole along edir(3) :
        Dipole               -0.0034 Ry au,         -0.0086 Debye
        Dipole field         -0.0000 Ry au,

        Potential amp.        0.0005 Ry
        Total length         47.1559 bohr

     Starting wfcs are  174 randomized atomic wfcs

     Self-consistent Calculation

     iteration #  1     ecut=    55.12 Ry     beta= 0.10
     Davidson diagonalization with overlap
     ethr =  1.00E-02,  avg # of iterations =  2.0

[...]

     total energy              =   -1371.32960886 Ry
     estimated scf accuracy    <       3.21135792 Ry

[...]

     iteration #  3     ecut=    55.12 Ry     beta= 0.10
     Davidson diagonalization with overlap
     c_bands:  1 eigenvalues not converged
     c_bands:  1 eigenvalues not converged
     c_bands:  2 eigenvalues not converged
     c_bands:  1 eigenvalues not converged
     c_bands:  1 eigenvalues not converged
     c_bands:  1 eigenvalues not converged
     ethr =  7.48E-04,  avg # of iterations = 14.2

[...]

     iteration # 20     ecut=    55.12 Ry     beta= 0.10
     Davidson diagonalization with overlap
     c_bands:  4 eigenvalues not converged
     c_bands:  1 eigenvalues not converged
     ethr =  2.42E-08,  avg # of iterations =  7.6

[...]

     total energy              =   -1371.52667940 Ry
     estimated scf accuracy    <       0.00002377 Ry

     iteration # 21     ecut=    55.12 Ry     beta= 0.10
     Davidson diagonalization with overlap
     ethr =  1.72E-08,  avg # of iterations =  2.9

[...]

     Adding external electric field

     Computed dipole along edir(3) :
        Dipole               -0.0282 Ry au,         -0.0717 Debye
        Dipole field         -0.0000 Ry au,

        Potential amp.        0.0043 Ry
        Total length         47.1559 bohr

     End of self-consistent calculation

          k = 0.0000 0.0000 0.0000 ( 53809 PWs)   bands (ev):

   -32.6016 -32.5755 -32.5645 -32.5379 -32.1941 -32.1692 -16.3309 -16.3291
   -16.3106 -16.3059 -16.2845 -16.2548 -16.2473 -16.2358 -16.2028 -16.1706
   -16.0444 -15.9642 -15.9371 -15.8354 -15.7821 -15.7560 -15.7310 -15.6515
    -7.6759  -7.6565  -7.6541  -7.6357  -7.6300  -7.6262  -7.6230  -7.6213
    -7.6154  -7.5996  -7.5898  -7.5872  -7.5844  -7.5629  -7.5622  -7.5534
    -7.5478  -7.5460  -7.5268  -7.5234  -7.5229  -7.5104  -7.4963  -7.4906
    -7.4823  -7.4621  -7.4538  -7.3951  -7.3817  -7.3267  -4.1004  -3.0770
    -2.3913  -2.3673  -2.2236  -2.0052   0.5062   0.5284   0.5430   0.6880
     0.7688   0.9751   1.0391   1.3240   1.4436   1.4639   1.5028   1.5981
     1.7640   1.8084   1.8397   1.8660   1.8937   1.9928   1.9948   2.0412
     2.1466   2.1580   2.2003

[...]

          k = 0.0604-0.0329 0.0000 ( 53908 PWs)   bands (ev):

[...]

          k =-0.0725 0.0242 0.0000 ( 53906 PWs)   bands (ev):

[...]

          k =-0.0725-0.0522 0.0000 ( 53726 PWs)   bands (ev):

   -32.6005 -32.5762 -32.5630 -32.5390 -32.1954 -32.1676 -16.3690 -16.3452
   -16.3188 -16.3107 -16.2904 -16.2723 -16.2365 -16.2280 -16.2189 -16.1685
   -16.0446 -15.9663 -15.9382 -15.8025 -15.7914 -15.7769 -15.7485 -15.6596
    -7.6413  -7.6196  -7.6088  -7.6062  -7.5941  -7.5925  -7.5799  -7.5796
    -7.5761  -7.5726  -7.5573  -7.5567  -7.5535  -7.5529  -7.5504  -7.5497
    -7.5470  -7.5227  -7.4943  -7.4884  -7.4824  -7.4723  -7.4720  -7.4650
    -7.4638  -7.4582  -7.4533  -7.4285  -7.3800  -7.3334  -2.7841  -2.6617
    -2.1201  -2.0457  -1.8283  -0.9675  -0.8444  -0.7276  -0.3665  -0.3239
    -0.2548   0.0742   0.1912   0.3955   0.4943   1.1482   1.2022   1.2557
     1.4517   1.5613   1.8562   1.9307   1.9612   2.0537   2.0902   2.0931
     2.1920   2.2180   2.2242

     the Fermi energy is     1.1454 ev

!    total energy              =   -1371.52667638 Ry
     estimated scf accuracy    <       0.00000673 Ry
     smearing contrib. (-TS)   =      -0.07112746 Ry
     internal energy E=F+TS    =   -1371.45554892 Ry

     The total energy is F=E-TS. E is the sum of the following terms:
     one-electron contribution =   -5881.44100954 Ry
     hartree contribution      =    2988.42180549 Ry
     xc contribution           =    -589.74009278 Ry
     ewald contribution        =    2111.30374662 Ry
     electric field correction =       0.00000128 Ry

     convergence has been achieved in  21 iterations

     negative rho (up, down):  2.775E-03 0.000E+00

     Forces acting on atoms (cartesian axes, Ry/au):

     atom    1 type  1   force =     0.00130996    0.00094365    0.00902797
     atom    2 type  1   force =     0.00130646    0.00094884    0.00901515
     atom    3 type  2   force =     0.00034960    0.00025041    0.00111616
     atom    4 type  2   force =     0.00035976    0.00025384    0.00111536
     atom    5 type  1   force =    -0.00022942   -0.00016039   -0.00266729
     atom    6 type  1   force =    -0.00026451   -0.00019111   -0.00266049
     atom    7 type  2   force =    -0.00008815   -0.00009884   -0.00565265
     atom    8 type  2   force =    -0.00011678   -0.00004814   -0.00564538
     atom    9 type  1   force =    -0.00014339   -0.00010090   -0.00108940
     atom   10 type  1   force =    -0.00015135   -0.00011009   -0.00110800
     atom   11 type  2   force =    -0.00116586   -0.00085231   -0.00072987
     atom   12 type  2   force =    -0.00116630   -0.00083497   -0.00072156

     Total force =     0.016024     Total SCF correction =     0.012752
     SCF correction compared to forces is large: reduce conv_thr to get better values

     Writing output data file ./La2Cd2/La2Cd2_beef.save/

     General routines

     Parallel routines

   This run was terminated on:  16:51: 4  24Jun2022

   JOB DONE.