     Program PWSCF v.6.6 starts on 24Jun2022 at 16:51:10

     R & G space division:  proc/nbgrp/npool/nimage =      37
     Fft bands division:     nmany     =       1
     Reading input from La2Hf2.in
Warning: card &CELL ignored
Warning: card / ignored

     Current dimensions of program PWSCF are:
     Max number of different atomic species (ntypx) = 10
     Max number of k-points (npk) =  40000
     Max angular momentum in pseudopotentials (lmaxx) =  3
     Presently stress not available with electric field and gates

     Message from routine cell_base_init:
     DEPRECATED: use true lattice parameter, not A to a.u. conversion factor
     file La.pbe-spfn-rrkjus_psl.1.0.0.UPF: wavefunction(s)  4F renormalized

     IMPORTANT: XC functional enforced from input :
     Exchange-correlation= BEEF-VDW
                           (   1   4  43  14   2   0   0)
     Any further DFT definition will be discarded
     Please, verify this is what you really want

     Subspace diagonalization in iterative solution of the eigenvalue problem:
     a serial algorithm will be used

     Found symmetry operation: I + (  0.5000  0.0000  0.0000)
     This is a supercell, fractional translations are disabled

     bravais-lattice index     =            0
     lattice parameter (alat)  =       1.8897  a.u.
     unit-cell volume          =    7034.5955 (a.u.)^3
     number of atoms/cell      =           12
     number of atomic types    =            2
     number of electrons       =       138.00
     number of Kohn-Sham states=           83
     kinetic-energy cutoff     =      55.1240  Ry
     charge density cutoff     =     551.2396  Ry
     convergence threshold     =      1.0E-05
     mixing beta               =       0.1000
     number of iterations used =           10  plain     mixing
     Exchange-correlation= BEEF-VDW
                           (   1   4  43  14   2   0   0)

     celldm(1)=   1.889726  celldm(2)=   0.000000  celldm(3)=   0.000000
     celldm(4)=   0.000000  celldm(5)=   0.000000  celldm(6)=   0.000000

     crystal axes: (cart. coord. in units of alat)
               a(1) = (   6.792707   0.000000   0.000000 )
               a(2) = (  -3.396353   5.995170   0.000000 )
               a(3) = (   0.000000   0.000000  25.597540 )

     reciprocal axes: (cart. coord. in units 2 pi/alat)
               b(1) = (  0.147217  0.083400 -0.000000 )
               b(2) = (  0.000000  0.166801  0.000000 )
               b(3) = (  0.000000 -0.000000  0.039066 )

     PseudoPot. # 1 for La read from file:
     ../pseudo/La.pbe-spfn-rrkjus_psl.1.0.0.UPF
     MD5 check sum: e3bc141c2ecb461b8d0a035ce9ac970e
     Pseudo is Ultrasoft + core correction, Zval = 11.0
     Generated using "atomic" code by A. Dal Corso v.6.2.2
     Using radial grid of 1253 points,  8 beta functions with:
                l(1) =   0
                l(2) =   0
                l(3) =   1
                l(4) =   1
                l(5) =   2
                l(6) =   2
                l(7) =   3
                l(8) =   3
     Q(r) pseudized with 0 coefficients

     PseudoPot. # 2 for Hf read from file:
     ../pseudo/Hf.pbe-spn-rrkjus_psl.1.0.0.UPF
     MD5 check sum: 9605440c6f839e558204c6a924125fd0
     Pseudo is Ultrasoft + core correction, Zval = 12.0
     Generated using "atomic" code by A. Dal Corso v.6.2.2
     Using radial grid of 1271 points,  6 beta functions with:
                l(1) =   0
                l(2) =   0
                l(3) =   1
                l(4) =   1
                l(5) =   2
                l(6) =   2
     Q(r) pseudized with 0 coefficients

     atomic species   valence    mass     pseudopotential
        La            11.00   138.90547     La( 1.00)
        Hf            12.00   178.49000     Hf( 1.00)

     No symmetry found

   Cartesian axes

     site n.     atom                  positions (alat units)
         1           La  tau(   1) = (   0.0000000   0.0000000  10.0000000  )
         2           La  tau(   2) = (  -0.0000000   5.9951700  10.0000000  )
         3           Hf  tau(   3) = (   1.6981767   2.9975850  10.0000000  )
         4           Hf  tau(   4) = (  -1.6981767   2.9975850  10.0000000  )
         5           La  tau(   5) = (   3.3963534   1.9240849  12.7987700  )
         6           La  tau(   6) = (  -0.0000000   1.9240849  12.7987700  )
         7           Hf  tau(   7) = (  -1.6981767   4.9216699  12.7987700  )
         8           Hf  tau(   8) = (   1.6981767   4.9216699  12.7987700  )
         9           La  tau(   9) = (   0.0000015   3.8964963  15.7174083  )
        10           La  tau(  10) = (   3.3963551   3.8965026  15.7173970  )
        11           Hf  tau(  11) = (   5.0945170   0.7523119  15.3162023  )
        12           Hf  tau(  12) = (   1.6982093   0.7523115  15.3162056  )

     number of k points=    74  Fermi-Dirac smearing, width (Ry)=  0.0100
                       cart. coord. in units 2pi/alat
        k(    1) = (   0.0000000   0.0000000   0.0000000), wk =   0.0138889
        k(    2) = (   0.0000000   0.0139001   0.0000000), wk =   0.0277778
        k(    3) = (   0.0000000   0.0278002   0.0000000), wk =   0.0277778
        k(    4) = (   0.0000000   0.0417002   0.0000000), wk =   0.0277778
        k(    5) = (   0.0000000   0.0556003   0.0000000), wk =   0.0277778
        k(    6) = (   0.0000000   0.0695004   0.0000000), wk =   0.0277778
        k(    7) = (   0.0000000  -0.0834005   0.0000000), wk =   0.0138889
        k(    8) = (   0.0122681   0.0069500   0.0000000), wk =   0.0277778
        k(    9) = (   0.0122681   0.0208501   0.0000000), wk =   0.0277778
        k(   10) = (   0.0122681   0.0347502   0.0000000), wk =   0.0277778
        k(   11) = (   0.0122681   0.0486503   0.0000000), wk =   0.0277778
        k(   12) = (   0.0122681   0.0625504   0.0000000), wk =   0.0277778
        k(   13) = (   0.0122681   0.0764504   0.0000000), wk =   0.0277778
        k(   14) = (   0.0122681  -0.0764504   0.0000000), wk =   0.0277778
        k(   15) = (   0.0122681  -0.0625504   0.0000000), wk =   0.0277778
        k(   16) = (   0.0122681  -0.0486503   0.0000000), wk =   0.0277778
        k(   17) = (   0.0122681  -0.0347502   0.0000000), wk =   0.0277778
        k(   18) = (   0.0122681  -0.0208501   0.0000000), wk =   0.0277778
        k(   19) = (   0.0122681  -0.0069500   0.0000000), wk =   0.0277778
        k(   20) = (   0.0245361   0.0139001   0.0000000), wk =   0.0277778
        k(   21) = (   0.0245361   0.0278002   0.0000000), wk =   0.0277778
        k(   22) = (   0.0245361   0.0417002   0.0000000), wk =   0.0277778
        k(   23) = (   0.0245361   0.0556003   0.0000000), wk =   0.0277778
        k(   24) = (   0.0245361   0.0695004   0.0000000), wk =   0.0277778
        k(   25) = (   0.0245361   0.0834005   0.0000000), wk =   0.0277778
        k(   26) = (   0.0245361  -0.0695004   0.0000000), wk =   0.0277778
        k(   27) = (   0.0245361  -0.0556003   0.0000000), wk =   0.0277778
        k(   28) = (   0.0245361  -0.0417002   0.0000000), wk =   0.0277778
        k(   29) = (   0.0245361  -0.0278002   0.0000000), wk =   0.0277778
        k(   30) = (   0.0245361  -0.0139001   0.0000000), wk =   0.0277778
        k(   31) = (   0.0245361  -0.0000000   0.0000000), wk =   0.0277778
        k(   32) = (   0.0368042   0.0208501   0.0000000), wk =   0.0277778
        k(   33) = (   0.0368042   0.0347502   0.0000000), wk =   0.0277778
        k(   34) = (   0.0368042   0.0486503   0.0000000), wk =   0.0277778
        k(   35) = (   0.0368042   0.0625503   0.0000000), wk =   0.0277778
        k(   36) = (   0.0368042   0.0764504   0.0000000), wk =   0.0277778
        k(   37) = (   0.0368042   0.0903505   0.0000000), wk =   0.0277778
        k(   38) = (   0.0368042  -0.0625504   0.0000000), wk =   0.0277778
        k(   39) = (   0.0368042  -0.0486503   0.0000000), wk =   0.0277778
        k(   40) = (   0.0368042  -0.0347502   0.0000000), wk =   0.0277778
        k(   41) = (   0.0368042  -0.0208501   0.0000000), wk =   0.0277778
        k(   42) = (   0.0368042  -0.0069500   0.0000000), wk =   0.0277778
        k(   43) = (   0.0368042   0.0069500   0.0000000), wk =   0.0277778
        k(   44) = (   0.0490722   0.0278002   0.0000000), wk =   0.0277778
        k(   45) = (   0.0490722   0.0417002   0.0000000), wk =   0.0277778
        k(   46) = (   0.0490722   0.0556003   0.0000000), wk =   0.0277778
        k(   47) = (   0.0490722   0.0695004   0.0000000), wk =   0.0277778
        k(   48) = (   0.0490722   0.0834005   0.0000000), wk =   0.0277778
        k(   49) = (   0.0490722   0.0973005   0.0000000), wk =   0.0277778
        k(   50) = (   0.0490722  -0.0556003   0.0000000), wk =   0.0277778
        k(   51) = (   0.0490722  -0.0417002   0.0000000), wk =   0.0277778
        k(   52) = (   0.0490722  -0.0278002   0.0000000), wk =   0.0277778
        k(   53) = (   0.0490722  -0.0139001   0.0000000), wk =   0.0277778
        k(   54) = (   0.0490722  -0.0000000   0.0000000), wk =   0.0277778
        k(   55) = (   0.0490722   0.0139001   0.0000000), wk =   0.0277778
        k(   56) = (   0.0613403   0.0347502   0.0000000), wk =   0.0277778
        k(   57) = (   0.0613403   0.0486503   0.0000000), wk =   0.0277778
        k(   58) = (   0.0613403   0.0625503   0.0000000), wk =   0.0277778
        k(   59) = (   0.0613403   0.0764504   0.0000000), wk =   0.0277778
        k(   60) = (   0.0613403   0.0903505   0.0000000), wk =   0.0277778
        k(   61) = (   0.0613403   0.1042506   0.0000000), wk =   0.0277778
        k(   62) = (   0.0613403  -0.0486503   0.0000000), wk =   0.0277778
        k(   63) = (   0.0613403  -0.0347502   0.0000000), wk =   0.0277778
        k(   64) = (   0.0613403  -0.0208501   0.0000000), wk =   0.0277778
        k(   65) = (   0.0613403  -0.0069500   0.0000000), wk =   0.0277778
        k(   66) = (   0.0613403   0.0069500   0.0000000), wk =   0.0277778
        k(   67) = (   0.0613403   0.0208501   0.0000000), wk =   0.0277778
        k(   68) = (  -0.0736084  -0.0417002   0.0000000), wk =   0.0138889
        k(   69) = (  -0.0736084  -0.0278002   0.0000000), wk =   0.0277778
        k(   70) = (  -0.0736084  -0.0139001   0.0000000), wk =   0.0277778
        k(   71) = (  -0.0736084   0.0000000   0.0000000), wk =   0.0277778
        k(   72) = (  -0.0736084   0.0139001   0.0000000), wk =   0.0277778
        k(   73) = (  -0.0736084   0.0278002   0.0000000), wk =   0.0277778
        k(   74) = (  -0.0736084  -0.1251007   0.0000000), wk =   0.0138889

     Initial potential from superposition of free atoms

     starting charge  137.80964, renormalised to  138.00000

     negative rho (up, down):  6.015E-04 0.000E+00

     %%%%%%%%%%%%%%%%%%%%%%%%%%%%%%%%%%%%%%%%%%%%%%%%%%%%%%%%%%%%%%%%%%%%%%%%
     %                                                                      %
     % You are using vdW-DF, which was implemented by the Thonhauser group. %
     % Please cite the following two papers that made this development      %
     % possible and the two reviews that describe the various versions:     %
     %                                                                      %
     %   T. Thonhauser et al., PRL 115, 136402 (2015).                      %
     %   T. Thonhauser et al., PRB 76, 125112 (2007).                       %
     %   K. Berland et al., Rep. Prog. Phys. 78, 066501 (2015).             %
     %   D.C. Langreth et al., J. Phys.: Condens. Matter 21, 084203 (2009). %
     %                                                                      %
     %                                                                      %
     % If you are calculating the stress with vdW-DF, please also cite:     %
     %                                                                      %
     %   R. Sabatini et al., J. Phys.: Condens. Matter 24, 424209 (2012).   %
     %                                                                      %
     %%%%%%%%%%%%%%%%%%%%%%%%%%%%%%%%%%%%%%%%%%%%%%%%%%%%%%%%%%%%%%%%%%%%%%%%

     Adding external electric field

     Computed dipole along edir(3) :
        Dipole                0.0222 Ry au,          0.0564 Debye
        Dipole field          0.0000 Ry au,

        Potential amp.       -0.0037 Ry
        Total length         47.1630 bohr

     Starting wfcs are  180 randomized atomic wfcs

     Self-consistent Calculation

     iteration #  1     ecut=    55.12 Ry     beta= 0.10
     Davidson diagonalization with overlap
     ethr =  1.00E-02,  avg # of iterations =  2.0

[...]

     total energy              =   -1519.73802346 Ry
     estimated scf accuracy    <      11.66847529 Ry

[...]

     iteration # 10     ecut=    55.12 Ry     beta= 0.10
     Davidson diagonalization with overlap
     c_bands:  3 eigenvalues not converged
     c_bands:  2 eigenvalues not converged
     c_bands:  1 eigenvalues not converged
     c_bands:  1 eigenvalues not converged
     c_bands:  2 eigenvalues not converged
     c_bands:  1 eigenvalues not converged
     c_bands:  1 eigenvalues not converged
     c_bands:  1 eigenvalues not converged
     c_bands:  1 eigenvalues not converged
     c_bands:  1 eigenvalues not converged
     c_bands:  1 eigenvalues not converged
     c_bands:  1 eigenvalues not converged
     c_bands:  1 eigenvalues not converged
     c_bands:  1 eigenvalues not converged
     c_bands:  1 eigenvalues not converged
     c_bands:  1 eigenvalues not converged
     c_bands:  1 eigenvalues not converged
     c_bands:  2 eigenvalues not converged
     c_bands:  1 eigenvalues not converged
     c_bands:  1 eigenvalues not converged
     c_bands:  1 eigenvalues not converged
     c_bands:  1 eigenvalues not converged
     ethr =  1.83E-05,  avg # of iterations = 14.0

[...]

     iteration # 16     ecut=    55.12 Ry     beta= 0.10
     Davidson diagonalization with overlap
     c_bands:  1 eigenvalues not converged
     c_bands:  1 eigenvalues not converged
     ethr =  9.11E-07,  avg # of iterations =  1.9

[...]

     total energy              =   -1520.76930500 Ry
     estimated scf accuracy    <       0.00003627 Ry

     iteration # 18     ecut=    55.12 Ry     beta= 0.10
     Davidson diagonalization with overlap
     ethr =  2.63E-08,  avg # of iterations =  2.6

[...]

     Adding external electric field

     Computed dipole along edir(3) :
        Dipole                0.1282 Ry au,          0.3258 Debye
        Dipole field          0.0002 Ry au,

        Potential amp.       -0.0216 Ry
        Total length         47.1630 bohr

     End of self-consistent calculation

          k = 0.0000 0.0000 0.0000 ( 48639 PWs)   bands (ev):

   -61.2180 -61.2109 -60.9572 -60.9499 -60.8011 -60.7939 -31.0739 -30.9589
   -30.8871 -30.7708 -30.4221 -30.2194 -29.7146 -29.7013 -29.6733 -29.6618
   -29.6410 -29.4803 -29.4780 -29.4716 -29.4688 -29.4374 -29.4210 -29.3249
   -29.2996 -29.2806 -29.2770 -29.1503 -29.1337 -29.1279 -15.5196 -15.4243
   -15.0567 -14.9493 -14.8262 -14.7995 -14.7335 -14.6276 -14.5835 -14.5278
   -14.4194 -14.1756 -13.9801 -13.9514 -13.9411 -13.8728 -13.7584 -13.3633
    -2.9019  -1.8857  -1.4452  -1.2436  -0.8202  -0.4204  -0.1217   0.0065
     0.3018   0.3309   0.4220   0.4514   0.5250   0.6590   0.6967   1.0989
     1.3016   1.5112   1.8819   1.9698   2.2349   2.2479   2.4861   2.6027
     2.6288   2.7455   2.8957   2.9834   2.9981   3.0158   3.2215   3.2252
     3.2862   3.3079   3.3320

[...]

          k = 0.0613 0.0209 0.0000 ( 48636 PWs)   bands (ev):

[...]

          k =-0.0736-0.0417 0.0000 ( 48660 PWs)   bands (ev):

[...]

          k =-0.0736-0.1251 0.0000 ( 48660 PWs)   bands (ev):

   -61.2145 -61.2145 -60.9535 -60.9535 -60.7975 -60.7975 -30.9856 -30.9856
   -30.8716 -30.8716 -30.3281 -30.3281 -29.7066 -29.7066 -29.6463 -29.6462
   -29.5766 -29.5766 -29.4715 -29.4714 -29.4261 -29.4260 -29.3734 -29.3734
   -29.2861 -29.2861 -29.2258 -29.2258 -29.1419 -29.1419 -14.9575 -14.9575
   -14.8104 -14.8104 -14.7134 -14.7133 -14.6881 -14.6881 -14.6489 -14.6489
   -14.5404 -14.5404 -14.2198 -14.2198 -14.0691 -14.0690 -13.8583 -13.8583
    -1.5343  -1.5343  -0.7120  -0.7120  -0.2881  -0.2881   0.6639   0.6639
     0.9203   0.9203   1.0770   1.0770   1.2061   1.2062   1.2518   1.2518
     1.5640   1.5640   1.7158   1.7158   1.8033   1.8033   1.8594   1.8594
     2.1210   2.1210   2.3289   2.3290   2.4345   2.4345   2.6493   2.6496
     2.8088   2.8096   2.9034

     the Fermi energy is     1.8338 ev

!    total energy              =   -1520.76929635 Ry
     estimated scf accuracy    <       0.00000990 Ry
     smearing contrib. (-TS)   =      -0.09593285 Ry
     internal energy E=F+TS    =   -1520.67336350 Ry

     The total energy is F=E-TS. E is the sum of the following terms:
     one-electron contribution =   -6443.63259670 Ry
     hartree contribution      =    3222.89803827 Ry
     xc contribution           =    -704.21399563 Ry
     ewald contribution        =    2404.27516122 Ry
     electric field correction =       0.00002935 Ry

     convergence has been achieved in  18 iterations

     negative rho (up, down):  1.379E-04 0.000E+00

     Forces acting on atoms (cartesian axes, Ry/au):

     atom    1 type  1   force =     0.00000612   -0.00623560   -0.01420119
     atom    2 type  1   force =     0.00001361   -0.00623704   -0.01420460
     atom    3 type  2   force =     0.00000238    0.01017113    0.02836075
     atom    4 type  2   force =     0.00000657    0.01016660    0.02836059
     atom    5 type  1   force =    -0.00001831    0.00360371   -0.01308052
     atom    6 type  1   force =    -0.00002223    0.00359330   -0.01307781
     atom    7 type  2   force =     0.00000643   -0.00529099    0.00050973
     atom    8 type  2   force =     0.00000864   -0.00529427    0.00050645
     atom    9 type  1   force =    -0.00000928   -0.00103732   -0.00046974
     atom   10 type  1   force =    -0.00000616   -0.00103818   -0.00046261
     atom   11 type  2   force =     0.00000722   -0.00119986   -0.00112020
     atom   12 type  2   force =     0.00000500   -0.00120150   -0.00112085

     Total force =     0.052242     Total SCF correction =     0.007831
     SCF correction compared to forces is large: reduce conv_thr to get better values

     Writing output data file ./La2Hf2/La2Hf2_beef.save/

     General routines

     Parallel routines

   This run was terminated on:  19:26:48  24Jun2022

   JOB DONE.