     Program PWSCF v.6.6 starts on 24Jun2022 at 23:49:33

     R & G space division:  proc/nbgrp/npool/nimage =      37
     Fft bands division:     nmany     =       1
     Reading input from La2Ir2.in
Warning: card &CELL ignored
Warning: card / ignored

     Current dimensions of program PWSCF are:
     Max number of different atomic species (ntypx) = 10
     Max number of k-points (npk) =  40000
     Max angular momentum in pseudopotentials (lmaxx) =  3
     Presently stress not available with electric field and gates

     Message from routine cell_base_init:
     DEPRECATED: use true lattice parameter, not A to a.u. conversion factor
     file La.pbe-spfn-rrkjus_psl.1.0.0.UPF: wavefunction(s)  4F renormalized
     file Ir.pbe-n-rrkjus_psl.0.2.3.UPF: wavefunction(s)  5D renormalized

     IMPORTANT: XC functional enforced from input :
     Exchange-correlation= BEEF-VDW
                           (   1   4  43  14   2   0   0)
     Any further DFT definition will be discarded
     Please, verify this is what you really want

     Subspace diagonalization in iterative solution of the eigenvalue problem:
     a serial algorithm will be used

     bravais-lattice index     =            0
     lattice parameter (alat)  =       1.8897  a.u.
     unit-cell volume          =    6284.9966 (a.u.)^3
     number of atoms/cell      =           12
     number of atomic types    =            2
     number of electrons       =       120.00
     number of Kohn-Sham states=           72
     kinetic-energy cutoff     =      55.1240  Ry
     charge density cutoff     =     551.2396  Ry
     convergence threshold     =      1.0E-05
     mixing beta               =       0.1000
     number of iterations used =           10  plain     mixing
     Exchange-correlation= BEEF-VDW
                           (   1   4  43  14   2   0   0)

     celldm(1)=   1.889726  celldm(2)=   0.000000  celldm(3)=   0.000000
     celldm(4)=   0.000000  celldm(5)=   0.000000  celldm(6)=   0.000000

     crystal axes: (cart. coord. in units of alat)
               a(1) = (   6.269083   0.000000   0.000000 )
               a(2) = (   2.076045   5.915357   0.000000 )
               a(3) = (   0.000000   0.000000  25.114443 )

     reciprocal axes: (cart. coord. in units 2 pi/alat)
               b(1) = (  0.159513 -0.055982  0.000000 )
               b(2) = (  0.000000  0.169052  0.000000 )
               b(3) = (  0.000000  0.000000  0.039818 )

     PseudoPot. # 1 for La read from file:
     ../pseudo/La.pbe-spfn-rrkjus_psl.1.0.0.UPF
     MD5 check sum: e3bc141c2ecb461b8d0a035ce9ac970e
     Pseudo is Ultrasoft + core correction, Zval = 11.0
     Generated using "atomic" code by A. Dal Corso v.6.2.2
     Using radial grid of 1253 points,  8 beta functions with:
                l(1) =   0
                l(2) =   0
                l(3) =   1
                l(4) =   1
                l(5) =   2
                l(6) =   2
                l(7) =   3
                l(8) =   3
     Q(r) pseudized with 0 coefficients

     PseudoPot. # 2 for Ir read from file:
     ../pseudo/Ir.pbe-n-rrkjus_psl.0.2.3.UPF
     MD5 check sum: a93e608e8ddc29ee62145620b5f41564
     Pseudo is Ultrasoft + core correction, Zval =  9.0
     Generated using "atomic" code by A. Dal Corso v.5.0.2 svn rev. 9415
     Using radial grid of 1277 points,  6 beta functions with:
                l(1) =   0
                l(2) =   0
                l(3) =   1
                l(4) =   1
                l(5) =   2
                l(6) =   2
     Q(r) pseudized with 0 coefficients

     atomic species   valence    mass     pseudopotential
        La            11.00   138.90547     La( 1.00)
        Ir             9.00   192.21700     Ir( 1.00)

     No symmetry found

   Cartesian axes

     site n.     atom                  positions (alat units)
         1           La  tau(   1) = (   0.0000000   0.0000000  10.0000000  )
         2           La  tau(   2) = (   4.1725642   2.9576783  10.0000000  )
         3           Ir  tau(   3) = (   3.1345417   0.0000000  10.0000000  )
         4           Ir  tau(   4) = (   1.0380226   2.9576783  10.0000000  )
         5           La  tau(   5) = (   6.2690833   4.4437738  12.5572213  )
         6           La  tau(   6) = (   2.0965191   1.4860955  12.5572213  )
         7           Ir  tau(   7) = (   3.1345417   4.4437738  12.5572213  )
         8           Ir  tau(   8) = (   5.2310608   1.4860955  12.5572213  )
         9           La  tau(   9) = (   4.1845482   2.9661703  15.1422481  )
        10           La  tau(  10) = (   0.0123335   0.0087429  15.1423177  )
        11           Ir  tau(  11) = (   1.0581651   2.9721013  14.9153874  )
        12           Ir  tau(  12) = (   3.1548146   0.0142261  14.9153875  )

     number of k points=    74  Fermi-Dirac smearing, width (Ry)=  0.0100
                       cart. coord. in units 2pi/alat
        k(    1) = (   0.0000000   0.0000000   0.0000000), wk =   0.0138889
        k(    2) = (   0.0000000   0.0140876   0.0000000), wk =   0.0277778
        k(    3) = (   0.0000000   0.0281753   0.0000000), wk =   0.0277778
        k(    4) = (   0.0000000   0.0422629   0.0000000), wk =   0.0277778
        k(    5) = (   0.0000000   0.0563505   0.0000000), wk =   0.0277778
        k(    6) = (   0.0000000   0.0704381   0.0000000), wk =   0.0277778
        k(    7) = (   0.0000000  -0.0845258   0.0000000), wk =   0.0138889
        k(    8) = (   0.0132927  -0.0046652   0.0000000), wk =   0.0277778
        k(    9) = (   0.0132927   0.0094224   0.0000000), wk =   0.0277778
        k(   10) = (   0.0132927   0.0235100   0.0000000), wk =   0.0277778
        k(   11) = (   0.0132927   0.0375977   0.0000000), wk =   0.0277778
        k(   12) = (   0.0132927   0.0516853   0.0000000), wk =   0.0277778
        k(   13) = (   0.0132927   0.0657729   0.0000000), wk =   0.0277778
        k(   14) = (   0.0132927  -0.0891910   0.0000000), wk =   0.0277778
        k(   15) = (   0.0132927  -0.0751033   0.0000000), wk =   0.0277778
        k(   16) = (   0.0132927  -0.0610157   0.0000000), wk =   0.0277778
        k(   17) = (   0.0132927  -0.0469281   0.0000000), wk =   0.0277778
        k(   18) = (   0.0132927  -0.0328405   0.0000000), wk =   0.0277778
        k(   19) = (   0.0132927  -0.0187528   0.0000000), wk =   0.0277778
        k(   20) = (   0.0265855  -0.0093304   0.0000000), wk =   0.0277778
        k(   21) = (   0.0265855   0.0047572   0.0000000), wk =   0.0277778
        k(   22) = (   0.0265855   0.0188448   0.0000000), wk =   0.0277778
        k(   23) = (   0.0265855   0.0329325   0.0000000), wk =   0.0277778
        k(   24) = (   0.0265855   0.0470201   0.0000000), wk =   0.0277778
        k(   25) = (   0.0265855   0.0611077   0.0000000), wk =   0.0277778
        k(   26) = (   0.0265855  -0.0938562   0.0000000), wk =   0.0277778
        k(   27) = (   0.0265855  -0.0797685   0.0000000), wk =   0.0277778
        k(   28) = (   0.0265855  -0.0656809   0.0000000), wk =   0.0277778
        k(   29) = (   0.0265855  -0.0515933   0.0000000), wk =   0.0277778
        k(   30) = (   0.0265855  -0.0375057   0.0000000), wk =   0.0277778
        k(   31) = (   0.0265855  -0.0234180   0.0000000), wk =   0.0277778
        k(   32) = (   0.0398782  -0.0139956   0.0000000), wk =   0.0277778
        k(   33) = (   0.0398782   0.0000920   0.0000000), wk =   0.0277778
        k(   34) = (   0.0398782   0.0141796   0.0000000), wk =   0.0277778
        k(   35) = (   0.0398782   0.0282673   0.0000000), wk =   0.0277778
        k(   36) = (   0.0398782   0.0423549   0.0000000), wk =   0.0277778
        k(   37) = (   0.0398782   0.0564425   0.0000000), wk =   0.0277778
        k(   38) = (   0.0398782  -0.0985214   0.0000000), wk =   0.0277778
        k(   39) = (   0.0398782  -0.0844337   0.0000000), wk =   0.0277778
        k(   40) = (   0.0398782  -0.0703461   0.0000000), wk =   0.0277778
        k(   41) = (   0.0398782  -0.0562585   0.0000000), wk =   0.0277778
        k(   42) = (   0.0398782  -0.0421709   0.0000000), wk =   0.0277778
        k(   43) = (   0.0398782  -0.0280832   0.0000000), wk =   0.0277778
        k(   44) = (   0.0531710  -0.0186608   0.0000000), wk =   0.0277778
        k(   45) = (   0.0531710  -0.0045732   0.0000000), wk =   0.0277778
        k(   46) = (   0.0531710   0.0095144   0.0000000), wk =   0.0277778
        k(   47) = (   0.0531710   0.0236021   0.0000000), wk =   0.0277778
        k(   48) = (   0.0531710   0.0376897   0.0000000), wk =   0.0277778
        k(   49) = (   0.0531710   0.0517773   0.0000000), wk =   0.0277778
        k(   50) = (   0.0531710  -0.1031866   0.0000000), wk =   0.0277778
        k(   51) = (   0.0531710  -0.0890989   0.0000000), wk =   0.0277778
        k(   52) = (   0.0531710  -0.0750113   0.0000000), wk =   0.0277778
        k(   53) = (   0.0531710  -0.0609237   0.0000000), wk =   0.0277778
        k(   54) = (   0.0531710  -0.0468361   0.0000000), wk =   0.0277778
        k(   55) = (   0.0531710  -0.0327484   0.0000000), wk =   0.0277778
        k(   56) = (   0.0664637  -0.0233260   0.0000000), wk =   0.0277778
        k(   57) = (   0.0664637  -0.0092384   0.0000000), wk =   0.0277778
        k(   58) = (   0.0664637   0.0048492   0.0000000), wk =   0.0277778
        k(   59) = (   0.0664637   0.0189369   0.0000000), wk =   0.0277778
        k(   60) = (   0.0664637   0.0330245   0.0000000), wk =   0.0277778
        k(   61) = (   0.0664637   0.0471121   0.0000000), wk =   0.0277778
        k(   62) = (   0.0664637  -0.1078518   0.0000000), wk =   0.0277778
        k(   63) = (   0.0664637  -0.0937641   0.0000000), wk =   0.0277778
        k(   64) = (   0.0664637  -0.0796765   0.0000000), wk =   0.0277778
        k(   65) = (   0.0664637  -0.0655889   0.0000000), wk =   0.0277778
        k(   66) = (   0.0664637  -0.0515013   0.0000000), wk =   0.0277778
        k(   67) = (   0.0664637  -0.0374136   0.0000000), wk =   0.0277778
        k(   68) = (  -0.0797565   0.0279912   0.0000000), wk =   0.0138889
        k(   69) = (  -0.0797565   0.0420788   0.0000000), wk =   0.0277778
        k(   70) = (  -0.0797565   0.0561665   0.0000000), wk =   0.0277778
        k(   71) = (  -0.0797565   0.0702541   0.0000000), wk =   0.0277778
        k(   72) = (  -0.0797565   0.0843417   0.0000000), wk =   0.0277778
        k(   73) = (  -0.0797565   0.0984293   0.0000000), wk =   0.0277778
        k(   74) = (  -0.0797565  -0.0565345   0.0000000), wk =   0.0138889

     Initial potential from superposition of free atoms

     starting charge  119.82038, renormalised to  120.00000

     negative rho (up, down):  5.826E-04 0.000E+00

     %%%%%%%%%%%%%%%%%%%%%%%%%%%%%%%%%%%%%%%%%%%%%%%%%%%%%%%%%%%%%%%%%%%%%%%%
     %                                                                      %
     % You are using vdW-DF, which was implemented by the Thonhauser group. %
     % Please cite the following two papers that made this development      %
     % possible and the two reviews that describe the various versions:     %
     %                                                                      %
     %   T. Thonhauser et al., PRL 115, 136402 (2015).                      %
     %   T. Thonhauser et al., PRB 76, 125112 (2007).                       %
     %   K. Berland et al., Rep. Prog. Phys. 78, 066501 (2015).             %
     %   D.C. Langreth et al., J. Phys.: Condens. Matter 21, 084203 (2009). %
     %                                                                      %
     %                                                                      %
     % If you are calculating the stress with vdW-DF, please also cite:     %
     %                                                                      %
     %   R. Sabatini et al., J. Phys.: Condens. Matter 24, 424209 (2012).   %
     %                                                                      %
     %%%%%%%%%%%%%%%%%%%%%%%%%%%%%%%%%%%%%%%%%%%%%%%%%%%%%%%%%%%%%%%%%%%%%%%%

     Adding external electric field

     Computed dipole along edir(3) :
        Dipole                0.0114 Ry au,          0.0291 Debye
        Dipole field          0.0000 Ry au,

        Potential amp.       -0.0021 Ry
        Total length         46.2729 bohr

     Starting wfcs are  174 randomized atomic wfcs

     Self-consistent Calculation

     iteration #  1     ecut=    55.12 Ry     beta= 0.10
     Davidson diagonalization with overlap
     ethr =  1.00E-02,  avg # of iterations =  2.0

[...]

     total energy              =   -1142.87397585 Ry
     estimated scf accuracy    <       5.61867236 Ry

[...]

     iteration #  7     ecut=    55.12 Ry     beta= 0.10
     Davidson diagonalization with overlap
     c_bands:  1 eigenvalues not converged
     c_bands:  2 eigenvalues not converged
     c_bands:  5 eigenvalues not converged
     c_bands:  1 eigenvalues not converged
     c_bands:  2 eigenvalues not converged
     c_bands:  1 eigenvalues not converged
     c_bands:  2 eigenvalues not converged
     c_bands:  1 eigenvalues not converged
     c_bands:  2 eigenvalues not converged
     c_bands:  1 eigenvalues not converged
     c_bands:  2 eigenvalues not converged
     c_bands:  1 eigenvalues not converged
     c_bands:  2 eigenvalues not converged
     c_bands:  1 eigenvalues not converged
     c_bands:  3 eigenvalues not converged
     c_bands:  4 eigenvalues not converged
     c_bands:  3 eigenvalues not converged
     c_bands:  4 eigenvalues not converged
     c_bands:  2 eigenvalues not converged
     c_bands:  1 eigenvalues not converged
     c_bands:  2 eigenvalues not converged
     c_bands:  1 eigenvalues not converged
     c_bands:  1 eigenvalues not converged
     c_bands:  3 eigenvalues not converged
     c_bands:  4 eigenvalues not converged
     c_bands:  2 eigenvalues not converged
     c_bands:  1 eigenvalues not converged
     c_bands:  2 eigenvalues not converged
     c_bands:  3 eigenvalues not converged
     c_bands:  2 eigenvalues not converged
     c_bands:  1 eigenvalues not converged
     c_bands:  4 eigenvalues not converged
     c_bands:  3 eigenvalues not converged
     c_bands:  1 eigenvalues not converged
     c_bands:  1 eigenvalues not converged
     c_bands:  1 eigenvalues not converged
     c_bands:  4 eigenvalues not converged
     c_bands:  3 eigenvalues not converged
     c_bands:  2 eigenvalues not converged
     c_bands:  1 eigenvalues not converged
     c_bands:  1 eigenvalues not converged
     c_bands:  5 eigenvalues not converged
     c_bands:  1 eigenvalues not converged
     c_bands:  1 eigenvalues not converged
     c_bands:  1 eigenvalues not converged
     c_bands:  1 eigenvalues not converged
     c_bands:  1 eigenvalues not converged
     c_bands:  2 eigenvalues not converged
     c_bands:  2 eigenvalues not converged
     c_bands:  4 eigenvalues not converged
     c_bands:  4 eigenvalues not converged
     c_bands:  2 eigenvalues not converged
     c_bands:  2 eigenvalues not converged
     c_bands:  2 eigenvalues not converged
     c_bands:  1 eigenvalues not converged
     c_bands:  1 eigenvalues not converged
     ethr =  1.25E-04,  avg # of iterations = 19.6

[...]

     iteration # 22     ecut=    55.12 Ry     beta= 0.10
     Davidson diagonalization with overlap
     c_bands:  1 eigenvalues not converged
     c_bands:  1 eigenvalues not converged
     c_bands:  1 eigenvalues not converged
     ethr =  2.24E-08,  avg # of iterations = 10.4

[...]

     total energy              =   -1142.95370897 Ry
     estimated scf accuracy    <       0.00001228 Ry

     iteration # 26     ecut=    55.12 Ry     beta= 0.10
     Davidson diagonalization with overlap
     ethr =  1.02E-08,  avg # of iterations =  3.8

[...]

     Adding external electric field

     Computed dipole along edir(3) :
        Dipole                0.1587 Ry au,          0.4034 Debye
        Dipole field          0.0003 Ry au,

        Potential amp.       -0.0294 Ry
        Total length         46.2729 bohr

     End of self-consistent calculation

          k = 0.0000 0.0000 0.0000 ( 43303 PWs)   bands (ev):

   -31.1234 -31.0463 -31.0275 -30.9497 -30.0765 -29.9830 -15.2944 -15.2333
   -14.9890 -14.9072 -14.9001 -14.8177 -14.7731 -14.7643 -14.7089 -14.6181
   -14.3797 -14.3477 -14.2874 -13.8922 -13.8493 -13.7180 -13.6966 -13.3683
    -2.9313  -2.1714  -2.1133  -2.0866  -1.8423  -1.4821  -1.3292  -1.2956
    -0.9759  -0.8835  -0.8807  -0.8603  -0.4931  -0.4311  -0.4119  -0.3257
    -0.2098  -0.1871  -0.1862  -0.1765   0.0241   0.0487   0.3976   0.4330
     0.5126   0.6035   0.7408   0.9571   1.0028   1.1677   1.2385   1.2601
     1.3231   1.6618   1.7923   1.9751   2.4909   2.7267   2.8769   3.0101
     3.2227   3.3562   3.4580   3.5083   3.5349   3.6196   3.6202   3.6463

[...]

          k = 0.0665-0.0374 0.0000 ( 43458 PWs)   bands (ev):

[...]

          k =-0.0798 0.0280 0.0000 ( 43376 PWs)   bands (ev):

[...]

          k =-0.0798-0.0565 0.0000 ( 43570 PWs)   bands (ev):

   -31.1176 -31.0400 -31.0284 -30.9507 -30.0768 -29.9776 -15.3473 -15.2829
   -15.0916 -14.9837 -14.8824 -14.8731 -14.8098 -14.7590 -14.7466 -14.6356
   -14.4159 -14.3615 -14.3013 -13.8922 -13.8055 -13.7782 -13.7574 -13.3939
    -1.3865  -1.2327  -1.0819  -0.9817  -0.7039  -0.6809  -0.5570  -0.4925
    -0.4529  -0.3582  -0.1215  -0.1110  -0.0800   0.0153   0.1111   0.2105
     0.2136   0.3643   0.3714   0.4574   0.4828   0.4973   0.5494   0.5684
     0.5895   0.6524   0.6593   0.6720   0.7294   0.8706   0.9042   0.9549
     0.9918   1.0160   1.2405   1.3814   1.3844   1.5226   1.5699   1.5845
     2.0422   2.1378   2.1684   2.4830   2.7030   2.8411   2.9941   3.2822

     the Fermi energy is     1.6902 ev

!    total energy              =   -1142.95370597 Ry
     estimated scf accuracy    <       0.00000388 Ry
     smearing contrib. (-TS)   =      -0.03295475 Ry
     internal energy E=F+TS    =   -1142.92075122 Ry

     The total energy is F=E-TS. E is the sum of the following terms:
     one-electron contribution =   -5337.59754784 Ry
     hartree contribution      =    2715.15885592 Ry
     xc contribution           =    -643.61226474 Ry
     ewald contribution        =    2123.13015506 Ry
     electric field correction =       0.00005037 Ry

     convergence has been achieved in  26 iterations

     negative rho (up, down):  3.340E-04 0.000E+00

     Forces acting on atoms (cartesian axes, Ry/au):

     atom    1 type  1   force =     0.00071048    0.00050085   -0.01014171
     atom    2 type  1   force =     0.00070869    0.00050512   -0.01013623
     atom    3 type  2   force =    -0.00001890   -0.00000238    0.02248296
     atom    4 type  2   force =    -0.00000902   -0.00000266    0.02247663
     atom    5 type  1   force =    -0.00046277   -0.00032472   -0.01384848
     atom    6 type  1   force =    -0.00045890   -0.00033095   -0.01385592
     atom    7 type  2   force =    -0.00006165   -0.00005969    0.00424118
     atom    8 type  2   force =    -0.00005361   -0.00003759    0.00424261
     atom    9 type  1   force =    -0.00025467   -0.00018206   -0.00146169
     atom   10 type  1   force =    -0.00026817   -0.00019502   -0.00147479
     atom   11 type  2   force =     0.00008646    0.00006436   -0.00126378
     atom   12 type  2   force =     0.00008205    0.00006474   -0.00126079

     Total force =     0.040570     Total SCF correction =     0.005380
     SCF correction compared to forces is large: reduce conv_thr to get better values

     Writing output data file ./La2Ir2/La2Ir2_beef.save/

     General routines

     Parallel routines

   This run was terminated on:   2:39:49  25Jun2022

   JOB DONE.