     Program PWSCF v.6.6 starts on 25Jun2022 at  2:39:53

     R & G space division:  proc/nbgrp/npool/nimage =      37
     Fft bands division:     nmany     =       1
     Reading input from La2Mo2.in
Warning: card &CELL ignored
Warning: card / ignored

     Current dimensions of program PWSCF are:
     Max number of different atomic species (ntypx) = 10
     Max number of k-points (npk) =  40000
     Max angular momentum in pseudopotentials (lmaxx) =  3
     Presently stress not available with electric field and gates

     Message from routine cell_base_init:
     DEPRECATED: use true lattice parameter, not A to a.u. conversion factor
     file La.pbe-spfn-rrkjus_psl.1.0.0.UPF: wavefunction(s)  4F renormalized
     file Mo.pbe-spn-rrkjus_psl.1.0.0.UPF: wavefunction(s)  4S renormalized

     IMPORTANT: XC functional enforced from input :
     Exchange-correlation= BEEF-VDW
                           (   1   4  43  14   2   0   0)
     Any further DFT definition will be discarded
     Please, verify this is what you really want

     Subspace diagonalization in iterative solution of the eigenvalue problem:
     a serial algorithm will be used

     Found symmetry operation: I + ( -0.5000  0.0000  0.0000)
     This is a supercell, fractional translations are disabled

     bravais-lattice index     =            0
     lattice parameter (alat)  =       1.8897  a.u.
     unit-cell volume          =    6077.0668 (a.u.)^3
     number of atoms/cell      =           12
     number of atomic types    =            2
     number of electrons       =       150.00
     number of Kohn-Sham states=           90
     kinetic-energy cutoff     =      55.1240  Ry
     charge density cutoff     =     551.2396  Ry
     convergence threshold     =      1.0E-05
     mixing beta               =       0.1000
     number of iterations used =           10  plain     mixing
     Exchange-correlation= BEEF-VDW
                           (   1   4  43  14   2   0   0)

     celldm(1)=   1.889726  celldm(2)=   0.000000  celldm(3)=   0.000000
     celldm(4)=   0.000000  celldm(5)=   0.000000  celldm(6)=   0.000000

     crystal axes: (cart. coord. in units of alat)
               a(1) = (   5.929550   0.000000   0.000000 )
               a(2) = (  -2.964775   6.035087   0.000000 )
               a(3) = (   0.000000   0.000000  25.164727 )

     reciprocal axes: (cart. coord. in units 2 pi/alat)
               b(1) = (  0.168647  0.082849 -0.000000 )
               b(2) = (  0.000000  0.165698  0.000000 )
               b(3) = (  0.000000 -0.000000  0.039738 )

     PseudoPot. # 1 for La read from file:
     ../pseudo/La.pbe-spfn-rrkjus_psl.1.0.0.UPF
     MD5 check sum: e3bc141c2ecb461b8d0a035ce9ac970e
     Pseudo is Ultrasoft + core correction, Zval = 11.0
     Generated using "atomic" code by A. Dal Corso v.6.2.2
     Using radial grid of 1253 points,  8 beta functions with:
                l(1) =   0
                l(2) =   0
                l(3) =   1
                l(4) =   1
                l(5) =   2
                l(6) =   2
                l(7) =   3
                l(8) =   3
     Q(r) pseudized with 0 coefficients

     PseudoPot. # 2 for Mo read from file:
     ../pseudo/Mo.pbe-spn-rrkjus_psl.1.0.0.UPF
     MD5 check sum: 03f09b12e49601d1a456a78ce8b2d514
     Pseudo is Ultrasoft + core correction, Zval = 14.0
     Generated using "atomic" code by A. Dal Corso v.6.3
     Using radial grid of 1229 points,  6 beta functions with:
                l(1) =   0
                l(2) =   0
                l(3) =   1
                l(4) =   1
                l(5) =   2
                l(6) =   2
     Q(r) pseudized with 0 coefficients

     atomic species   valence    mass     pseudopotential
        La            11.00   138.90547     La( 1.00)
        Mo            14.00    95.95000     Mo( 1.00)

     No symmetry found

   Cartesian axes

     site n.     atom                  positions (alat units)
         1           La  tau(   1) = (   0.0000000   0.0000000  10.0000000  )
         2           La  tau(   2) = (   2.9647750   0.0000000  10.0000000  )
         3           Mo  tau(   3) = (   1.4823875   3.0175433  10.0000000  )
         4           Mo  tau(   4) = (  -1.4823875   3.0175433  10.0000000  )
         5           La  tau(   5) = (   2.9647750   1.4564648  12.5823635  )
         6           La  tau(   6) = (  -0.0000000   1.4564648  12.5823635  )
         7           Mo  tau(   7) = (  -1.4823875   4.4740081  12.5823635  )
         8           Mo  tau(   8) = (   1.4823875   4.4740081  12.5823635  )
         9           La  tau(   9) = (  -0.0000513   3.0764943  15.4729062  )
        10           La  tau(  10) = (   2.9647247   3.0765217  15.4728977  )
        11           Mo  tau(  11) = (   1.4823486   5.6540449  14.6514215  )
        12           Mo  tau(  12) = (  -1.4824143   5.6540860  14.6514052  )

     number of k points=    74  Fermi-Dirac smearing, width (Ry)=  0.0100
                       cart. coord. in units 2pi/alat
        k(    1) = (   0.0000000   0.0000000   0.0000000), wk =   0.0138889
        k(    2) = (   0.0000000   0.0138081   0.0000000), wk =   0.0277778
        k(    3) = (   0.0000000   0.0276163   0.0000000), wk =   0.0277778
        k(    4) = (   0.0000000   0.0414244   0.0000000), wk =   0.0277778
        k(    5) = (   0.0000000   0.0552326   0.0000000), wk =   0.0277778
        k(    6) = (   0.0000000   0.0690407   0.0000000), wk =   0.0277778
        k(    7) = (   0.0000000  -0.0828488   0.0000000), wk =   0.0138889
        k(    8) = (   0.0140539   0.0069041   0.0000000), wk =   0.0277778
        k(    9) = (   0.0140539   0.0207122   0.0000000), wk =   0.0277778
        k(   10) = (   0.0140539   0.0345204   0.0000000), wk =   0.0277778
        k(   11) = (   0.0140539   0.0483285   0.0000000), wk =   0.0277778
        k(   12) = (   0.0140539   0.0621366   0.0000000), wk =   0.0277778
        k(   13) = (   0.0140539   0.0759448   0.0000000), wk =   0.0277778
        k(   14) = (   0.0140539  -0.0759448   0.0000000), wk =   0.0277778
        k(   15) = (   0.0140539  -0.0621366   0.0000000), wk =   0.0277778
        k(   16) = (   0.0140539  -0.0483285   0.0000000), wk =   0.0277778
        k(   17) = (   0.0140539  -0.0345204   0.0000000), wk =   0.0277778
        k(   18) = (   0.0140539  -0.0207122   0.0000000), wk =   0.0277778
        k(   19) = (   0.0140539  -0.0069041   0.0000000), wk =   0.0277778
        k(   20) = (   0.0281078   0.0138081   0.0000000), wk =   0.0277778
        k(   21) = (   0.0281078   0.0276163   0.0000000), wk =   0.0277778
        k(   22) = (   0.0281078   0.0414244   0.0000000), wk =   0.0277778
        k(   23) = (   0.0281078   0.0552326   0.0000000), wk =   0.0277778
        k(   24) = (   0.0281078   0.0690407   0.0000000), wk =   0.0277778
        k(   25) = (   0.0281078   0.0828488   0.0000000), wk =   0.0277778
        k(   26) = (   0.0281078  -0.0690407   0.0000000), wk =   0.0277778
        k(   27) = (   0.0281078  -0.0552326   0.0000000), wk =   0.0277778
        k(   28) = (   0.0281078  -0.0414244   0.0000000), wk =   0.0277778
        k(   29) = (   0.0281078  -0.0276163   0.0000000), wk =   0.0277778
        k(   30) = (   0.0281078  -0.0138081   0.0000000), wk =   0.0277778
        k(   31) = (   0.0281078  -0.0000000   0.0000000), wk =   0.0277778
        k(   32) = (   0.0421617   0.0207122   0.0000000), wk =   0.0277778
        k(   33) = (   0.0421617   0.0345204   0.0000000), wk =   0.0277778
        k(   34) = (   0.0421617   0.0483285   0.0000000), wk =   0.0277778
        k(   35) = (   0.0421617   0.0621366   0.0000000), wk =   0.0277778
        k(   36) = (   0.0421617   0.0759448   0.0000000), wk =   0.0277778
        k(   37) = (   0.0421617   0.0897529   0.0000000), wk =   0.0277778
        k(   38) = (   0.0421617  -0.0621366   0.0000000), wk =   0.0277778
        k(   39) = (   0.0421617  -0.0483285   0.0000000), wk =   0.0277778
        k(   40) = (   0.0421617  -0.0345204   0.0000000), wk =   0.0277778
        k(   41) = (   0.0421617  -0.0207122   0.0000000), wk =   0.0277778
        k(   42) = (   0.0421617  -0.0069041   0.0000000), wk =   0.0277778
        k(   43) = (   0.0421617   0.0069041   0.0000000), wk =   0.0277778
        k(   44) = (   0.0562156   0.0276163   0.0000000), wk =   0.0277778
        k(   45) = (   0.0562156   0.0414244   0.0000000), wk =   0.0277778
        k(   46) = (   0.0562156   0.0552326   0.0000000), wk =   0.0277778
        k(   47) = (   0.0562156   0.0690407   0.0000000), wk =   0.0277778
        k(   48) = (   0.0562156   0.0828488   0.0000000), wk =   0.0277778
        k(   49) = (   0.0562156   0.0966570   0.0000000), wk =   0.0277778
        k(   50) = (   0.0562156  -0.0552326   0.0000000), wk =   0.0277778
        k(   51) = (   0.0562156  -0.0414244   0.0000000), wk =   0.0277778
        k(   52) = (   0.0562156  -0.0276163   0.0000000), wk =   0.0277778
        k(   53) = (   0.0562156  -0.0138081   0.0000000), wk =   0.0277778
        k(   54) = (   0.0562156   0.0000000   0.0000000), wk =   0.0277778
        k(   55) = (   0.0562156   0.0138081   0.0000000), wk =   0.0277778
        k(   56) = (   0.0702695   0.0345204   0.0000000), wk =   0.0277778
        k(   57) = (   0.0702695   0.0483285   0.0000000), wk =   0.0277778
        k(   58) = (   0.0702695   0.0621366   0.0000000), wk =   0.0277778
        k(   59) = (   0.0702695   0.0759448   0.0000000), wk =   0.0277778
        k(   60) = (   0.0702695   0.0897529   0.0000000), wk =   0.0277778
        k(   61) = (   0.0702695   0.1035611   0.0000000), wk =   0.0277778
        k(   62) = (   0.0702695  -0.0483285   0.0000000), wk =   0.0277778
        k(   63) = (   0.0702695  -0.0345204   0.0000000), wk =   0.0277778
        k(   64) = (   0.0702695  -0.0207122   0.0000000), wk =   0.0277778
        k(   65) = (   0.0702695  -0.0069041   0.0000000), wk =   0.0277778
        k(   66) = (   0.0702695   0.0069041   0.0000000), wk =   0.0277778
        k(   67) = (   0.0702695   0.0207122   0.0000000), wk =   0.0277778
        k(   68) = (  -0.0843234  -0.0414244   0.0000000), wk =   0.0138889
        k(   69) = (  -0.0843234  -0.0276163   0.0000000), wk =   0.0277778
        k(   70) = (  -0.0843234  -0.0138081   0.0000000), wk =   0.0277778
        k(   71) = (  -0.0843234   0.0000000   0.0000000), wk =   0.0277778
        k(   72) = (  -0.0843234   0.0138081   0.0000000), wk =   0.0277778
        k(   73) = (  -0.0843234   0.0276163   0.0000000), wk =   0.0277778
        k(   74) = (  -0.0843234  -0.1242733   0.0000000), wk =   0.0138889

     Initial potential from superposition of free atoms

     starting charge  149.81598, renormalised to  150.00000

     negative rho (up, down):  6.335E-04 0.000E+00

     %%%%%%%%%%%%%%%%%%%%%%%%%%%%%%%%%%%%%%%%%%%%%%%%%%%%%%%%%%%%%%%%%%%%%%%%
     %                                                                      %
     % You are using vdW-DF, which was implemented by the Thonhauser group. %
     % Please cite the following two papers that made this development      %
     % possible and the two reviews that describe the various versions:     %
     %                                                                      %
     %   T. Thonhauser et al., PRL 115, 136402 (2015).                      %
     %   T. Thonhauser et al., PRB 76, 125112 (2007).                       %
     %   K. Berland et al., Rep. Prog. Phys. 78, 066501 (2015).             %
     %   D.C. Langreth et al., J. Phys.: Condens. Matter 21, 084203 (2009). %
     %                                                                      %
     %                                                                      %
     % If you are calculating the stress with vdW-DF, please also cite:     %
     %                                                                      %
     %   R. Sabatini et al., J. Phys.: Condens. Matter 24, 424209 (2012).   %
     %                                                                      %
     %%%%%%%%%%%%%%%%%%%%%%%%%%%%%%%%%%%%%%%%%%%%%%%%%%%%%%%%%%%%%%%%%%%%%%%%

     Adding external electric field

     Computed dipole along edir(3) :
        Dipole                0.0507 Ry au,          0.1287 Debye
        Dipole field          0.0001 Ry au,

        Potential amp.       -0.0097 Ry
        Total length         46.3656 bohr

     Starting wfcs are  180 randomized atomic wfcs

     Self-consistent Calculation

     iteration #  1     ecut=    55.12 Ry     beta= 0.10
     Davidson diagonalization with overlap
     ethr =  1.00E-02,  avg # of iterations =  2.0

[...]

     total energy              =   -1602.84468647 Ry
     estimated scf accuracy    <      14.51158080 Ry

[...]

     iteration #  9     ecut=    55.12 Ry     beta= 0.10
     Davidson diagonalization with overlap
     c_bands:  1 eigenvalues not converged
     c_bands:  1 eigenvalues not converged
     c_bands:  1 eigenvalues not converged
     c_bands:  1 eigenvalues not converged
     ethr =  3.00E-05,  avg # of iterations = 10.0

[...]

     iteration # 17     ecut=    55.12 Ry     beta= 0.10
     Davidson diagonalization with overlap
     c_bands:  2 eigenvalues not converged
     ethr =  4.21E-08,  avg # of iterations =  5.5

[...]

     total energy              =   -1604.29818451 Ry
     estimated scf accuracy    <       0.00001105 Ry

     iteration # 20     ecut=    55.12 Ry     beta= 0.10
     Davidson diagonalization with overlap
     ethr =  7.37E-09,  avg # of iterations =  3.8

[...]

     Adding external electric field

     Computed dipole along edir(3) :
        Dipole                0.3481 Ry au,          0.8849 Debye
        Dipole field          0.0007 Ry au,

        Potential amp.       -0.0668 Ry
        Total length         46.3656 bohr

     End of self-consistent calculation

          k = 0.0000 0.0000 0.0000 ( 41843 PWs)   bands (ev):

   -58.3970 -58.3551 -58.3227 -58.2820 -58.0794 -58.0387 -33.0589 -33.0046
   -32.5996 -32.5390 -32.4338 -32.3888 -32.3783 -32.3439 -32.3208 -32.3175
   -32.2690 -32.1812 -32.1641 -32.1207 -32.1203 -31.8988 -31.6527 -31.6154
   -30.5977 -30.4689 -29.9346 -29.9236 -29.7853 -29.2529 -16.0681 -15.9820
   -15.5217 -15.1847 -14.5128 -14.3705 -14.2169 -14.0369 -13.7498 -13.6041
   -13.5932 -13.4019 -12.9632 -12.9464 -12.4057 -12.1763 -12.0557 -11.6228
    -1.6813  -0.7278  -0.6668  -0.6206  -0.5610  -0.3544  -0.0184   0.0009
     0.1123   0.2135   0.2526   0.3975   0.4990   0.7210   0.8586   0.9471
     1.2826   1.2886   1.3540   1.5364   1.8340   2.0699   2.4113   2.4761
     2.5674   2.6688   2.9031   2.9171   2.9899   3.0177   3.2579   3.2992
     3.4545   3.5481   3.6031   3.7561   3.7809   3.8918   3.9518   4.0238
     4.0354   4.1005

[...]

          k = 0.0703 0.0207 0.0000 ( 42022 PWs)   bands (ev):

[...]

          k =-0.0843-0.0414 0.0000 ( 41990 PWs)   bands (ev):

[...]

          k =-0.0843-0.1243 0.0000 ( 41990 PWs)   bands (ev):

   -58.3763 -58.3763 -58.3026 -58.3025 -58.0592 -58.0592 -33.0322 -33.0322
   -32.4081 -32.4081 -32.3862 -32.3862 -32.3659 -32.3658 -32.3328 -32.3327
   -32.2944 -32.2943 -32.1507 -32.1507 -32.1133 -32.1133 -31.6339 -31.6338
   -30.2753 -30.2753 -30.1428 -30.1428 -29.6127 -29.6127 -14.8741 -14.8740
   -14.3560 -14.3560 -14.2568 -14.2568 -14.0721 -14.0721 -13.9391 -13.9391
   -13.8011 -13.8010 -13.7502 -13.7502 -13.2927 -13.2927 -12.6952 -12.6952
    -0.2963  -0.2963   0.1206   0.1206   0.3124   0.3124   0.7214   0.7214
     0.7459   0.7459   0.9150   0.9150   1.2432   1.2432   1.3955   1.3955
     1.6086   1.6086   1.7143   1.7144   1.9825   1.9825   2.0215   2.0215
     2.1778   2.1778   2.3504   2.3504   2.6158   2.6158   2.8191   2.8191
     2.9204   2.9204   3.2913   3.2913   3.3970   3.3970   3.7416   3.7416
     3.8928   3.8930

     the Fermi energy is     2.5663 ev

!    total energy              =   -1604.29818112 Ry
     estimated scf accuracy    <       0.00000304 Ry
     smearing contrib. (-TS)   =      -0.08329921 Ry
     internal energy E=F+TS    =   -1604.21488191 Ry

     The total energy is F=E-TS. E is the sum of the following terms:
     one-electron contribution =   -9079.42545421 Ry
     hartree contribution      =    4548.68874805 Ry
     xc contribution           =    -569.56533310 Ry
     ewald contribution        =    3496.08690673 Ry
     electric field correction =       0.00025062 Ry

     convergence has been achieved in  20 iterations

     negative rho (up, down):  4.003E-04 0.000E+00

     Forces acting on atoms (cartesian axes, Ry/au):

     atom    1 type  1   force =    -0.00001501   -0.02088747   -0.03726812
     atom    2 type  1   force =    -0.00001573   -0.02088671   -0.03727037
     atom    3 type  2   force =    -0.00001580    0.01809986    0.05176568
     atom    4 type  2   force =    -0.00001757    0.01810216    0.05176755
     atom    5 type  1   force =     0.00006015    0.01785444   -0.00636220
     atom    6 type  1   force =     0.00005989    0.01785250   -0.00636538
     atom    7 type  2   force =    -0.00001876   -0.01388336   -0.00947439
     atom    8 type  2   force =    -0.00001696   -0.01388552   -0.00947827
     atom    9 type  1   force =     0.00001118   -0.00039477    0.00005815
     atom   10 type  1   force =     0.00001224   -0.00039208    0.00005858
     atom   11 type  2   force =    -0.00002125   -0.00078394    0.00128158
     atom   12 type  2   force =    -0.00002238   -0.00079511    0.00128719

     Total force =     0.104661     Total SCF correction =     0.006078

     Writing output data file ./La2Mo2/La2Mo2_beef.save/

     General routines

     Parallel routines

   This run was terminated on:   5:22:50  25Jun2022

   JOB DONE.