     Program PWSCF v.6.6 starts on 25Jun2022 at  8:17: 3

     R & G space division:  proc/nbgrp/npool/nimage =      37
     Fft bands division:     nmany     =       1
     Reading input from La2Os2.in
Warning: card &CELL ignored
Warning: card / ignored

     Current dimensions of program PWSCF are:
     Max number of different atomic species (ntypx) = 10
     Max number of k-points (npk) =  40000
     Max angular momentum in pseudopotentials (lmaxx) =  3
     Presently stress not available with electric field and gates

     Message from routine cell_base_init:
     DEPRECATED: use true lattice parameter, not A to a.u. conversion factor
     file La.pbe-spfn-rrkjus_psl.1.0.0.UPF: wavefunction(s)  4F renormalized

     IMPORTANT: XC functional enforced from input :
     Exchange-correlation= BEEF-VDW
                           (   1   4  43  14   2   0   0)
     Any further DFT definition will be discarded
     Please, verify this is what you really want

     Subspace diagonalization in iterative solution of the eigenvalue problem:
     a serial algorithm will be used

     bravais-lattice index     =            0
     lattice parameter (alat)  =       1.8897  a.u.
     unit-cell volume          =    6199.0906 (a.u.)^3
     number of atoms/cell      =           12
     number of atomic types    =            2
     number of electrons       =       162.00
     number of Kohn-Sham states=           97
     kinetic-energy cutoff     =      55.1240  Ry
     charge density cutoff     =     551.2396  Ry
     convergence threshold     =      1.0E-05
     mixing beta               =       0.1000
     number of iterations used =           10  plain     mixing
     Exchange-correlation= BEEF-VDW
                           (   1   4  43  14   2   0   0)

     celldm(1)=   1.889726  celldm(2)=   0.000000  celldm(3)=   0.000000
     celldm(4)=   0.000000  celldm(5)=   0.000000  celldm(6)=   0.000000

     crystal axes: (cart. coord. in units of alat)
               a(1) = (   6.230664   0.000000   0.000000 )
               a(2) = (   2.067963   5.877474   0.000000 )
               a(3) = (   0.000000   0.000000  25.084556 )

     reciprocal axes: (cart. coord. in units 2 pi/alat)
               b(1) = (  0.160497 -0.056470  0.000000 )
               b(2) = (  0.000000  0.170141  0.000000 )
               b(3) = (  0.000000  0.000000  0.039865 )

     PseudoPot. # 1 for La read from file:
     ../pseudo/La.pbe-spfn-rrkjus_psl.1.0.0.UPF
     MD5 check sum: e3bc141c2ecb461b8d0a035ce9ac970e
     Pseudo is Ultrasoft + core correction, Zval = 11.0
     Generated using "atomic" code by A. Dal Corso v.6.2.2
     Using radial grid of 1253 points,  8 beta functions with:
                l(1) =   0
                l(2) =   0
                l(3) =   1
                l(4) =   1
                l(5) =   2
                l(6) =   2
                l(7) =   3
                l(8) =   3
     Q(r) pseudized with 0 coefficients

     PseudoPot. # 2 for Os read from file:
     ../pseudo/Os.pbe-spn-rrkjus_psl.1.0.0.UPF
     MD5 check sum: 3e7416ed594f6513d36e5cb31ba709d9
     Pseudo is Ultrasoft + core correction, Zval = 16.0
     Generated using "atomic" code by A. Dal Corso v.6.2.2
     Using radial grid of 1275 points,  6 beta functions with:
                l(1) =   0
                l(2) =   0
                l(3) =   1
                l(4) =   1
                l(5) =   2
                l(6) =   2
     Q(r) pseudized with 0 coefficients

     atomic species   valence    mass     pseudopotential
        La            11.00   138.90547     La( 1.00)
        Os            16.00   190.23000     Os( 1.00)

     No symmetry found

   Cartesian axes

     site n.     atom                  positions (alat units)
         1           La  tau(   1) = (   0.0000000   0.0000000  10.0000000  )
         2           La  tau(   2) = (   4.1493136   2.9387369  10.0000000  )
         3           Os  tau(   3) = (   3.1153319   0.0000000  10.0000000  )
         4           Os  tau(   4) = (   1.0339817   2.9387369  10.0000000  )
         5           La  tau(   5) = (   6.2306637   4.4128459  12.5422779  )
         6           La  tau(   6) = (   2.0813502   1.4741090  12.5422779  )
         7           Os  tau(   7) = (   3.1153319   4.4128459  12.5422779  )
         8           Os  tau(   8) = (   5.1966820   1.4741090  12.5422779  )
         9           La  tau(   9) = (   4.1546707   2.9425358  15.1602993  )
        10           La  tau(  10) = (   0.0053773   0.0038163  15.1603190  )
        11           Os  tau(  11) = (   1.0608652   2.9577174  14.7992593  )
        12           Os  tau(  12) = (   3.1422201   0.0190541  14.7993234  )

     number of k points=    74  Fermi-Dirac smearing, width (Ry)=  0.0100
                       cart. coord. in units 2pi/alat
        k(    1) = (   0.0000000   0.0000000   0.0000000), wk =   0.0138889
        k(    2) = (   0.0000000   0.0141784   0.0000000), wk =   0.0277778
        k(    3) = (   0.0000000   0.0283569   0.0000000), wk =   0.0277778
        k(    4) = (   0.0000000   0.0425353   0.0000000), wk =   0.0277778
        k(    5) = (   0.0000000   0.0567137   0.0000000), wk =   0.0277778
        k(    6) = (   0.0000000   0.0708921   0.0000000), wk =   0.0277778
        k(    7) = (   0.0000000  -0.0850706   0.0000000), wk =   0.0138889
        k(    8) = (   0.0133747  -0.0047058   0.0000000), wk =   0.0277778
        k(    9) = (   0.0133747   0.0094726   0.0000000), wk =   0.0277778
        k(   10) = (   0.0133747   0.0236510   0.0000000), wk =   0.0277778
        k(   11) = (   0.0133747   0.0378294   0.0000000), wk =   0.0277778
        k(   12) = (   0.0133747   0.0520079   0.0000000), wk =   0.0277778
        k(   13) = (   0.0133747   0.0661863   0.0000000), wk =   0.0277778
        k(   14) = (   0.0133747  -0.0897764   0.0000000), wk =   0.0277778
        k(   15) = (   0.0133747  -0.0755980   0.0000000), wk =   0.0277778
        k(   16) = (   0.0133747  -0.0614195   0.0000000), wk =   0.0277778
        k(   17) = (   0.0133747  -0.0472411   0.0000000), wk =   0.0277778
        k(   18) = (   0.0133747  -0.0330627   0.0000000), wk =   0.0277778
        k(   19) = (   0.0133747  -0.0188843   0.0000000), wk =   0.0277778
        k(   20) = (   0.0267494  -0.0094117   0.0000000), wk =   0.0277778
        k(   21) = (   0.0267494   0.0047668   0.0000000), wk =   0.0277778
        k(   22) = (   0.0267494   0.0189452   0.0000000), wk =   0.0277778
        k(   23) = (   0.0267494   0.0331236   0.0000000), wk =   0.0277778
        k(   24) = (   0.0267494   0.0473020   0.0000000), wk =   0.0277778
        k(   25) = (   0.0267494   0.0614805   0.0000000), wk =   0.0277778
        k(   26) = (   0.0267494  -0.0944822   0.0000000), wk =   0.0277778
        k(   27) = (   0.0267494  -0.0803038   0.0000000), wk =   0.0277778
        k(   28) = (   0.0267494  -0.0661254   0.0000000), wk =   0.0277778
        k(   29) = (   0.0267494  -0.0519469   0.0000000), wk =   0.0277778
        k(   30) = (   0.0267494  -0.0377685   0.0000000), wk =   0.0277778
        k(   31) = (   0.0267494  -0.0235901   0.0000000), wk =   0.0277778
        k(   32) = (   0.0401241  -0.0141175   0.0000000), wk =   0.0277778
        k(   33) = (   0.0401241   0.0000609   0.0000000), wk =   0.0277778
        k(   34) = (   0.0401241   0.0142394   0.0000000), wk =   0.0277778
        k(   35) = (   0.0401241   0.0284178   0.0000000), wk =   0.0277778
        k(   36) = (   0.0401241   0.0425962   0.0000000), wk =   0.0277778
        k(   37) = (   0.0401241   0.0567746   0.0000000), wk =   0.0277778
        k(   38) = (   0.0401241  -0.0991881   0.0000000), wk =   0.0277778
        k(   39) = (   0.0401241  -0.0850096   0.0000000), wk =   0.0277778
        k(   40) = (   0.0401241  -0.0708312   0.0000000), wk =   0.0277778
        k(   41) = (   0.0401241  -0.0566528   0.0000000), wk =   0.0277778
        k(   42) = (   0.0401241  -0.0424744   0.0000000), wk =   0.0277778
        k(   43) = (   0.0401241  -0.0282959   0.0000000), wk =   0.0277778
        k(   44) = (   0.0534988  -0.0188233   0.0000000), wk =   0.0277778
        k(   45) = (   0.0534988  -0.0046449   0.0000000), wk =   0.0277778
        k(   46) = (   0.0534988   0.0095335   0.0000000), wk =   0.0277778
        k(   47) = (   0.0534988   0.0237119   0.0000000), wk =   0.0277778
        k(   48) = (   0.0534988   0.0378904   0.0000000), wk =   0.0277778
        k(   49) = (   0.0534988   0.0520688   0.0000000), wk =   0.0277778
        k(   50) = (   0.0534988  -0.1038939   0.0000000), wk =   0.0277778
        k(   51) = (   0.0534988  -0.0897155   0.0000000), wk =   0.0277778
        k(   52) = (   0.0534988  -0.0755370   0.0000000), wk =   0.0277778
        k(   53) = (   0.0534988  -0.0613586   0.0000000), wk =   0.0277778
        k(   54) = (   0.0534988  -0.0471802   0.0000000), wk =   0.0277778
        k(   55) = (   0.0534988  -0.0330018   0.0000000), wk =   0.0277778
        k(   56) = (   0.0668736  -0.0235292   0.0000000), wk =   0.0277778
        k(   57) = (   0.0668736  -0.0093507   0.0000000), wk =   0.0277778
        k(   58) = (   0.0668736   0.0048277   0.0000000), wk =   0.0277778
        k(   59) = (   0.0668736   0.0190061   0.0000000), wk =   0.0277778
        k(   60) = (   0.0668736   0.0331845   0.0000000), wk =   0.0277778
        k(   61) = (   0.0668736   0.0473630   0.0000000), wk =   0.0277778
        k(   62) = (   0.0668736  -0.1085997   0.0000000), wk =   0.0277778
        k(   63) = (   0.0668736  -0.0944213   0.0000000), wk =   0.0277778
        k(   64) = (   0.0668736  -0.0802429   0.0000000), wk =   0.0277778
        k(   65) = (   0.0668736  -0.0660644   0.0000000), wk =   0.0277778
        k(   66) = (   0.0668736  -0.0518860   0.0000000), wk =   0.0277778
        k(   67) = (   0.0668736  -0.0377076   0.0000000), wk =   0.0277778
        k(   68) = (  -0.0802483   0.0282350   0.0000000), wk =   0.0138889
        k(   69) = (  -0.0802483   0.0424134   0.0000000), wk =   0.0277778
        k(   70) = (  -0.0802483   0.0565918   0.0000000), wk =   0.0277778
        k(   71) = (  -0.0802483   0.0707703   0.0000000), wk =   0.0277778
        k(   72) = (  -0.0802483   0.0849487   0.0000000), wk =   0.0277778
        k(   73) = (  -0.0802483   0.0991271   0.0000000), wk =   0.0277778
        k(   74) = (  -0.0802483  -0.0568356   0.0000000), wk =   0.0138889

     Initial potential from superposition of free atoms

     starting charge  161.81981, renormalised to  162.00000

     negative rho (up, down):  6.143E-04 0.000E+00

     %%%%%%%%%%%%%%%%%%%%%%%%%%%%%%%%%%%%%%%%%%%%%%%%%%%%%%%%%%%%%%%%%%%%%%%%
     %                                                                      %
     % You are using vdW-DF, which was implemented by the Thonhauser group. %
     % Please cite the following two papers that made this development      %
     % possible and the two reviews that describe the various versions:     %
     %                                                                      %
     %   T. Thonhauser et al., PRL 115, 136402 (2015).                      %
     %   T. Thonhauser et al., PRB 76, 125112 (2007).                       %
     %   K. Berland et al., Rep. Prog. Phys. 78, 066501 (2015).             %
     %   D.C. Langreth et al., J. Phys.: Condens. Matter 21, 084203 (2009). %
     %                                                                      %
     %                                                                      %
     % If you are calculating the stress with vdW-DF, please also cite:     %
     %                                                                      %
     %   R. Sabatini et al., J. Phys.: Condens. Matter 24, 424209 (2012).   %
     %                                                                      %
     %%%%%%%%%%%%%%%%%%%%%%%%%%%%%%%%%%%%%%%%%%%%%%%%%%%%%%%%%%%%%%%%%%%%%%%%

     Adding external electric field

     Computed dipole along edir(3) :
        Dipole                0.0240 Ry au,          0.0609 Debye
        Dipole field          0.0000 Ry au,

        Potential amp.       -0.0045 Ry
        Total length         46.2179 bohr

     Starting wfcs are  180 randomized atomic wfcs

     Self-consistent Calculation

     iteration #  1     ecut=    55.12 Ry     beta= 0.10
     Davidson diagonalization with overlap
     ethr =  1.00E-02,  avg # of iterations =  2.0

[...]

     total energy              =   -1967.28864566 Ry
     estimated scf accuracy    <       6.09308043 Ry

[...]

     iteration #  5     ecut=    55.12 Ry     beta= 0.10
     Davidson diagonalization with overlap
     c_bands:  1 eigenvalues not converged
     c_bands:  1 eigenvalues not converged
     ethr =  6.02E-04,  avg # of iterations = 11.9

[...]

     iteration #  8     ecut=    55.12 Ry     beta= 0.10
     Davidson diagonalization with overlap
     ethr =  1.42E-04,  avg # of iterations =  6.5

[...]

     total energy              =   -1967.54062701 Ry
     estimated scf accuracy    <       0.00002118 Ry

     iteration # 18     ecut=    55.12 Ry     beta= 0.10
     Davidson diagonalization with overlap
     c_bands:  1 eigenvalues not converged
     ethr =  1.31E-08,  avg # of iterations =  4.7

[...]

     Adding external electric field

     Computed dipole along edir(3) :
        Dipole                0.1943 Ry au,          0.4939 Debye
        Dipole field          0.0004 Ry au,

        Potential amp.       -0.0364 Ry
        Total length         46.2179 bohr

     End of self-consistent calculation

          k = 0.0000 0.0000 0.0000 ( 42771 PWs)   bands (ev):

   -83.0368 -83.0363 -82.8262 -82.8258 -82.8073 -82.8069 -42.3791 -42.3772
   -42.3588 -42.3565 -42.3500 -42.3267 -42.2117 -42.2097 -42.2070 -42.1825
   -42.1722 -42.1494 -42.1347 -42.1327 -42.1164 -42.1142 -42.1015 -42.0981
   -30.1781 -30.0737 -29.9787 -29.8725 -28.9964 -28.8937 -14.4196 -14.2452
   -14.0545 -13.9420 -13.8871 -13.8787 -13.8266 -13.7495 -13.7179 -13.6349
   -13.4325 -13.4083 -13.2295 -12.9261 -12.8066 -12.7269 -12.6597 -12.3376
    -2.1955  -1.3968  -1.3922  -1.3415  -1.0727  -0.6715  -0.5047  -0.4856
    -0.1040  -0.0170   0.0481   0.1187   0.4946   0.5796   0.5868   0.7515
     0.7634   0.7781   0.8132   0.8840   0.9992   1.0974   1.4680   1.4942
     1.6208   1.7097   1.9020   1.9976   2.1163   2.1207   2.3775   2.4863
     2.6373   3.0202   3.0488   3.2934   3.3945   3.5208   3.7283   3.7722
     4.1016   4.2090   4.4302   4.4610   4.4630   4.5475   4.5817   4.6926
     4.7113

[...]

          k = 0.0669-0.0377 0.0000 ( 42854 PWs)   bands (ev):

[...]

          k =-0.0802 0.0282 0.0000 ( 42888 PWs)   bands (ev):

[...]

          k =-0.0802-0.0568 0.0000 ( 42922 PWs)   bands (ev):

   -83.0368 -83.0364 -82.8262 -82.8258 -82.8073 -82.8069 -42.3798 -42.3766
   -42.3593 -42.3564 -42.3503 -42.3266 -42.2124 -42.2094 -42.2071 -42.1824
   -42.1725 -42.1493 -42.1355 -42.1324 -42.1163 -42.1143 -42.1011 -42.0985
   -30.1688 -30.0723 -29.9673 -29.8715 -28.9923 -28.8862 -14.4805 -14.3142
   -14.1347 -14.0792 -13.9323 -13.8717 -13.8579 -13.8233 -13.7306 -13.6547
   -13.4841 -13.4252 -13.2484 -12.8630 -12.8348 -12.7791 -12.7389 -12.3685
    -0.4933  -0.4632  -0.2583   0.0020   0.1343   0.1954   0.2241   0.3297
     0.4012   0.7109   0.7403   0.7863   0.8727   1.0523   1.1635   1.2020
     1.2732   1.2760   1.4003   1.4298   1.4812   1.5965   1.5996   1.7014
     1.7339   1.7567   1.7664   1.7803   1.7966   1.8543   1.8867   1.9848
     2.0019   2.1215   2.1273   2.2524   2.2817   2.4480   2.5386   3.0590
     3.1088   3.1662   3.3345   3.3495   3.8421   4.0050   4.0470   4.1990
     4.2121

     the Fermi energy is     2.2668 ev

!    total energy              =   -1967.54062372 Ry
     estimated scf accuracy    <       0.00000756 Ry
     smearing contrib. (-TS)   =      -0.08413441 Ry
     internal energy E=F+TS    =   -1967.45648932 Ry

     The total energy is F=E-TS. E is the sum of the following terms:
     one-electron contribution =  -10511.78825095 Ry
     hartree contribution      =    5261.17046523 Ry
     xc contribution           =    -684.35575735 Ry
     ewald contribution        =    3967.51697721 Ry
     electric field correction =       0.00007655 Ry

     convergence has been achieved in  18 iterations

     negative rho (up, down):  2.014E-04 0.000E+00

     Forces acting on atoms (cartesian axes, Ry/au):

     atom    1 type  1   force =     0.00072536    0.00051046   -0.01645521
     atom    2 type  1   force =     0.00072757    0.00051499   -0.01645287
     atom    3 type  2   force =    -0.00101866   -0.00071956    0.03162009
     atom    4 type  2   force =    -0.00101648   -0.00071988    0.03158883
     atom    5 type  1   force =    -0.00032267   -0.00022507   -0.02113621
     atom    6 type  1   force =    -0.00032102   -0.00023241   -0.02114308
     atom    7 type  2   force =    -0.00044067   -0.00031281    0.00949792
     atom    8 type  2   force =    -0.00044443   -0.00031408    0.00949941
     atom    9 type  1   force =     0.00010444    0.00007040   -0.00150387
     atom   10 type  1   force =     0.00009717    0.00006800   -0.00150528
     atom   11 type  2   force =     0.00095542    0.00068100   -0.00200946
     atom   12 type  2   force =     0.00095398    0.00067893   -0.00200028

     Total force =     0.060285     Total SCF correction =     0.010783
     SCF correction compared to forces is large: reduce conv_thr to get better values

     Writing output data file ./La2Os2/La2Os2_beef.save/

     General routines

     Parallel routines

   This run was terminated on:  10:56:56  25Jun2022

   JOB DONE.