     Program PWSCF v.6.6 starts on 25Jun2022 at 10:56:59

     R & G space division:  proc/nbgrp/npool/nimage =      37
     Fft bands division:     nmany     =       1
     Reading input from La2Pd2.in
Warning: card &CELL ignored
Warning: card / ignored

     Current dimensions of program PWSCF are:
     Max number of different atomic species (ntypx) = 10
     Max number of k-points (npk) =  40000
     Max angular momentum in pseudopotentials (lmaxx) =  3
     Presently stress not available with electric field and gates

     Message from routine cell_base_init:
     DEPRECATED: use true lattice parameter, not A to a.u. conversion factor
     file La.pbe-spfn-rrkjus_psl.1.0.0.UPF: wavefunction(s)  4F renormalized
     file Pd.pbe-n-rrkjus_psl.1.0.0.UPF: wavefunction(s)  4D renormalized

     IMPORTANT: XC functional enforced from input :
     Exchange-correlation= BEEF-VDW
                           (   1   4  43  14   2   0   0)
     Any further DFT definition will be discarded
     Please, verify this is what you really want

     Subspace diagonalization in iterative solution of the eigenvalue problem:
     a serial algorithm will be used

     bravais-lattice index     =            0
     lattice parameter (alat)  =       1.8897  a.u.
     unit-cell volume          =    6586.3655 (a.u.)^3
     number of atoms/cell      =           12
     number of atomic types    =            2
     number of electrons       =       126.00
     number of Kohn-Sham states=           76
     kinetic-energy cutoff     =      55.1240  Ry
     charge density cutoff     =     551.2396  Ry
     convergence threshold     =      1.0E-05
     mixing beta               =       0.1000
     number of iterations used =           10  plain     mixing
     Exchange-correlation= BEEF-VDW
                           (   1   4  43  14   2   0   0)

     celldm(1)=   1.889726  celldm(2)=   0.000000  celldm(3)=   0.000000
     celldm(4)=   0.000000  celldm(5)=   0.000000  celldm(6)=   0.000000

     crystal axes: (cart. coord. in units of alat)
               a(1) = (   6.410907   0.000000   0.000000 )
               a(2) = (   2.176088   6.030287   0.000000 )
               a(3) = (   0.000000   0.000000  25.245958 )

     reciprocal axes: (cart. coord. in units 2 pi/alat)
               b(1) = (  0.155984 -0.056288  0.000000 )
               b(2) = (  0.000000  0.165830  0.000000 )
               b(3) = (  0.000000  0.000000  0.039610 )

     PseudoPot. # 1 for La read from file:
     ../pseudo/La.pbe-spfn-rrkjus_psl.1.0.0.UPF
     MD5 check sum: e3bc141c2ecb461b8d0a035ce9ac970e
     Pseudo is Ultrasoft + core correction, Zval = 11.0
     Generated using "atomic" code by A. Dal Corso v.6.2.2
     Using radial grid of 1253 points,  8 beta functions with:
                l(1) =   0
                l(2) =   0
                l(3) =   1
                l(4) =   1
                l(5) =   2
                l(6) =   2
                l(7) =   3
                l(8) =   3
     Q(r) pseudized with 0 coefficients

     PseudoPot. # 2 for Pd read from file:
     ../pseudo/Pd.pbe-n-rrkjus_psl.1.0.0.UPF
     MD5 check sum: d9f693bf1c5b493397a6bd6f2231cfc3
     Pseudo is Ultrasoft + core correction, Zval = 10.0
     Generated using "atomic" code by A. Dal Corso v.6.3
     Using radial grid of 1235 points,  6 beta functions with:
                l(1) =   0
                l(2) =   0
                l(3) =   1
                l(4) =   1
                l(5) =   2
                l(6) =   2
     Q(r) pseudized with 0 coefficients

     atomic species   valence    mass     pseudopotential
        La            11.00   138.90547     La( 1.00)
        Pd            10.00   106.42000     Pd( 1.00)

     No symmetry found

   Cartesian axes

     site n.     atom                  positions (alat units)
         1           La  tau(   1) = (   0.0000000   0.0000000  10.0000000  )
         2           La  tau(   2) = (   4.2934974   3.0151437  10.0000000  )
         3           Pd  tau(   3) = (   3.2054534   0.0000000  10.0000000  )
         4           Pd  tau(   4) = (   1.0880441   3.0151437  10.0000000  )
         5           La  tau(   5) = (   6.4109067   4.5021116  12.6229788  )
         6           La  tau(   6) = (   2.1174093   1.4869679  12.6229788  )
         7           Pd  tau(   7) = (   3.2054534   4.5021116  12.6229788  )
         8           Pd  tau(   8) = (   5.3228626   1.4869679  12.6229788  )
         9           La  tau(   9) = (   4.2517622   2.9858273  15.2712244  )
        10           La  tau(  10) = (   8.5451063   6.0008703  15.2711862  )
        11           Pd  tau(  11) = (   7.4507564   2.9813811  15.0240928  )
        12           Pd  tau(  12) = (   5.3334224   5.9964107  15.0240971  )

     number of k points=    74  Fermi-Dirac smearing, width (Ry)=  0.0100
                       cart. coord. in units 2pi/alat
        k(    1) = (   0.0000000   0.0000000   0.0000000), wk =   0.0138889
        k(    2) = (   0.0000000   0.0138191   0.0000000), wk =   0.0277778
        k(    3) = (   0.0000000   0.0276383   0.0000000), wk =   0.0277778
        k(    4) = (   0.0000000   0.0414574   0.0000000), wk =   0.0277778
        k(    5) = (   0.0000000   0.0552765   0.0000000), wk =   0.0277778
        k(    6) = (   0.0000000   0.0690957   0.0000000), wk =   0.0277778
        k(    7) = (   0.0000000  -0.0829148   0.0000000), wk =   0.0138889
        k(    8) = (   0.0129987  -0.0046907   0.0000000), wk =   0.0277778
        k(    9) = (   0.0129987   0.0091284   0.0000000), wk =   0.0277778
        k(   10) = (   0.0129987   0.0229476   0.0000000), wk =   0.0277778
        k(   11) = (   0.0129987   0.0367667   0.0000000), wk =   0.0277778
        k(   12) = (   0.0129987   0.0505858   0.0000000), wk =   0.0277778
        k(   13) = (   0.0129987   0.0644050   0.0000000), wk =   0.0277778
        k(   14) = (   0.0129987  -0.0876055   0.0000000), wk =   0.0277778
        k(   15) = (   0.0129987  -0.0737864   0.0000000), wk =   0.0277778
        k(   16) = (   0.0129987  -0.0599672   0.0000000), wk =   0.0277778
        k(   17) = (   0.0129987  -0.0461481   0.0000000), wk =   0.0277778
        k(   18) = (   0.0129987  -0.0323290   0.0000000), wk =   0.0277778
        k(   19) = (   0.0129987  -0.0185098   0.0000000), wk =   0.0277778
        k(   20) = (   0.0259974  -0.0093814   0.0000000), wk =   0.0277778
        k(   21) = (   0.0259974   0.0044377   0.0000000), wk =   0.0277778
        k(   22) = (   0.0259974   0.0182569   0.0000000), wk =   0.0277778
        k(   23) = (   0.0259974   0.0320760   0.0000000), wk =   0.0277778
        k(   24) = (   0.0259974   0.0458951   0.0000000), wk =   0.0277778
        k(   25) = (   0.0259974   0.0597143   0.0000000), wk =   0.0277778
        k(   26) = (   0.0259974  -0.0922962   0.0000000), wk =   0.0277778
        k(   27) = (   0.0259974  -0.0784771   0.0000000), wk =   0.0277778
        k(   28) = (   0.0259974  -0.0646579   0.0000000), wk =   0.0277778
        k(   29) = (   0.0259974  -0.0508388   0.0000000), wk =   0.0277778
        k(   30) = (   0.0259974  -0.0370197   0.0000000), wk =   0.0277778
        k(   31) = (   0.0259974  -0.0232005   0.0000000), wk =   0.0277778
        k(   32) = (   0.0389960  -0.0140721   0.0000000), wk =   0.0277778
        k(   33) = (   0.0389960  -0.0002530   0.0000000), wk =   0.0277778
        k(   34) = (   0.0389960   0.0135662   0.0000000), wk =   0.0277778
        k(   35) = (   0.0389960   0.0273853   0.0000000), wk =   0.0277778
        k(   36) = (   0.0389960   0.0412044   0.0000000), wk =   0.0277778
        k(   37) = (   0.0389960   0.0550236   0.0000000), wk =   0.0277778
        k(   38) = (   0.0389960  -0.0969869   0.0000000), wk =   0.0277778
        k(   39) = (   0.0389960  -0.0831678   0.0000000), wk =   0.0277778
        k(   40) = (   0.0389960  -0.0693486   0.0000000), wk =   0.0277778
        k(   41) = (   0.0389960  -0.0555295   0.0000000), wk =   0.0277778
        k(   42) = (   0.0389960  -0.0417104   0.0000000), wk =   0.0277778
        k(   43) = (   0.0389960  -0.0278912   0.0000000), wk =   0.0277778
        k(   44) = (   0.0519947  -0.0187628   0.0000000), wk =   0.0277778
        k(   45) = (   0.0519947  -0.0049437   0.0000000), wk =   0.0277778
        k(   46) = (   0.0519947   0.0088755   0.0000000), wk =   0.0277778
        k(   47) = (   0.0519947   0.0226946   0.0000000), wk =   0.0277778
        k(   48) = (   0.0519947   0.0365137   0.0000000), wk =   0.0277778
        k(   49) = (   0.0519947   0.0503329   0.0000000), wk =   0.0277778
        k(   50) = (   0.0519947  -0.1016776   0.0000000), wk =   0.0277778
        k(   51) = (   0.0519947  -0.0878585   0.0000000), wk =   0.0277778
        k(   52) = (   0.0519947  -0.0740393   0.0000000), wk =   0.0277778
        k(   53) = (   0.0519947  -0.0602202   0.0000000), wk =   0.0277778
        k(   54) = (   0.0519947  -0.0464011   0.0000000), wk =   0.0277778
        k(   55) = (   0.0519947  -0.0325819   0.0000000), wk =   0.0277778
        k(   56) = (   0.0649934  -0.0234535   0.0000000), wk =   0.0277778
        k(   57) = (   0.0649934  -0.0096344   0.0000000), wk =   0.0277778
        k(   58) = (   0.0649934   0.0041848   0.0000000), wk =   0.0277778
        k(   59) = (   0.0649934   0.0180039   0.0000000), wk =   0.0277778
        k(   60) = (   0.0649934   0.0318230   0.0000000), wk =   0.0277778
        k(   61) = (   0.0649934   0.0456422   0.0000000), wk =   0.0277778
        k(   62) = (   0.0649934  -0.1063683   0.0000000), wk =   0.0277778
        k(   63) = (   0.0649934  -0.0925492   0.0000000), wk =   0.0277778
        k(   64) = (   0.0649934  -0.0787300   0.0000000), wk =   0.0277778
        k(   65) = (   0.0649934  -0.0649109   0.0000000), wk =   0.0277778
        k(   66) = (   0.0649934  -0.0510918   0.0000000), wk =   0.0277778
        k(   67) = (   0.0649934  -0.0372726   0.0000000), wk =   0.0277778
        k(   68) = (  -0.0779921   0.0281442   0.0000000), wk =   0.0138889
        k(   69) = (  -0.0779921   0.0419633   0.0000000), wk =   0.0277778
        k(   70) = (  -0.0779921   0.0557825   0.0000000), wk =   0.0277778
        k(   71) = (  -0.0779921   0.0696016   0.0000000), wk =   0.0277778
        k(   72) = (  -0.0779921   0.0834207   0.0000000), wk =   0.0277778
        k(   73) = (  -0.0779921   0.0972399   0.0000000), wk =   0.0277778
        k(   74) = (  -0.0779921  -0.0547706   0.0000000), wk =   0.0138889

     Initial potential from superposition of free atoms

     starting charge  125.81784, renormalised to  126.00000

     negative rho (up, down):  1.151E-03 0.000E+00

     %%%%%%%%%%%%%%%%%%%%%%%%%%%%%%%%%%%%%%%%%%%%%%%%%%%%%%%%%%%%%%%%%%%%%%%%
     %                                                                      %
     % You are using vdW-DF, which was implemented by the Thonhauser group. %
     % Please cite the following two papers that made this development      %
     % possible and the two reviews that describe the various versions:     %
     %                                                                      %
     %   T. Thonhauser et al., PRL 115, 136402 (2015).                      %
     %   T. Thonhauser et al., PRB 76, 125112 (2007).                       %
     %   K. Berland et al., Rep. Prog. Phys. 78, 066501 (2015).             %
     %   D.C. Langreth et al., J. Phys.: Condens. Matter 21, 084203 (2009). %
     %                                                                      %
     %                                                                      %
     % If you are calculating the stress with vdW-DF, please also cite:     %
     %                                                                      %
     %   R. Sabatini et al., J. Phys.: Condens. Matter 24, 424209 (2012).   %
     %                                                                      %
     %%%%%%%%%%%%%%%%%%%%%%%%%%%%%%%%%%%%%%%%%%%%%%%%%%%%%%%%%%%%%%%%%%%%%%%%

     Adding external electric field

     Computed dipole along edir(3) :
        Dipole                0.0130 Ry au,          0.0330 Debye
        Dipole field          0.0000 Ry au,

        Potential amp.       -0.0023 Ry
        Total length         46.5152 bohr

     Starting wfcs are  174 randomized atomic wfcs

     Self-consistent Calculation

     iteration #  1     ecut=    55.12 Ry     beta= 0.10
     Davidson diagonalization with overlap
     ethr =  1.00E-02,  avg # of iterations =  2.0

[...]

     total energy              =   -1175.55012530 Ry
     estimated scf accuracy    <       3.24769932 Ry

[...]

     iteration #  3     ecut=    55.12 Ry     beta= 0.10
     Davidson diagonalization with overlap
     c_bands:  1 eigenvalues not converged
     c_bands:  1 eigenvalues not converged
     ethr =  5.81E-04,  avg # of iterations = 12.2

[...]

     iteration #  8     ecut=    55.12 Ry     beta= 0.10
     Davidson diagonalization with overlap
     ethr =  2.71E-04,  avg # of iterations =  3.8

[...]

     total energy              =   -1175.71269349 Ry
     estimated scf accuracy    <       0.00001852 Ry

     iteration # 18     ecut=    55.12 Ry     beta= 0.10
     Davidson diagonalization with overlap
     c_bands:  1 eigenvalues not converged
     c_bands:  1 eigenvalues not converged
     ethr =  1.47E-08,  avg # of iterations =  9.1

[...]

     Adding external electric field

     Computed dipole along edir(3) :
        Dipole                0.0918 Ry au,          0.2332 Debye
        Dipole field          0.0002 Ry au,

        Potential amp.       -0.0163 Ry
        Total length         46.5152 bohr

     End of self-consistent calculation

          k = 0.0000 0.0000 0.0000 ( 45587 PWs)   bands (ev):

   -31.9197 -31.8889 -31.8430 -31.8121 -31.2972 -31.2234 -15.9192 -15.8919
   -15.7201 -15.6567 -15.6520 -15.5982 -15.5632 -15.5422 -15.5078 -15.4292
   -15.4219 -15.1200 -15.0937 -14.9853 -14.9239 -14.8273 -14.8171 -14.5801
    -2.5321  -2.1406  -2.1047  -2.0937  -2.0411  -1.9553  -1.8157  -1.7657
    -1.7485  -1.7258  -1.5959  -1.5677  -1.4796  -1.4479  -1.4472  -1.3764
    -1.3054  -1.2989  -1.2905  -1.1436  -1.1409  -1.0931  -0.9678  -0.9136
    -0.9066  -0.8569  -0.5765  -0.5700  -0.5101  -0.4727  -0.4622  -0.3396
     0.3053   0.5009   0.5395   0.7584   1.9163   1.9452   2.0147   2.1744
     2.2218   2.2471   2.3326   2.6375   2.6709   2.6986   2.7364   2.7477
     2.7626   2.7878   2.7942   2.8251

[...]

          k = 0.0650-0.0373 0.0000 ( 45488 PWs)   bands (ev):

[...]

          k =-0.0780 0.0281 0.0000 ( 45514 PWs)   bands (ev):

[...]

          k =-0.0780-0.0548 0.0000 ( 45580 PWs)   bands (ev):

   -31.9161 -31.8853 -31.8444 -31.8136 -31.2992 -31.2195 -15.9479 -15.9156
   -15.7893 -15.7084 -15.6301 -15.6291 -15.5588 -15.5419 -15.5191 -15.4310
   -15.4304 -15.1249 -15.0985 -14.9356 -14.9157 -14.8854 -14.8488 -14.5941
    -1.7548  -1.6815  -1.5783  -1.4780  -1.4455  -1.4418  -1.4242  -1.2968
    -1.2727  -1.2090  -1.1828  -1.1719  -1.1312  -1.1291  -1.1159  -1.0611
    -1.0226  -0.9941  -0.9796  -0.9758  -0.9144  -0.8706  -0.8433  -0.8369
    -0.7660  -0.7639  -0.7190  -0.5762  -0.5645  -0.5115  -0.3613  -0.2536
     0.1145   0.3661   0.4869   0.6180   0.7132   0.7165   0.8803   1.1741
     1.5762   1.6212   1.6905   1.7432   1.8347   1.8534   2.2533   2.2554
     2.5584   2.7408   2.7428   2.7906

     the Fermi energy is     1.7306 ev

!    total energy              =   -1175.71269068 Ry
     estimated scf accuracy    <       0.00000316 Ry
     smearing contrib. (-TS)   =      -0.05257910 Ry
     internal energy E=F+TS    =   -1175.66011158 Ry

     The total energy is F=E-TS. E is the sum of the following terms:
     one-electron contribution =   -5706.83953640 Ry
     hartree contribution      =    2904.33641978 Ry
     xc contribution           =    -582.43472994 Ry
     ewald contribution        =    2209.27771892 Ry
     electric field correction =       0.00001606 Ry

     convergence has been achieved in  18 iterations

     negative rho (up, down):  7.177E-04 0.000E+00

     Forces acting on atoms (cartesian axes, Ry/au):

     atom    1 type  1   force =    -0.00141389   -0.00098571   -0.00602159
     atom    2 type  1   force =    -0.00140470   -0.00099587   -0.00602538
     atom    3 type  2   force =    -0.00005331   -0.00003743    0.01671970
     atom    4 type  2   force =    -0.00005170   -0.00003821    0.01671884
     atom    5 type  1   force =     0.00067731    0.00047437   -0.01312088
     atom    6 type  1   force =     0.00067509    0.00047643   -0.01310482
     atom    7 type  2   force =     0.00010592    0.00007283    0.00332440
     atom    8 type  2   force =     0.00010200    0.00007456    0.00332601
     atom    9 type  1   force =     0.00032239    0.00022943   -0.00047841
     atom   10 type  1   force =     0.00034219    0.00023996   -0.00047914
     atom   11 type  2   force =     0.00035397    0.00023883   -0.00042851
     atom   12 type  2   force =     0.00034473    0.00025081   -0.00043022

     Total force =     0.031725     Total SCF correction =     0.005294
     SCF correction compared to forces is large: reduce conv_thr to get better values

     Writing output data file ./La2Pd2/La2Pd2_beef.save/

     General routines

     Parallel routines

   This run was terminated on:  13:22:32  25Jun2022

   JOB DONE.