     Program PWSCF v.6.6 starts on 25Jun2022 at 13:22:35

     R & G space division:  proc/nbgrp/npool/nimage =      37
     Fft bands division:     nmany     =       1
     Reading input from La2Pt2.in
Warning: card &CELL ignored
Warning: card / ignored

     Current dimensions of program PWSCF are:
     Max number of different atomic species (ntypx) = 10
     Max number of k-points (npk) =  40000
     Max angular momentum in pseudopotentials (lmaxx) =  3
     Presently stress not available with electric field and gates

     Message from routine cell_base_init:
     DEPRECATED: use true lattice parameter, not A to a.u. conversion factor
     file La.pbe-spfn-rrkjus_psl.1.0.0.UPF: wavefunction(s)  4F renormalized
     file Pt.pbe-n-rrkjus_psl.1.0.0.UPF: wavefunction(s)  6S renormalized

     IMPORTANT: XC functional enforced from input :
     Exchange-correlation= BEEF-VDW
                           (   1   4  43  14   2   0   0)
     Any further DFT definition will be discarded
     Please, verify this is what you really want

     Subspace diagonalization in iterative solution of the eigenvalue problem:
     a serial algorithm will be used

     bravais-lattice index     =            0
     lattice parameter (alat)  =       1.8897  a.u.
     unit-cell volume          =    6551.0181 (a.u.)^3
     number of atoms/cell      =           12
     number of atomic types    =            2
     number of electrons       =       126.00
     number of Kohn-Sham states=           76
     kinetic-energy cutoff     =      55.1240  Ry
     charge density cutoff     =     551.2396  Ry
     convergence threshold     =      1.0E-05
     mixing beta               =       0.1000
     number of iterations used =           10  plain     mixing
     Exchange-correlation= BEEF-VDW
                           (   1   4  43  14   2   0   0)

     celldm(1)=   1.889726  celldm(2)=   0.000000  celldm(3)=   0.000000
     celldm(4)=   0.000000  celldm(5)=   0.000000  celldm(6)=   0.000000

     crystal axes: (cart. coord. in units of alat)
               a(1) = (   6.391808   0.000000   0.000000 )
               a(2) = (   2.144574   6.021297   0.000000 )
               a(3) = (   0.000000   0.000000  25.223103 )

     reciprocal axes: (cart. coord. in units 2 pi/alat)
               b(1) = (  0.156450 -0.055722  0.000000 )
               b(2) = (  0.000000  0.166077  0.000000 )
               b(3) = (  0.000000  0.000000  0.039646 )

     PseudoPot. # 1 for La read from file:
     ../pseudo/La.pbe-spfn-rrkjus_psl.1.0.0.UPF
     MD5 check sum: e3bc141c2ecb461b8d0a035ce9ac970e
     Pseudo is Ultrasoft + core correction, Zval = 11.0
     Generated using "atomic" code by A. Dal Corso v.6.2.2
     Using radial grid of 1253 points,  8 beta functions with:
                l(1) =   0
                l(2) =   0
                l(3) =   1
                l(4) =   1
                l(5) =   2
                l(6) =   2
                l(7) =   3
                l(8) =   3
     Q(r) pseudized with 0 coefficients

     PseudoPot. # 2 for Pt read from file:
     ../pseudo/Pt.pbe-n-rrkjus_psl.1.0.0.UPF
     MD5 check sum: 6bc887cfe28d63a5fc1f72d35a7d3ef7
     Pseudo is Ultrasoft + core correction, Zval = 10.0
     Generated using "atomic" code by A. Dal Corso v.6.3
     Using radial grid of 1277 points,  6 beta functions with:
                l(1) =   0
                l(2) =   0
                l(3) =   1
                l(4) =   1
                l(5) =   2
                l(6) =   2
     Q(r) pseudized with 0 coefficients

     atomic species   valence    mass     pseudopotential
        La            11.00   138.90547     La( 1.00)
        Pt            10.00   195.08400     Pt( 1.00)

     No symmetry found

   Cartesian axes

     site n.     atom                  positions (alat units)
         1           La  tau(   1) = (   0.0000000   0.0000000  10.0000000  )
         2           La  tau(   2) = (   4.2681909   3.0106485  10.0000000  )
         3           Pt  tau(   3) = (   3.1959042   0.0000000  10.0000000  )
         4           Pt  tau(   4) = (   1.0722868   3.0106485  10.0000000  )
         5           La  tau(   5) = (   6.3918083   4.5085818  12.6115513  )
         6           La  tau(   6) = (   2.1236174   1.4979333  12.6115513  )
         7           Pt  tau(   7) = (   3.1959042   4.5085818  12.6115513  )
         8           Pt  tau(   8) = (   5.3195215   1.4979333  12.6115513  )
         9           La  tau(   9) = (   4.2542336   3.0007928  15.2227496  )
        10           La  tau(  10) = (   8.5221397   6.0112508  15.2227393  )
        11           Pt  tau(  11) = (   7.4471707   2.9984173  14.9944902  )
        12           Pt  tau(  12) = (   5.3232799   6.0094582  14.9944918  )

     number of k points=    74  Fermi-Dirac smearing, width (Ry)=  0.0100
                       cart. coord. in units 2pi/alat
        k(    1) = (   0.0000000   0.0000000   0.0000000), wk =   0.0138889
        k(    2) = (   0.0000000   0.0138398   0.0000000), wk =   0.0277778
        k(    3) = (   0.0000000   0.0276795   0.0000000), wk =   0.0277778
        k(    4) = (   0.0000000   0.0415193   0.0000000), wk =   0.0277778
        k(    5) = (   0.0000000   0.0553591   0.0000000), wk =   0.0277778
        k(    6) = (   0.0000000   0.0691988   0.0000000), wk =   0.0277778
        k(    7) = (   0.0000000  -0.0830386   0.0000000), wk =   0.0138889
        k(    8) = (   0.0130375  -0.0046435   0.0000000), wk =   0.0277778
        k(    9) = (   0.0130375   0.0091963   0.0000000), wk =   0.0277778
        k(   10) = (   0.0130375   0.0230360   0.0000000), wk =   0.0277778
        k(   11) = (   0.0130375   0.0368758   0.0000000), wk =   0.0277778
        k(   12) = (   0.0130375   0.0507156   0.0000000), wk =   0.0277778
        k(   13) = (   0.0130375   0.0645553   0.0000000), wk =   0.0277778
        k(   14) = (   0.0130375  -0.0876821   0.0000000), wk =   0.0277778
        k(   15) = (   0.0130375  -0.0738423   0.0000000), wk =   0.0277778
        k(   16) = (   0.0130375  -0.0600026   0.0000000), wk =   0.0277778
        k(   17) = (   0.0130375  -0.0461628   0.0000000), wk =   0.0277778
        k(   18) = (   0.0130375  -0.0323230   0.0000000), wk =   0.0277778
        k(   19) = (   0.0130375  -0.0184833   0.0000000), wk =   0.0277778
        k(   20) = (   0.0260750  -0.0092870   0.0000000), wk =   0.0277778
        k(   21) = (   0.0260750   0.0045528   0.0000000), wk =   0.0277778
        k(   22) = (   0.0260750   0.0183925   0.0000000), wk =   0.0277778
        k(   23) = (   0.0260750   0.0322323   0.0000000), wk =   0.0277778
        k(   24) = (   0.0260750   0.0460720   0.0000000), wk =   0.0277778
        k(   25) = (   0.0260750   0.0599118   0.0000000), wk =   0.0277778
        k(   26) = (   0.0260750  -0.0923256   0.0000000), wk =   0.0277778
        k(   27) = (   0.0260750  -0.0784858   0.0000000), wk =   0.0277778
        k(   28) = (   0.0260750  -0.0646461   0.0000000), wk =   0.0277778
        k(   29) = (   0.0260750  -0.0508063   0.0000000), wk =   0.0277778
        k(   30) = (   0.0260750  -0.0369665   0.0000000), wk =   0.0277778
        k(   31) = (   0.0260750  -0.0231268   0.0000000), wk =   0.0277778
        k(   32) = (   0.0391126  -0.0139305   0.0000000), wk =   0.0277778
        k(   33) = (   0.0391126  -0.0000908   0.0000000), wk =   0.0277778
        k(   34) = (   0.0391126   0.0137490   0.0000000), wk =   0.0277778
        k(   35) = (   0.0391126   0.0275888   0.0000000), wk =   0.0277778
        k(   36) = (   0.0391126   0.0414285   0.0000000), wk =   0.0277778
        k(   37) = (   0.0391126   0.0552683   0.0000000), wk =   0.0277778
        k(   38) = (   0.0391126  -0.0969691   0.0000000), wk =   0.0277778
        k(   39) = (   0.0391126  -0.0831293   0.0000000), wk =   0.0277778
        k(   40) = (   0.0391126  -0.0692896   0.0000000), wk =   0.0277778
        k(   41) = (   0.0391126  -0.0554498   0.0000000), wk =   0.0277778
        k(   42) = (   0.0391126  -0.0416100   0.0000000), wk =   0.0277778
        k(   43) = (   0.0391126  -0.0277703   0.0000000), wk =   0.0277778
        k(   44) = (   0.0521501  -0.0185740   0.0000000), wk =   0.0277778
        k(   45) = (   0.0521501  -0.0047343   0.0000000), wk =   0.0277778
        k(   46) = (   0.0521501   0.0091055   0.0000000), wk =   0.0277778
        k(   47) = (   0.0521501   0.0229453   0.0000000), wk =   0.0277778
        k(   48) = (   0.0521501   0.0367850   0.0000000), wk =   0.0277778
        k(   49) = (   0.0521501   0.0506248   0.0000000), wk =   0.0277778
        k(   50) = (   0.0521501  -0.1016126   0.0000000), wk =   0.0277778
        k(   51) = (   0.0521501  -0.0877728   0.0000000), wk =   0.0277778
        k(   52) = (   0.0521501  -0.0739331   0.0000000), wk =   0.0277778
        k(   53) = (   0.0521501  -0.0600933   0.0000000), wk =   0.0277778
        k(   54) = (   0.0521501  -0.0462536   0.0000000), wk =   0.0277778
        k(   55) = (   0.0521501  -0.0324138   0.0000000), wk =   0.0277778
        k(   56) = (   0.0651876  -0.0232175   0.0000000), wk =   0.0277778
        k(   57) = (   0.0651876  -0.0093778   0.0000000), wk =   0.0277778
        k(   58) = (   0.0651876   0.0044620   0.0000000), wk =   0.0277778
        k(   59) = (   0.0651876   0.0183018   0.0000000), wk =   0.0277778
        k(   60) = (   0.0651876   0.0321415   0.0000000), wk =   0.0277778
        k(   61) = (   0.0651876   0.0459813   0.0000000), wk =   0.0277778
        k(   62) = (   0.0651876  -0.1062561   0.0000000), wk =   0.0277778
        k(   63) = (   0.0651876  -0.0924164   0.0000000), wk =   0.0277778
        k(   64) = (   0.0651876  -0.0785766   0.0000000), wk =   0.0277778
        k(   65) = (   0.0651876  -0.0647368   0.0000000), wk =   0.0277778
        k(   66) = (   0.0651876  -0.0508971   0.0000000), wk =   0.0277778
        k(   67) = (   0.0651876  -0.0370573   0.0000000), wk =   0.0277778
        k(   68) = (  -0.0782251   0.0278610   0.0000000), wk =   0.0138889
        k(   69) = (  -0.0782251   0.0417008   0.0000000), wk =   0.0277778
        k(   70) = (  -0.0782251   0.0555406   0.0000000), wk =   0.0277778
        k(   71) = (  -0.0782251   0.0693803   0.0000000), wk =   0.0277778
        k(   72) = (  -0.0782251   0.0832201   0.0000000), wk =   0.0277778
        k(   73) = (  -0.0782251   0.0970599   0.0000000), wk =   0.0277778
        k(   74) = (  -0.0782251  -0.0551776   0.0000000), wk =   0.0138889

     Initial potential from superposition of free atoms

     starting charge  125.82025, renormalised to  126.00000

     negative rho (up, down):  8.955E-04 0.000E+00

     %%%%%%%%%%%%%%%%%%%%%%%%%%%%%%%%%%%%%%%%%%%%%%%%%%%%%%%%%%%%%%%%%%%%%%%%
     %                                                                      %
     % You are using vdW-DF, which was implemented by the Thonhauser group. %
     % Please cite the following two papers that made this development      %
     % possible and the two reviews that describe the various versions:     %
     %                                                                      %
     %   T. Thonhauser et al., PRL 115, 136402 (2015).                      %
     %   T. Thonhauser et al., PRB 76, 125112 (2007).                       %
     %   K. Berland et al., Rep. Prog. Phys. 78, 066501 (2015).             %
     %   D.C. Langreth et al., J. Phys.: Condens. Matter 21, 084203 (2009). %
     %                                                                      %
     %                                                                      %
     % If you are calculating the stress with vdW-DF, please also cite:     %
     %                                                                      %
     %   R. Sabatini et al., J. Phys.: Condens. Matter 24, 424209 (2012).   %
     %                                                                      %
     %%%%%%%%%%%%%%%%%%%%%%%%%%%%%%%%%%%%%%%%%%%%%%%%%%%%%%%%%%%%%%%%%%%%%%%%

     Adding external electric field

     Computed dipole along edir(3) :
        Dipole                0.0122 Ry au,          0.0310 Debye
        Dipole field          0.0000 Ry au,

        Potential amp.       -0.0022 Ry
        Total length         46.4731 bohr

     Starting wfcs are  174 randomized atomic wfcs

     Self-consistent Calculation

     iteration #  1     ecut=    55.12 Ry     beta= 0.10
     Davidson diagonalization with overlap
     ethr =  1.00E-02,  avg # of iterations =  2.0

[...]

     total energy              =   -1161.66174386 Ry
     estimated scf accuracy    <       3.10739817 Ry

[...]

     iteration #  3     ecut=    55.12 Ry     beta= 0.10
     Davidson diagonalization with overlap
     c_bands:  1 eigenvalues not converged
     ethr =  6.23E-04,  avg # of iterations = 13.6

[...]

     iteration #  9     ecut=    55.12 Ry     beta= 0.10
     Davidson diagonalization with overlap
     ethr =  2.38E-04,  avg # of iterations =  5.1

[...]

     total energy              =   -1161.84732222 Ry
     estimated scf accuracy    <       0.00014965 Ry

     iteration # 20     ecut=    55.12 Ry     beta= 0.10
     Davidson diagonalization with overlap
     c_bands:  1 eigenvalues not converged
     c_bands:  1 eigenvalues not converged
     ethr =  1.37E-08,  avg # of iterations = 11.5

[...]

     Adding external electric field

     Computed dipole along edir(3) :
        Dipole                0.1071 Ry au,          0.2723 Debye
        Dipole field          0.0002 Ry au,

        Potential amp.       -0.0191 Ry
        Total length         46.4731 bohr

     End of self-consistent calculation

          k = 0.0000 0.0000 0.0000 ( 45339 PWs)   bands (ev):

   -31.5577 -31.5296 -31.4795 -31.4517 -30.8555 -30.7804 -15.5850 -15.5550
   -15.3793 -15.3177 -15.3162 -15.2568 -15.2205 -15.2006 -15.1597 -15.0804
   -15.0195 -14.7735 -14.7487 -14.5894 -14.5208 -14.4185 -14.4095 -14.1565
    -3.2998  -2.5406  -2.5119  -2.4768  -2.2608  -2.0369  -1.9303  -1.7752
    -1.7191  -1.6797  -1.6526  -1.4868  -1.3269  -1.3088  -1.2938  -1.1974
    -1.1160  -1.1080  -1.0988  -0.9323  -0.9035  -0.8477  -0.6682  -0.6013
    -0.5951  -0.5015  -0.3869  -0.2286  -0.1644  -0.0364   0.0259   0.0778
     0.2321   0.4748   0.5023   0.7590   2.1018   2.2971   2.4832   2.4868
     2.4880   2.7150   2.8643   2.9999   3.0253   3.0575   3.1091   3.1420
     3.1424   3.1454   3.1692   3.1922

[...]

          k = 0.0652-0.0371 0.0000 ( 45267 PWs)   bands (ev):

[...]

          k =-0.0782 0.0279 0.0000 ( 45266 PWs)   bands (ev):

[...]

          k =-0.0782-0.0552 0.0000 ( 45348 PWs)   bands (ev):

   -31.5531 -31.5253 -31.4809 -31.4530 -30.8570 -30.7759 -15.6292 -15.5897
   -15.4728 -15.3967 -15.2913 -15.2840 -15.2323 -15.1947 -15.1883 -15.0911
   -15.0388 -14.7823 -14.7572 -14.5442 -14.5093 -14.4790 -14.4531 -14.1754
    -1.9255  -1.8435  -1.6449  -1.6221  -1.4992  -1.4842  -1.2805  -1.2574
    -1.1736  -1.1675  -1.0537  -1.0238  -0.9704  -0.9169  -0.9035  -0.8482
    -0.7892  -0.7629  -0.6911  -0.6670  -0.6491  -0.5826  -0.5782  -0.5372
    -0.5108  -0.4377  -0.4088  -0.4055  -0.1681  -0.1545  -0.1446   0.1091
     0.1948   0.3343   0.4080   0.5287   0.6329   0.9333   1.0343   1.1866
     1.2163   1.5563   1.7538   1.9598   2.1140   2.2000   2.5742   2.6861
     2.9340   3.0663   3.1506   3.2062

     the Fermi energy is     2.0096 ev

!    total energy              =   -1161.84733333 Ry
     estimated scf accuracy    <       0.00000751 Ry
     smearing contrib. (-TS)   =      -0.04503768 Ry
     internal energy E=F+TS    =   -1161.80229566 Ry

     The total energy is F=E-TS. E is the sum of the following terms:
     one-electron contribution =   -5694.09340032 Ry
     hartree contribution      =    2895.49191877 Ry
     xc contribution           =    -596.31820854 Ry
     ewald contribution        =    2233.11737242 Ry
     electric field correction =       0.00002201 Ry

     convergence has been achieved in  20 iterations

     negative rho (up, down):  5.133E-04 0.000E+00

     Forces acting on atoms (cartesian axes, Ry/au):

     atom    1 type  1   force =    -0.00056751   -0.00038900   -0.00614412
     atom    2 type  1   force =    -0.00054920   -0.00039962   -0.00614738
     atom    3 type  2   force =    -0.00012302   -0.00008372    0.02185343
     atom    4 type  2   force =    -0.00010267   -0.00007610    0.02184587
     atom    5 type  1   force =     0.00029902    0.00020432   -0.01688195
     atom    6 type  1   force =     0.00029188    0.00021239   -0.01688796
     atom    7 type  2   force =     0.00010286    0.00007129    0.00213916
     atom    8 type  2   force =     0.00008533    0.00006638    0.00215759
     atom    9 type  1   force =     0.00004626    0.00004286   -0.00153100
     atom   10 type  1   force =     0.00005756    0.00002978   -0.00153083
     atom   11 type  2   force =     0.00021770    0.00016895    0.00057907
     atom   12 type  2   force =     0.00024178    0.00015246    0.00054813

     Total force =     0.040206     Total SCF correction =     0.012177
     SCF correction compared to forces is large: reduce conv_thr to get better values

     Writing output data file ./La2Pt2/La2Pt2_beef.save/

     General routines

     Parallel routines

   This run was terminated on:  16:36:43  25Jun2022

   JOB DONE.