     Program PWSCF v.6.6 starts on 25Jun2022 at 21:54:13

     R & G space division:  proc/nbgrp/npool/nimage =      37
     Fft bands division:     nmany     =       1
     Reading input from La2Rh2.in
Warning: card &CELL ignored
Warning: card / ignored

     Current dimensions of program PWSCF are:
     Max number of different atomic species (ntypx) = 10
     Max number of k-points (npk) =  40000
     Max angular momentum in pseudopotentials (lmaxx) =  3
     Presently stress not available with electric field and gates

     Message from routine cell_base_init:
     DEPRECATED: use true lattice parameter, not A to a.u. conversion factor
     file La.pbe-spfn-rrkjus_psl.1.0.0.UPF: wavefunction(s)  4F renormalized
     file Rh.pbe-spn-rrkjus_psl.1.0.0.UPF: wavefunction(s)  4S 5S renormalized

     IMPORTANT: XC functional enforced from input :
     Exchange-correlation= BEEF-VDW
                           (   1   4  43  14   2   0   0)
     Any further DFT definition will be discarded
     Please, verify this is what you really want

     Subspace diagonalization in iterative solution of the eigenvalue problem:
     a serial algorithm will be used

     bravais-lattice index     =            0
     lattice parameter (alat)  =       1.8897  a.u.
     unit-cell volume          =    6289.8526 (a.u.)^3
     number of atoms/cell      =           12
     number of atomic types    =            2
     number of electrons       =       168.00
     number of Kohn-Sham states=          101
     kinetic-energy cutoff     =      55.1240  Ry
     charge density cutoff     =     551.2396  Ry
     convergence threshold     =      1.0E-05
     mixing beta               =       0.1000
     number of iterations used =           10  plain     mixing
     Exchange-correlation= BEEF-VDW
                           (   1   4  43  14   2   0   0)

     celldm(1)=   1.889726  celldm(2)=   0.000000  celldm(3)=   0.000000
     celldm(4)=   0.000000  celldm(5)=   0.000000  celldm(6)=   0.000000

     crystal axes: (cart. coord. in units of alat)
               a(1) = (   6.273500   0.000000   0.000000 )
               a(2) = (   2.094008   5.913707   0.000000 )
               a(3) = (   0.000000   0.000000  25.123159 )

     reciprocal axes: (cart. coord. in units 2 pi/alat)
               b(1) = (  0.159401 -0.056443  0.000000 )
               b(2) = (  0.000000  0.169099  0.000000 )
               b(3) = (  0.000000  0.000000  0.039804 )

     PseudoPot. # 1 for La read from file:
     ../pseudo/La.pbe-spfn-rrkjus_psl.1.0.0.UPF
     MD5 check sum: e3bc141c2ecb461b8d0a035ce9ac970e
     Pseudo is Ultrasoft + core correction, Zval = 11.0
     Generated using "atomic" code by A. Dal Corso v.6.2.2
     Using radial grid of 1253 points,  8 beta functions with:
                l(1) =   0
                l(2) =   0
                l(3) =   1
                l(4) =   1
                l(5) =   2
                l(6) =   2
                l(7) =   3
                l(8) =   3
     Q(r) pseudized with 0 coefficients

     PseudoPot. # 2 for Rh read from file:
     ../pseudo/Rh.pbe-spn-rrkjus_psl.1.0.0.UPF
     MD5 check sum: 912a852783f0c9b7bd5e9eb06cc0cc10
     Pseudo is Ultrasoft + core correction, Zval = 17.0
     Generated using "atomic" code by A. Dal Corso v.6.3
     Using radial grid of 1233 points,  6 beta functions with:
                l(1) =   0
                l(2) =   0
                l(3) =   1
                l(4) =   1
                l(5) =   2
                l(6) =   2
     Q(r) pseudized with 0 coefficients

     atomic species   valence    mass     pseudopotential
        La            11.00   138.90547     La( 1.00)
        Rh            17.00   102.90550     Rh( 1.00)

     No symmetry found

   Cartesian axes

     site n.     atom                  positions (alat units)
         1           La  tau(   1) = (   0.0000000   0.0000000  10.0000000  )
         2           La  tau(   2) = (   4.1837542   2.9568535  10.0000000  )
         3           Rh  tau(   3) = (   3.1367500   0.0000000  10.0000000  )
         4           Rh  tau(   4) = (   1.0470042   2.9568535  10.0000000  )
         5           La  tau(   5) = (   6.2734999   4.4337739  12.5615793  )
         6           La  tau(   6) = (   2.0897457   1.4769204  12.5615793  )
         7           Rh  tau(   7) = (   3.1367500   4.4337739  12.5615793  )
         8           Rh  tau(   8) = (   5.2264957   1.4769204  12.5615793  )
         9           La  tau(   9) = (   4.1819077   2.9555350  15.1573747  )
        10           La  tau(  10) = (   8.3655348   5.9123149  15.1575683  )
        11           Rh  tau(  11) = (   7.3158018   2.9535148  14.8438947  )
        12           Rh  tau(  12) = (   5.2260421   5.9103702  14.8438948  )

     number of k points=    74  Fermi-Dirac smearing, width (Ry)=  0.0100
                       cart. coord. in units 2pi/alat
        k(    1) = (   0.0000000   0.0000000   0.0000000), wk =   0.0138889
        k(    2) = (   0.0000000   0.0140916   0.0000000), wk =   0.0277778
        k(    3) = (   0.0000000   0.0281831   0.0000000), wk =   0.0277778
        k(    4) = (   0.0000000   0.0422747   0.0000000), wk =   0.0277778
        k(    5) = (   0.0000000   0.0563662   0.0000000), wk =   0.0277778
        k(    6) = (   0.0000000   0.0704578   0.0000000), wk =   0.0277778
        k(    7) = (   0.0000000  -0.0845493   0.0000000), wk =   0.0138889
        k(    8) = (   0.0132834  -0.0047036   0.0000000), wk =   0.0277778
        k(    9) = (   0.0132834   0.0093880   0.0000000), wk =   0.0277778
        k(   10) = (   0.0132834   0.0234795   0.0000000), wk =   0.0277778
        k(   11) = (   0.0132834   0.0375711   0.0000000), wk =   0.0277778
        k(   12) = (   0.0132834   0.0516627   0.0000000), wk =   0.0277778
        k(   13) = (   0.0132834   0.0657542   0.0000000), wk =   0.0277778
        k(   14) = (   0.0132834  -0.0892529   0.0000000), wk =   0.0277778
        k(   15) = (   0.0132834  -0.0751613   0.0000000), wk =   0.0277778
        k(   16) = (   0.0132834  -0.0610698   0.0000000), wk =   0.0277778
        k(   17) = (   0.0132834  -0.0469782   0.0000000), wk =   0.0277778
        k(   18) = (   0.0132834  -0.0328867   0.0000000), wk =   0.0277778
        k(   19) = (   0.0132834  -0.0187951   0.0000000), wk =   0.0277778
        k(   20) = (   0.0265668  -0.0094071   0.0000000), wk =   0.0277778
        k(   21) = (   0.0265668   0.0046844   0.0000000), wk =   0.0277778
        k(   22) = (   0.0265668   0.0187760   0.0000000), wk =   0.0277778
        k(   23) = (   0.0265668   0.0328675   0.0000000), wk =   0.0277778
        k(   24) = (   0.0265668   0.0469591   0.0000000), wk =   0.0277778
        k(   25) = (   0.0265668   0.0610506   0.0000000), wk =   0.0277778
        k(   26) = (   0.0265668  -0.0939565   0.0000000), wk =   0.0277778
        k(   27) = (   0.0265668  -0.0798649   0.0000000), wk =   0.0277778
        k(   28) = (   0.0265668  -0.0657734   0.0000000), wk =   0.0277778
        k(   29) = (   0.0265668  -0.0516818   0.0000000), wk =   0.0277778
        k(   30) = (   0.0265668  -0.0375902   0.0000000), wk =   0.0277778
        k(   31) = (   0.0265668  -0.0234987   0.0000000), wk =   0.0277778
        k(   32) = (   0.0398502  -0.0141107   0.0000000), wk =   0.0277778
        k(   33) = (   0.0398502  -0.0000191   0.0000000), wk =   0.0277778
        k(   34) = (   0.0398502   0.0140724   0.0000000), wk =   0.0277778
        k(   35) = (   0.0398502   0.0281640   0.0000000), wk =   0.0277778
        k(   36) = (   0.0398502   0.0422555   0.0000000), wk =   0.0277778
        k(   37) = (   0.0398502   0.0563471   0.0000000), wk =   0.0277778
        k(   38) = (   0.0398502  -0.0986600   0.0000000), wk =   0.0277778
        k(   39) = (   0.0398502  -0.0845685   0.0000000), wk =   0.0277778
        k(   40) = (   0.0398502  -0.0704769   0.0000000), wk =   0.0277778
        k(   41) = (   0.0398502  -0.0563854   0.0000000), wk =   0.0277778
        k(   42) = (   0.0398502  -0.0422938   0.0000000), wk =   0.0277778
        k(   43) = (   0.0398502  -0.0282023   0.0000000), wk =   0.0277778
        k(   44) = (   0.0531336  -0.0188143   0.0000000), wk =   0.0277778
        k(   45) = (   0.0531336  -0.0047227   0.0000000), wk =   0.0277778
        k(   46) = (   0.0531336   0.0093688   0.0000000), wk =   0.0277778
        k(   47) = (   0.0531336   0.0234604   0.0000000), wk =   0.0277778
        k(   48) = (   0.0531336   0.0375520   0.0000000), wk =   0.0277778
        k(   49) = (   0.0531336   0.0516435   0.0000000), wk =   0.0277778
        k(   50) = (   0.0531336  -0.1033636   0.0000000), wk =   0.0277778
        k(   51) = (   0.0531336  -0.0892721   0.0000000), wk =   0.0277778
        k(   52) = (   0.0531336  -0.0751805   0.0000000), wk =   0.0277778
        k(   53) = (   0.0531336  -0.0610889   0.0000000), wk =   0.0277778
        k(   54) = (   0.0531336  -0.0469974   0.0000000), wk =   0.0277778
        k(   55) = (   0.0531336  -0.0329058   0.0000000), wk =   0.0277778
        k(   56) = (   0.0664169  -0.0235178   0.0000000), wk =   0.0277778
        k(   57) = (   0.0664169  -0.0094263   0.0000000), wk =   0.0277778
        k(   58) = (   0.0664169   0.0046653   0.0000000), wk =   0.0277778
        k(   59) = (   0.0664169   0.0187568   0.0000000), wk =   0.0277778
        k(   60) = (   0.0664169   0.0328484   0.0000000), wk =   0.0277778
        k(   61) = (   0.0664169   0.0469399   0.0000000), wk =   0.0277778
        k(   62) = (   0.0664169  -0.1080672   0.0000000), wk =   0.0277778
        k(   63) = (   0.0664169  -0.0939756   0.0000000), wk =   0.0277778
        k(   64) = (   0.0664169  -0.0798841   0.0000000), wk =   0.0277778
        k(   65) = (   0.0664169  -0.0657925   0.0000000), wk =   0.0277778
        k(   66) = (   0.0664169  -0.0517009   0.0000000), wk =   0.0277778
        k(   67) = (   0.0664169  -0.0376094   0.0000000), wk =   0.0277778
        k(   68) = (  -0.0797003   0.0282214   0.0000000), wk =   0.0138889
        k(   69) = (  -0.0797003   0.0423130   0.0000000), wk =   0.0277778
        k(   70) = (  -0.0797003   0.0564045   0.0000000), wk =   0.0277778
        k(   71) = (  -0.0797003   0.0704961   0.0000000), wk =   0.0277778
        k(   72) = (  -0.0797003   0.0845876   0.0000000), wk =   0.0277778
        k(   73) = (  -0.0797003   0.0986792   0.0000000), wk =   0.0277778
        k(   74) = (  -0.0797003  -0.0563279   0.0000000), wk =   0.0138889

     Check: negative core charge=   -0.000001

     Initial potential from superposition of free atoms

     starting charge  167.81833, renormalised to  168.00000

     negative rho (up, down):  1.325E-03 0.000E+00

     %%%%%%%%%%%%%%%%%%%%%%%%%%%%%%%%%%%%%%%%%%%%%%%%%%%%%%%%%%%%%%%%%%%%%%%%
     %                                                                      %
     % You are using vdW-DF, which was implemented by the Thonhauser group. %
     % Please cite the following two papers that made this development      %
     % possible and the two reviews that describe the various versions:     %
     %                                                                      %
     %   T. Thonhauser et al., PRL 115, 136402 (2015).                      %
     %   T. Thonhauser et al., PRB 76, 125112 (2007).                       %
     %   K. Berland et al., Rep. Prog. Phys. 78, 066501 (2015).             %
     %   D.C. Langreth et al., J. Phys.: Condens. Matter 21, 084203 (2009). %
     %                                                                      %
     %                                                                      %
     % If you are calculating the stress with vdW-DF, please also cite:     %
     %                                                                      %
     %   R. Sabatini et al., J. Phys.: Condens. Matter 24, 424209 (2012).   %
     %                                                                      %
     %%%%%%%%%%%%%%%%%%%%%%%%%%%%%%%%%%%%%%%%%%%%%%%%%%%%%%%%%%%%%%%%%%%%%%%%

     Adding external electric field

     Computed dipole along edir(3) :
        Dipole                0.0212 Ry au,          0.0540 Debye
        Dipole field          0.0000 Ry au,

        Potential amp.       -0.0039 Ry
        Total length         46.2890 bohr

     Starting wfcs are  180 randomized atomic wfcs

     Self-consistent Calculation

     iteration #  1     ecut=    55.12 Ry     beta= 0.10
     Davidson diagonalization with overlap
     ethr =  1.00E-02,  avg # of iterations =  2.1

[...]

     total energy              =   -2129.41810368 Ry
     estimated scf accuracy    <       9.33800928 Ry

[...]

     iteration #  7     ecut=    55.12 Ry     beta= 0.10
     Davidson diagonalization with overlap
     c_bands:  1 eigenvalues not converged
     c_bands:  1 eigenvalues not converged
     ethr =  2.32E-04,  avg # of iterations = 11.4

[...]

     iteration # 19     ecut=    55.12 Ry     beta= 0.10
     Davidson diagonalization with overlap
     c_bands:  1 eigenvalues not converged
     ethr =  4.34E-08,  avg # of iterations =  5.6

[...]

     total energy              =   -2129.36389743 Ry
     estimated scf accuracy    <       0.00001736 Ry

     iteration # 20     ecut=    55.12 Ry     beta= 0.10
     Davidson diagonalization with overlap
     ethr =  1.03E-08,  avg # of iterations =  4.6

[...]

     Adding external electric field

     Computed dipole along edir(3) :
        Dipole                0.1725 Ry au,          0.4385 Debye
        Dipole field          0.0003 Ry au,

        Potential amp.       -0.0319 Ry
        Total length         46.2890 bohr

     End of self-consistent calculation

          k = 0.0000 0.0000 0.0000 ( 43363 PWs)   bands (ev):

   -75.6820 -75.6815 -75.4415 -75.4410 -75.3099 -75.3095 -43.6012 -43.5999
   -43.5959 -43.5823 -43.5283 -43.5270 -43.4059 -43.4049 -43.3521 -43.3380
   -43.3202 -43.3191 -43.2805 -43.2787 -43.2122 -43.1989 -43.0968 -43.0955
   -30.9361 -30.8414 -30.8402 -30.7445 -29.9111 -29.8193 -15.0625 -14.9919
   -14.7691 -14.6849 -14.6617 -14.5983 -14.5444 -14.5433 -14.4839 -14.3971
   -14.1825 -14.1265 -14.0538 -13.6905 -13.6429 -13.5165 -13.5152 -13.1908
    -1.5346  -1.0671  -1.0579  -1.0241  -0.8614  -0.7186  -0.6307  -0.4463
    -0.3494  -0.3432  -0.3227  -0.2838   0.0451   0.0579   0.0596   0.1728
     0.2553   0.2558   0.2884   0.3081   0.4793   0.4819   0.7783   0.8268
     0.8598   0.9597   1.0648   1.2868   1.3035   1.4083   1.4663   1.5717
     1.8148   2.1861   2.2535   2.4674   2.9672   3.0192   3.2000   3.2555
     3.3754   3.4531   3.6033   3.7344   3.7403   3.7549   3.7765   3.8536
     3.8728   3.8960   3.9020   3.9079   3.9396

[...]

          k = 0.0664-0.0376 0.0000 ( 43487 PWs)   bands (ev):

[...]

          k =-0.0797 0.0282 0.0000 ( 43444 PWs)   bands (ev):

[...]

          k =-0.0797-0.0563 0.0000 ( 43590 PWs)   bands (ev):

   -75.6820 -75.6815 -75.4415 -75.4410 -75.3100 -75.3095 -43.6014 -43.5997
   -43.5960 -43.5822 -43.5286 -43.5270 -43.4065 -43.4046 -43.3522 -43.3380
   -43.3207 -43.3189 -43.2804 -43.2788 -43.2123 -43.1989 -43.0967 -43.0956
   -30.9300 -30.8416 -30.8333 -30.7450 -29.9105 -29.8139 -15.0987 -15.0293
   -14.8424 -14.7286 -14.6615 -14.6480 -14.5617 -14.5321 -14.5194 -14.4040
   -14.2070 -14.1358 -14.0637 -13.6709 -13.6150 -13.5714 -13.5634 -13.2103
    -0.4303  -0.2998  -0.1826  -0.1588  -0.1564  -0.0566   0.0934   0.1179
     0.3189   0.3194   0.3581   0.3584   0.4222   0.4301   0.5075   0.5944
     0.7045   0.7057   0.7285   0.8019   0.8255   0.8858   0.8874   0.9159
     0.9215   1.0057   1.0435   1.0589   1.0707   1.1328   1.2840   1.3008
     1.4611   1.5701   1.7601   1.8019   1.8580   1.9068   2.1158   2.1757
     2.6905   2.7534   2.7712   3.0194   3.0242   3.1226   3.2925   3.5322
     3.7137   3.7882   3.8148   3.8167   3.8911

     the Fermi energy is     2.1871 ev

!    total energy              =   -2129.36389525 Ry
     estimated scf accuracy    <       0.00000274 Ry
     smearing contrib. (-TS)   =      -0.04087824 Ry
     internal energy E=F+TS    =   -2129.32301701 Ry

     The total energy is F=E-TS. E is the sum of the following terms:
     one-electron contribution =  -11407.95811453 Ry
     hartree contribution      =    5718.79154039 Ry
     xc contribution           =    -632.82933536 Ry
     ewald contribution        =    4192.67283302 Ry
     electric field correction =       0.00005946 Ry

     convergence has been achieved in  20 iterations

     negative rho (up, down):  1.061E-03 0.000E+00

     Forces acting on atoms (cartesian axes, Ry/au):

     atom    1 type  1   force =    -0.00013640   -0.00009720   -0.01167412
     atom    2 type  1   force =    -0.00013712   -0.00009650   -0.01167422
     atom    3 type  2   force =     0.00001367    0.00001026    0.02276770
     atom    4 type  2   force =     0.00001368    0.00000973    0.02276804
     atom    5 type  1   force =     0.00012455    0.00008773   -0.01444437
     atom    6 type  1   force =     0.00011813    0.00008386   -0.01443818
     atom    7 type  2   force =     0.00001980    0.00001230    0.00385011
     atom    8 type  2   force =     0.00001926    0.00001453    0.00384855
     atom    9 type  1   force =     0.00003120    0.00002432   -0.00042096
     atom   10 type  1   force =     0.00003904    0.00002461   -0.00043820
     atom   11 type  2   force =    -0.00005171   -0.00003570   -0.00007227
     atom   12 type  2   force =    -0.00005411   -0.00003792   -0.00007207

     Total force =     0.041911     Total SCF correction =     0.005559
     SCF correction compared to forces is large: reduce conv_thr to get better values

     Writing output data file ./La2Rh2/La2Rh2_beef.save/

     General routines

     Parallel routines

   This run was terminated on:   3:43:40  26Jun2022

   JOB DONE.