     Program PWSCF v.6.6 starts on 25Jun2022 at 16:36:45

     R & G space division:  proc/nbgrp/npool/nimage =      37
     Fft bands division:     nmany     =       1
     Reading input from La2Re2.in
Warning: card &CELL ignored
Warning: card / ignored

     Current dimensions of program PWSCF are:
     Max number of different atomic species (ntypx) = 10
     Max number of k-points (npk) =  40000
     Max angular momentum in pseudopotentials (lmaxx) =  3
     Presently stress not available with electric field and gates

     Message from routine cell_base_init:
     DEPRECATED: use true lattice parameter, not A to a.u. conversion factor
     file La.pbe-spfn-rrkjus_psl.1.0.0.UPF: wavefunction(s)  4F renormalized

     IMPORTANT: XC functional enforced from input :
     Exchange-correlation= BEEF-VDW
                           (   1   4  43  14   2   0   0)
     Any further DFT definition will be discarded
     Please, verify this is what you really want

     Subspace diagonalization in iterative solution of the eigenvalue problem:
     a serial algorithm will be used

     bravais-lattice index     =            0
     lattice parameter (alat)  =       1.8897  a.u.
     unit-cell volume          =    6231.6239 (a.u.)^3
     number of atoms/cell      =           12
     number of atomic types    =            2
     number of electrons       =       156.00
     number of Kohn-Sham states=           94
     kinetic-energy cutoff     =      55.1240  Ry
     charge density cutoff     =     551.2396  Ry
     convergence threshold     =      1.0E-05
     mixing beta               =       0.1000
     number of iterations used =           10  plain     mixing
     Exchange-correlation= BEEF-VDW
                           (   1   4  43  14   2   0   0)

     celldm(1)=   1.889726  celldm(2)=   0.000000  celldm(3)=   0.000000
     celldm(4)=   0.000000  celldm(5)=   0.000000  celldm(6)=   0.000000

     crystal axes: (cart. coord. in units of alat)
               a(1) = (   6.247943   0.000000   0.000000 )
               a(2) = (   2.091811   5.887369   0.000000 )
               a(3) = (   0.000000   0.000000  25.104201 )

     reciprocal axes: (cart. coord. in units 2 pi/alat)
               b(1) = (  0.160053 -0.056867  0.000000 )
               b(2) = (  0.000000  0.169855  0.000000 )
               b(3) = (  0.000000  0.000000  0.039834 )

     PseudoPot. # 1 for La read from file:
     ../pseudo/La.pbe-spfn-rrkjus_psl.1.0.0.UPF
     MD5 check sum: e3bc141c2ecb461b8d0a035ce9ac970e
     Pseudo is Ultrasoft + core correction, Zval = 11.0
     Generated using "atomic" code by A. Dal Corso v.6.2.2
     Using radial grid of 1253 points,  8 beta functions with:
                l(1) =   0
                l(2) =   0
                l(3) =   1
                l(4) =   1
                l(5) =   2
                l(6) =   2
                l(7) =   3
                l(8) =   3
     Q(r) pseudized with 0 coefficients

     PseudoPot. # 2 for Re read from file:
     ../pseudo/Re.pbe-spn-rrkjus_psl.1.0.0.UPF
     MD5 check sum: 1282f1ec51ad523723a04c61ae80a9e6
     Pseudo is Ultrasoft + core correction, Zval = 15.0
     Generated using "atomic" code by A. Dal Corso v.6.2.2
     Using radial grid of 1275 points,  6 beta functions with:
                l(1) =   0
                l(2) =   0
                l(3) =   1
                l(4) =   1
                l(5) =   2
                l(6) =   2
     Q(r) pseudized with 0 coefficients

     atomic species   valence    mass     pseudopotential
        La            11.00   138.90547     La( 1.00)
        Re            15.00   186.20700     Re( 1.00)

     No symmetry found

   Cartesian axes

     site n.     atom                  positions (alat units)
         1           La  tau(   1) = (   0.0000000   0.0000000  10.0000000  )
         2           La  tau(   2) = (   4.1698769   2.9436844  10.0000000  )
         3           Re  tau(   3) = (   3.1239713   0.0000000  10.0000000  )
         4           Re  tau(   4) = (   1.0459056   2.9436844  10.0000000  )
         5           La  tau(   5) = (   6.2479426   4.4106749  12.5521005  )
         6           La  tau(   6) = (   2.0780657   1.4669905  12.5521005  )
         7           Re  tau(   7) = (   3.1239713   4.4106749  12.5521005  )
         8           Re  tau(   8) = (   5.2020370   1.4669905  12.5521005  )
         9           La  tau(   9) = (   4.1600286   2.9367388  15.1809653  )
        10           La  tau(  10) = (   8.3296303   5.8802189  15.1807365  )
        11           Re  tau(  11) = (   7.2684278   2.9255602  14.6079433  )
        12           Re  tau(  12) = (   5.1908100   5.8699265  14.6080709  )

     number of k points=    74  Fermi-Dirac smearing, width (Ry)=  0.0100
                       cart. coord. in units 2pi/alat
        k(    1) = (   0.0000000   0.0000000   0.0000000), wk =   0.0138889
        k(    2) = (   0.0000000   0.0141546   0.0000000), wk =   0.0277778
        k(    3) = (   0.0000000   0.0283092   0.0000000), wk =   0.0277778
        k(    4) = (   0.0000000   0.0424638   0.0000000), wk =   0.0277778
        k(    5) = (   0.0000000   0.0566184   0.0000000), wk =   0.0277778
        k(    6) = (   0.0000000   0.0707730   0.0000000), wk =   0.0277778
        k(    7) = (   0.0000000  -0.0849276   0.0000000), wk =   0.0138889
        k(    8) = (   0.0133377  -0.0047390   0.0000000), wk =   0.0277778
        k(    9) = (   0.0133377   0.0094156   0.0000000), wk =   0.0277778
        k(   10) = (   0.0133377   0.0235702   0.0000000), wk =   0.0277778
        k(   11) = (   0.0133377   0.0377248   0.0000000), wk =   0.0277778
        k(   12) = (   0.0133377   0.0518794   0.0000000), wk =   0.0277778
        k(   13) = (   0.0133377   0.0660340   0.0000000), wk =   0.0277778
        k(   14) = (   0.0133377  -0.0896665   0.0000000), wk =   0.0277778
        k(   15) = (   0.0133377  -0.0755119   0.0000000), wk =   0.0277778
        k(   16) = (   0.0133377  -0.0613573   0.0000000), wk =   0.0277778
        k(   17) = (   0.0133377  -0.0472027   0.0000000), wk =   0.0277778
        k(   18) = (   0.0133377  -0.0330482   0.0000000), wk =   0.0277778
        k(   19) = (   0.0133377  -0.0188936   0.0000000), wk =   0.0277778
        k(   20) = (   0.0266754  -0.0094779   0.0000000), wk =   0.0277778
        k(   21) = (   0.0266754   0.0046767   0.0000000), wk =   0.0277778
        k(   22) = (   0.0266754   0.0188313   0.0000000), wk =   0.0277778
        k(   23) = (   0.0266754   0.0329859   0.0000000), wk =   0.0277778
        k(   24) = (   0.0266754   0.0471405   0.0000000), wk =   0.0277778
        k(   25) = (   0.0266754   0.0612951   0.0000000), wk =   0.0277778
        k(   26) = (   0.0266754  -0.0944055   0.0000000), wk =   0.0277778
        k(   27) = (   0.0266754  -0.0802509   0.0000000), wk =   0.0277778
        k(   28) = (   0.0266754  -0.0660963   0.0000000), wk =   0.0277778
        k(   29) = (   0.0266754  -0.0519417   0.0000000), wk =   0.0277778
        k(   30) = (   0.0266754  -0.0377871   0.0000000), wk =   0.0277778
        k(   31) = (   0.0266754  -0.0236325   0.0000000), wk =   0.0277778
        k(   32) = (   0.0400132  -0.0142169   0.0000000), wk =   0.0277778
        k(   33) = (   0.0400132  -0.0000623   0.0000000), wk =   0.0277778
        k(   34) = (   0.0400132   0.0140923   0.0000000), wk =   0.0277778
        k(   35) = (   0.0400132   0.0282469   0.0000000), wk =   0.0277778
        k(   36) = (   0.0400132   0.0424015   0.0000000), wk =   0.0277778
        k(   37) = (   0.0400132   0.0565561   0.0000000), wk =   0.0277778
        k(   38) = (   0.0400132  -0.0991445   0.0000000), wk =   0.0277778
        k(   39) = (   0.0400132  -0.0849899   0.0000000), wk =   0.0277778
        k(   40) = (   0.0400132  -0.0708353   0.0000000), wk =   0.0277778
        k(   41) = (   0.0400132  -0.0566807   0.0000000), wk =   0.0277778
        k(   42) = (   0.0400132  -0.0425261   0.0000000), wk =   0.0277778
        k(   43) = (   0.0400132  -0.0283715   0.0000000), wk =   0.0277778
        k(   44) = (   0.0533509  -0.0189558   0.0000000), wk =   0.0277778
        k(   45) = (   0.0533509  -0.0048012   0.0000000), wk =   0.0277778
        k(   46) = (   0.0533509   0.0093534   0.0000000), wk =   0.0277778
        k(   47) = (   0.0533509   0.0235080   0.0000000), wk =   0.0277778
        k(   48) = (   0.0533509   0.0376626   0.0000000), wk =   0.0277778
        k(   49) = (   0.0533509   0.0518172   0.0000000), wk =   0.0277778
        k(   50) = (   0.0533509  -0.1038834   0.0000000), wk =   0.0277778
        k(   51) = (   0.0533509  -0.0897288   0.0000000), wk =   0.0277778
        k(   52) = (   0.0533509  -0.0755742   0.0000000), wk =   0.0277778
        k(   53) = (   0.0533509  -0.0614196   0.0000000), wk =   0.0277778
        k(   54) = (   0.0533509  -0.0472650   0.0000000), wk =   0.0277778
        k(   55) = (   0.0533509  -0.0331104   0.0000000), wk =   0.0277778
        k(   56) = (   0.0666886  -0.0236948   0.0000000), wk =   0.0277778
        k(   57) = (   0.0666886  -0.0095402   0.0000000), wk =   0.0277778
        k(   58) = (   0.0666886   0.0046144   0.0000000), wk =   0.0277778
        k(   59) = (   0.0666886   0.0187690   0.0000000), wk =   0.0277778
        k(   60) = (   0.0666886   0.0329236   0.0000000), wk =   0.0277778
        k(   61) = (   0.0666886   0.0470782   0.0000000), wk =   0.0277778
        k(   62) = (   0.0666886  -0.1086224   0.0000000), wk =   0.0277778
        k(   63) = (   0.0666886  -0.0944678   0.0000000), wk =   0.0277778
        k(   64) = (   0.0666886  -0.0803132   0.0000000), wk =   0.0277778
        k(   65) = (   0.0666886  -0.0661586   0.0000000), wk =   0.0277778
        k(   66) = (   0.0666886  -0.0520040   0.0000000), wk =   0.0277778
        k(   67) = (   0.0666886  -0.0378494   0.0000000), wk =   0.0277778
        k(   68) = (  -0.0800263   0.0284337   0.0000000), wk =   0.0138889
        k(   69) = (  -0.0800263   0.0425883   0.0000000), wk =   0.0277778
        k(   70) = (  -0.0800263   0.0567429   0.0000000), wk =   0.0277778
        k(   71) = (  -0.0800263   0.0708975   0.0000000), wk =   0.0277778
        k(   72) = (  -0.0800263   0.0850521   0.0000000), wk =   0.0277778
        k(   73) = (  -0.0800263   0.0992067   0.0000000), wk =   0.0277778
        k(   74) = (  -0.0800263  -0.0564938   0.0000000), wk =   0.0138889

     Initial potential from superposition of free atoms

     starting charge  155.81947, renormalised to  156.00000

     negative rho (up, down):  5.309E-04 0.000E+00

     %%%%%%%%%%%%%%%%%%%%%%%%%%%%%%%%%%%%%%%%%%%%%%%%%%%%%%%%%%%%%%%%%%%%%%%%
     %                                                                      %
     % You are using vdW-DF, which was implemented by the Thonhauser group. %
     % Please cite the following two papers that made this development      %
     % possible and the two reviews that describe the various versions:     %
     %                                                                      %
     %   T. Thonhauser et al., PRL 115, 136402 (2015).                      %
     %   T. Thonhauser et al., PRB 76, 125112 (2007).                       %
     %   K. Berland et al., Rep. Prog. Phys. 78, 066501 (2015).             %
     %   D.C. Langreth et al., J. Phys.: Condens. Matter 21, 084203 (2009). %
     %                                                                      %
     %                                                                      %
     % If you are calculating the stress with vdW-DF, please also cite:     %
     %                                                                      %
     %   R. Sabatini et al., J. Phys.: Condens. Matter 24, 424209 (2012).   %
     %                                                                      %
     %%%%%%%%%%%%%%%%%%%%%%%%%%%%%%%%%%%%%%%%%%%%%%%%%%%%%%%%%%%%%%%%%%%%%%%%

     Adding external electric field

     Computed dipole along edir(3) :
        Dipole                0.0370 Ry au,          0.0940 Debye
        Dipole field          0.0001 Ry au,

        Potential amp.       -0.0069 Ry
        Total length         46.2541 bohr

     Starting wfcs are  180 randomized atomic wfcs

     Self-consistent Calculation

     iteration #  1     ecut=    55.12 Ry     beta= 0.10
     Davidson diagonalization with overlap
     ethr =  1.00E-02,  avg # of iterations =  2.0

[...]

     total energy              =   -1838.23911975 Ry
     estimated scf accuracy    <      10.72539046 Ry

[...]

     iteration #  5     ecut=    55.12 Ry     beta= 0.10
     Davidson diagonalization with overlap
     c_bands:  1 eigenvalues not converged
     ethr =  3.61E-04,  avg # of iterations = 14.1

[...]

     iteration # 19     ecut=    55.12 Ry     beta= 0.10
     Davidson diagonalization with overlap
     c_bands:  2 eigenvalues not converged
     ethr =  1.81E-08,  avg # of iterations =  1.5

[...]

     total energy              =   -1839.17636960 Ry
     estimated scf accuracy    <       0.00002730 Ry

     iteration # 21     ecut=    55.12 Ry     beta= 0.10
     Davidson diagonalization with overlap
     ethr =  1.33E-08,  avg # of iterations =  2.0

[...]

     Adding external electric field

     Computed dipole along edir(3) :
        Dipole                0.2572 Ry au,          0.6537 Debye
        Dipole field          0.0005 Ry au,

        Potential amp.       -0.0480 Ry
        Total length         46.2541 bohr

     End of self-consistent calculation

          k = 0.0000 0.0000 0.0000 ( 42975 PWs)   bands (ev):

   -77.3245 -77.3237 -77.2035 -77.2029 -77.1964 -77.1957 -39.1415 -39.1382
   -39.0625 -39.0619 -39.0392 -39.0155 -39.0131 -39.0100 -38.9988 -38.9854
   -38.9795 -38.9746 -38.9682 -38.9620 -38.9518 -38.9517 -38.8746 -38.8713
   -30.1171 -30.0134 -29.7406 -29.6340 -28.8035 -28.7019 -14.3727 -14.0350
   -13.9892 -13.8630 -13.8325 -13.7611 -13.6703 -13.5349 -13.5228 -13.4620
   -13.3720 -13.3584 -13.0115 -12.8766 -12.6847 -12.6387 -12.4843 -12.2728
    -2.1755  -1.4297  -1.3460  -1.2488  -0.9201  -0.6142  -0.3697  -0.3346
     0.0260   0.1321   0.2080   0.3849   0.7451   0.7810   0.7870   1.0540
     1.0870   1.0971   1.1719   1.2779   1.2890   1.4789   1.6648   1.8921
     2.0441   2.2105   2.2892   2.3086   2.4760   2.5757   2.7452   2.9815
     3.1159   3.2671   3.4840   3.4931   3.5997   3.7208   3.9085   3.9149
     4.0396   4.2518   4.4777   4.6025   4.6316   4.6515

[...]

          k = 0.0667-0.0378 0.0000 ( 43092 PWs)   bands (ev):

[...]

          k =-0.0800 0.0284 0.0000 ( 43070 PWs)   bands (ev):

[...]

          k =-0.0800-0.0565 0.0000 ( 43142 PWs)   bands (ev):

   -77.3245 -77.3238 -77.2035 -77.2029 -77.1964 -77.1957 -39.1440 -39.1377
   -39.0673 -39.0576 -39.0422 -39.0139 -39.0132 -39.0097 -38.9972 -38.9859
   -38.9808 -38.9723 -38.9709 -38.9595 -38.9534 -38.9518 -38.8762 -38.8710
   -30.1075 -30.0112 -29.7265 -29.6314 -28.7967 -28.6936 -14.4274 -14.1128
   -14.0360 -14.0182 -13.8562 -13.7649 -13.6933 -13.6775 -13.5254 -13.4679
   -13.4281 -13.3730 -13.0319 -12.7786 -12.7306 -12.7004 -12.5701 -12.3047
    -0.4677  -0.3189  -0.2792  -0.0244   0.2708   0.2975   0.3628   0.3708
     0.5896   0.7589   0.8027   1.0380   1.0725   1.1643   1.2265   1.3629
     1.3937   1.4696   1.4830   1.5168   1.6349   1.7559   1.8831   1.8839
     2.0239   2.0351   2.1779   2.1996   2.2016   2.2224   2.2329   2.2764
     2.3929   2.3990   2.4415   2.5615   2.6060   2.8939   3.0678   3.4140
     3.4455   3.6929   3.7978   3.8778   4.1419   4.1684

     the Fermi energy is     2.3598 ev

!    total energy              =   -1839.17636097 Ry
     estimated scf accuracy    <       0.00000893 Ry
     smearing contrib. (-TS)   =      -0.09989436 Ry
     internal energy E=F+TS    =   -1839.07646661 Ry

     The total energy is F=E-TS. E is the sum of the following terms:
     one-electron contribution =   -9766.14841046 Ry
     hartree contribution      =    4887.92106212 Ry
     xc contribution           =    -694.00450000 Ry
     ewald contribution        =    3733.15524833 Ry
     electric field correction =       0.00013339 Ry

     convergence has been achieved in  21 iterations

     negative rho (up, down):  1.353E-04 0.000E+00

     Forces acting on atoms (cartesian axes, Ry/au):

     atom    1 type  1   force =    -0.00054018   -0.00045947   -0.02809557
     atom    2 type  1   force =    -0.00062014   -0.00035861   -0.02809474
     atom    3 type  2   force =     0.00076344    0.00054253    0.05126539
     atom    4 type  2   force =     0.00081522    0.00057048    0.05124684
     atom    5 type  1   force =     0.00021514    0.00020728   -0.04395951
     atom    6 type  1   force =     0.00027658    0.00014054   -0.04396059
     atom    7 type  2   force =     0.00028928    0.00020792    0.02621364
     atom    8 type  2   force =     0.00027440    0.00018925    0.02627316
     atom    9 type  1   force =    -0.00033770   -0.00017671   -0.00197074
     atom   10 type  1   force =    -0.00024927   -0.00023669   -0.00194616
     atom   11 type  2   force =    -0.00038803   -0.00029363   -0.00348635
     atom   12 type  2   force =    -0.00049874   -0.00033290   -0.00348538

     Total force =     0.110053     Total SCF correction =     0.007746

     Writing output data file ./La2Re2/La2Re2_beef.save/

     General routines

     Parallel routines

   This run was terminated on:  21:54:10  25Jun2022

   JOB DONE.