     Program PWSCF v.6.6 starts on 26Jun2022 at  3:43:47

     R & G space division:  proc/nbgrp/npool/nimage =      37
     Fft bands division:     nmany     =       1
     Reading input from La2Ru2.in
Warning: card &CELL ignored
Warning: card / ignored

     Current dimensions of program PWSCF are:
     Max number of different atomic species (ntypx) = 10
     Max number of k-points (npk) =  40000
     Max angular momentum in pseudopotentials (lmaxx) =  3
     Presently stress not available with electric field and gates

     Message from routine cell_base_init:
     DEPRECATED: use true lattice parameter, not A to a.u. conversion factor
     file La.pbe-spfn-rrkjus_psl.1.0.0.UPF: wavefunction(s)  4F renormalized

     IMPORTANT: XC functional enforced from input :
     Exchange-correlation= BEEF-VDW
                           (   1   4  43  14   2   0   0)
     Any further DFT definition will be discarded
     Please, verify this is what you really want

     Subspace diagonalization in iterative solution of the eigenvalue problem:
     a serial algorithm will be used

     Found symmetry operation: I + (  0.5000 -0.5000  0.0000)
     This is a supercell, fractional translations are disabled

     bravais-lattice index     =            0
     lattice parameter (alat)  =       1.8897  a.u.
     unit-cell volume          =    6155.3560 (a.u.)^3
     number of atoms/cell      =           12
     number of atomic types    =            2
     number of electrons       =       162.00
     number of Kohn-Sham states=           97
     kinetic-energy cutoff     =      55.1240  Ry
     charge density cutoff     =     551.2396  Ry
     convergence threshold     =      1.0E-05
     mixing beta               =       0.1000
     number of iterations used =           10  plain     mixing
     Exchange-correlation= BEEF-VDW
                           (   1   4  43  14   2   0   0)

     celldm(1)=   1.889726  celldm(2)=   0.000000  celldm(3)=   0.000000
     celldm(4)=   0.000000  celldm(5)=   0.000000  celldm(6)=   0.000000

     crystal axes: (cart. coord. in units of alat)
               a(1) = (   6.210709   0.000000   0.000000 )
               a(2) = (   2.061652   5.858540   0.000000 )
               a(3) = (   0.000000   0.000000  25.068369 )

     reciprocal axes: (cart. coord. in units 2 pi/alat)
               b(1) = (  0.161012 -0.056661  0.000000 )
               b(2) = (  0.000000  0.170691  0.000000 )
               b(3) = (  0.000000  0.000000  0.039891 )

     PseudoPot. # 1 for La read from file:
     ../pseudo/La.pbe-spfn-rrkjus_psl.1.0.0.UPF
     MD5 check sum: e3bc141c2ecb461b8d0a035ce9ac970e
     Pseudo is Ultrasoft + core correction, Zval = 11.0
     Generated using "atomic" code by A. Dal Corso v.6.2.2
     Using radial grid of 1253 points,  8 beta functions with:
                l(1) =   0
                l(2) =   0
                l(3) =   1
                l(4) =   1
                l(5) =   2
                l(6) =   2
                l(7) =   3
                l(8) =   3
     Q(r) pseudized with 0 coefficients

     PseudoPot. # 2 for Ru read from file:
     ../pseudo/Ru.pbe-spn-rrkjus_psl.1.0.0.UPF
     MD5 check sum: fbaca725316a1a65f98761fd4ac95971
     Pseudo is Ultrasoft + core correction, Zval = 16.0
     Generated using "atomic" code by A. Dal Corso v.6.2.2
     Using radial grid of 1233 points,  6 beta functions with:
                l(1) =   0
                l(2) =   0
                l(3) =   1
                l(4) =   1
                l(5) =   2
                l(6) =   2
     Q(r) pseudized with 0 coefficients

     atomic species   valence    mass     pseudopotential
        La            11.00   138.90547     La( 1.00)
        Ru            16.00   101.07000     Ru( 1.00)

     No symmetry found

   Cartesian axes

     site n.     atom                  positions (alat units)
         1           La  tau(   1) = (   0.0000000   0.0000000  10.0000000  )
         2           La  tau(   2) = (   4.1361803   2.9292701  10.0000000  )
         3           Ru  tau(   3) = (   3.1053544   0.0000000  10.0000000  )
         4           Ru  tau(   4) = (   1.0308260   2.9292701  10.0000000  )
         5           La  tau(   5) = (   6.2107087   4.3984648  12.5341844  )
         6           La  tau(   6) = (   2.0745284   1.4691947  12.5341844  )
         7           Ru  tau(   7) = (   3.1053544   4.3984648  12.5341844  )
         8           Ru  tau(   8) = (   5.1798828   1.4691947  12.5341844  )
         9           La  tau(   9) = (   4.1387612   2.9311105  15.1046256  )
        10           La  tau(  10) = (   0.0026035   0.0018302  15.1046269  )
        11           Ru  tau(  11) = (   1.0518443   2.9441479  14.6774673  )
        12           Ru  tau(  12) = (   3.1264277   0.0149241  14.6775731  )

     number of k points=    74  Fermi-Dirac smearing, width (Ry)=  0.0100
                       cart. coord. in units 2pi/alat
        k(    1) = (   0.0000000   0.0000000   0.0000000), wk =   0.0138889
        k(    2) = (   0.0000000   0.0142242   0.0000000), wk =   0.0277778
        k(    3) = (   0.0000000   0.0284485   0.0000000), wk =   0.0277778
        k(    4) = (   0.0000000   0.0426727   0.0000000), wk =   0.0277778
        k(    5) = (   0.0000000   0.0568970   0.0000000), wk =   0.0277778
        k(    6) = (   0.0000000   0.0711212   0.0000000), wk =   0.0277778
        k(    7) = (   0.0000000  -0.0853455   0.0000000), wk =   0.0138889
        k(    8) = (   0.0134177  -0.0047218   0.0000000), wk =   0.0277778
        k(    9) = (   0.0134177   0.0095025   0.0000000), wk =   0.0277778
        k(   10) = (   0.0134177   0.0237267   0.0000000), wk =   0.0277778
        k(   11) = (   0.0134177   0.0379510   0.0000000), wk =   0.0277778
        k(   12) = (   0.0134177   0.0521752   0.0000000), wk =   0.0277778
        k(   13) = (   0.0134177   0.0663995   0.0000000), wk =   0.0277778
        k(   14) = (   0.0134177  -0.0900673   0.0000000), wk =   0.0277778
        k(   15) = (   0.0134177  -0.0758430   0.0000000), wk =   0.0277778
        k(   16) = (   0.0134177  -0.0616188   0.0000000), wk =   0.0277778
        k(   17) = (   0.0134177  -0.0473945   0.0000000), wk =   0.0277778
        k(   18) = (   0.0134177  -0.0331703   0.0000000), wk =   0.0277778
        k(   19) = (   0.0134177  -0.0189460   0.0000000), wk =   0.0277778
        k(   20) = (   0.0268354  -0.0094435   0.0000000), wk =   0.0277778
        k(   21) = (   0.0268354   0.0047807   0.0000000), wk =   0.0277778
        k(   22) = (   0.0268354   0.0190050   0.0000000), wk =   0.0277778
        k(   23) = (   0.0268354   0.0332292   0.0000000), wk =   0.0277778
        k(   24) = (   0.0268354   0.0474535   0.0000000), wk =   0.0277778
        k(   25) = (   0.0268354   0.0616777   0.0000000), wk =   0.0277778
        k(   26) = (   0.0268354  -0.0947890   0.0000000), wk =   0.0277778
        k(   27) = (   0.0268354  -0.0805648   0.0000000), wk =   0.0277778
        k(   28) = (   0.0268354  -0.0663405   0.0000000), wk =   0.0277778
        k(   29) = (   0.0268354  -0.0521163   0.0000000), wk =   0.0277778
        k(   30) = (   0.0268354  -0.0378920   0.0000000), wk =   0.0277778
        k(   31) = (   0.0268354  -0.0236678   0.0000000), wk =   0.0277778
        k(   32) = (   0.0402531  -0.0141653   0.0000000), wk =   0.0277778
        k(   33) = (   0.0402531   0.0000590   0.0000000), wk =   0.0277778
        k(   34) = (   0.0402531   0.0142832   0.0000000), wk =   0.0277778
        k(   35) = (   0.0402531   0.0285075   0.0000000), wk =   0.0277778
        k(   36) = (   0.0402531   0.0427317   0.0000000), wk =   0.0277778
        k(   37) = (   0.0402531   0.0569560   0.0000000), wk =   0.0277778
        k(   38) = (   0.0402531  -0.0995108   0.0000000), wk =   0.0277778
        k(   39) = (   0.0402531  -0.0852865   0.0000000), wk =   0.0277778
        k(   40) = (   0.0402531  -0.0710623   0.0000000), wk =   0.0277778
        k(   41) = (   0.0402531  -0.0568380   0.0000000), wk =   0.0277778
        k(   42) = (   0.0402531  -0.0426138   0.0000000), wk =   0.0277778
        k(   43) = (   0.0402531  -0.0283895   0.0000000), wk =   0.0277778
        k(   44) = (   0.0536707  -0.0188870   0.0000000), wk =   0.0277778
        k(   45) = (   0.0536707  -0.0046628   0.0000000), wk =   0.0277778
        k(   46) = (   0.0536707   0.0095615   0.0000000), wk =   0.0277778
        k(   47) = (   0.0536707   0.0237857   0.0000000), wk =   0.0277778
        k(   48) = (   0.0536707   0.0380100   0.0000000), wk =   0.0277778
        k(   49) = (   0.0536707   0.0522342   0.0000000), wk =   0.0277778
        k(   50) = (   0.0536707  -0.1042325   0.0000000), wk =   0.0277778
        k(   51) = (   0.0536707  -0.0900083   0.0000000), wk =   0.0277778
        k(   52) = (   0.0536707  -0.0757840   0.0000000), wk =   0.0277778
        k(   53) = (   0.0536707  -0.0615598   0.0000000), wk =   0.0277778
        k(   54) = (   0.0536707  -0.0473355   0.0000000), wk =   0.0277778
        k(   55) = (   0.0536707  -0.0331113   0.0000000), wk =   0.0277778
        k(   56) = (   0.0670884  -0.0236088   0.0000000), wk =   0.0277778
        k(   57) = (   0.0670884  -0.0093845   0.0000000), wk =   0.0277778
        k(   58) = (   0.0670884   0.0048397   0.0000000), wk =   0.0277778
        k(   59) = (   0.0670884   0.0190640   0.0000000), wk =   0.0277778
        k(   60) = (   0.0670884   0.0332882   0.0000000), wk =   0.0277778
        k(   61) = (   0.0670884   0.0475125   0.0000000), wk =   0.0277778
        k(   62) = (   0.0670884  -0.1089543   0.0000000), wk =   0.0277778
        k(   63) = (   0.0670884  -0.0947300   0.0000000), wk =   0.0277778
        k(   64) = (   0.0670884  -0.0805058   0.0000000), wk =   0.0277778
        k(   65) = (   0.0670884  -0.0662815   0.0000000), wk =   0.0277778
        k(   66) = (   0.0670884  -0.0520573   0.0000000), wk =   0.0277778
        k(   67) = (   0.0670884  -0.0378330   0.0000000), wk =   0.0277778
        k(   68) = (  -0.0805061   0.0283305   0.0000000), wk =   0.0138889
        k(   69) = (  -0.0805061   0.0425548   0.0000000), wk =   0.0277778
        k(   70) = (  -0.0805061   0.0567790   0.0000000), wk =   0.0277778
        k(   71) = (  -0.0805061   0.0710033   0.0000000), wk =   0.0277778
        k(   72) = (  -0.0805061   0.0852275   0.0000000), wk =   0.0277778
        k(   73) = (  -0.0805061   0.0994518   0.0000000), wk =   0.0277778
        k(   74) = (  -0.0805061  -0.0570150   0.0000000), wk =   0.0138889

     Check: negative core charge=   -0.000001

     Initial potential from superposition of free atoms

     starting charge  161.81744, renormalised to  162.00000

     negative rho (up, down):  1.574E-03 0.000E+00

     %%%%%%%%%%%%%%%%%%%%%%%%%%%%%%%%%%%%%%%%%%%%%%%%%%%%%%%%%%%%%%%%%%%%%%%%
     %                                                                      %
     % You are using vdW-DF, which was implemented by the Thonhauser group. %
     % Please cite the following two papers that made this development      %
     % possible and the two reviews that describe the various versions:     %
     %                                                                      %
     %   T. Thonhauser et al., PRL 115, 136402 (2015).                      %
     %   T. Thonhauser et al., PRB 76, 125112 (2007).                       %
     %   K. Berland et al., Rep. Prog. Phys. 78, 066501 (2015).             %
     %   D.C. Langreth et al., J. Phys.: Condens. Matter 21, 084203 (2009). %
     %                                                                      %
     %                                                                      %
     % If you are calculating the stress with vdW-DF, please also cite:     %
     %                                                                      %
     %   R. Sabatini et al., J. Phys.: Condens. Matter 24, 424209 (2012).   %
     %                                                                      %
     %%%%%%%%%%%%%%%%%%%%%%%%%%%%%%%%%%%%%%%%%%%%%%%%%%%%%%%%%%%%%%%%%%%%%%%%

     Adding external electric field

     Computed dipole along edir(3) :
        Dipole                0.0281 Ry au,          0.0714 Debye
        Dipole field          0.0001 Ry au,

        Potential amp.       -0.0053 Ry
        Total length         46.1880 bohr

     Starting wfcs are  180 randomized atomic wfcs

     Self-consistent Calculation

     iteration #  1     ecut=    55.12 Ry     beta= 0.10
     Davidson diagonalization with overlap
     ethr =  1.00E-02,  avg # of iterations =  2.1

[...]

     total energy              =   -1952.26984769 Ry
     estimated scf accuracy    <       9.99220570 Ry

[...]

     iteration #  6     ecut=    55.12 Ry     beta= 0.10
     Davidson diagonalization with overlap
     c_bands:  1 eigenvalues not converged
     c_bands:  1 eigenvalues not converged
     c_bands:  1 eigenvalues not converged
     c_bands:  1 eigenvalues not converged
     c_bands:  1 eigenvalues not converged
     ethr =  1.70E-04,  avg # of iterations = 13.6

[...]

     iteration # 16     ecut=    55.12 Ry     beta= 0.10
     Davidson diagonalization with overlap
     c_bands:  1 eigenvalues not converged
     ethr =  8.39E-08,  avg # of iterations =  5.7

[...]

     total energy              =   -1952.42821317 Ry
     estimated scf accuracy    <       0.00001850 Ry

     iteration # 18     ecut=    55.12 Ry     beta= 0.10
     Davidson diagonalization with overlap
     ethr =  1.14E-08,  avg # of iterations =  5.1

[...]

     Adding external electric field

     Computed dipole along edir(3) :
        Dipole                0.1725 Ry au,          0.4385 Debye
        Dipole field          0.0004 Ry au,

        Potential amp.       -0.0325 Ry
        Total length         46.1880 bohr

     End of self-consistent calculation

          k = 0.0000 0.0000 0.0000 ( 42473 PWs)   bands (ev):

   -69.5359 -69.5349 -69.3925 -69.3914 -69.2902 -69.2892 -39.5574 -39.5567
   -39.5494 -39.5380 -39.5333 -39.5241 -39.4652 -39.4640 -39.4569 -39.4284
   -39.3609 -39.3545 -39.3457 -39.3434 -39.3227 -39.2982 -39.2596 -39.2571
   -30.4818 -30.3757 -30.2854 -30.1778 -29.3049 -29.2038 -14.6959 -14.5266
   -14.3396 -14.2374 -14.1919 -14.1608 -14.1316 -14.0346 -14.0017 -13.9199
   -13.7167 -13.6745 -13.5020 -13.1998 -13.0869 -13.0195 -12.9393 -12.6329
    -1.2426  -0.8620  -0.8257  -0.7582  -0.6182  -0.4231  -0.3299  -0.0733
    -0.0047   0.0357   0.0639   0.1711   0.5200   0.5307   0.5508   0.7756
     0.7760   0.7781   0.8090   0.8093   0.9758   1.0439   1.4172   1.4870
     1.5206   1.5760   1.6369   1.9427   1.9530   2.2344   2.3145   2.3172
     2.3879   2.8201   3.0813   3.2813   3.3650   3.4016   3.6244   3.6690
     3.7228   3.9071   4.1852   4.2117   4.2551   4.2808   4.3620   4.3828
     4.4081

[...]

          k = 0.0671-0.0378 0.0000 ( 42554 PWs)   bands (ev):

[...]

          k =-0.0805 0.0283 0.0000 ( 42576 PWs)   bands (ev):

[...]

          k =-0.0805-0.0570 0.0000 ( 42546 PWs)   bands (ev):

   -69.5359 -69.5349 -69.3925 -69.3914 -69.2902 -69.2892 -39.5603 -39.5543
   -39.5501 -39.5372 -39.5351 -39.5240 -39.4673 -39.4627 -39.4571 -39.4284
   -39.3593 -39.3557 -39.3471 -39.3430 -39.3232 -39.2981 -39.2595 -39.2572
   -30.4727 -30.3746 -30.2741 -30.1767 -29.3017 -29.1960 -14.7398 -14.5791
   -14.4110 -14.3477 -14.2205 -14.1537 -14.1176 -14.1121 -14.0186 -13.9279
   -13.7534 -13.6871 -13.5168 -13.1207 -13.1137 -13.0748 -13.0080 -12.6591
    -0.0890   0.0421   0.1940   0.2571   0.2575   0.3455   0.4175   0.6705
     0.7130   0.7455   0.7696   0.8702   0.8789   0.9344   1.0549   1.0672
     1.1743   1.3000   1.3382   1.3786   1.4116   1.4633   1.5315   1.5718
     1.5945   1.5956   1.6319   1.6914   1.7192   1.7753   1.8248   1.9455
     1.9624   2.1311   2.1617   2.2075   2.2965   2.3822   2.5737   2.9705
     3.1346   3.2103   3.2856   3.6657   3.6791   3.7422   3.7933   4.0119
     4.0589

     the Fermi energy is     2.2653 ev

!    total energy              =   -1952.42821063 Ry
     estimated scf accuracy    <       0.00000375 Ry
     smearing contrib. (-TS)   =      -0.07361340 Ry
     internal energy E=F+TS    =   -1952.35459723 Ry

     The total energy is F=E-TS. E is the sum of the following terms:
     one-electron contribution =  -10799.40351731 Ry
     hartree contribution      =    5414.54655306 Ry
     xc contribution           =    -628.80799555 Ry
     ewald contribution        =    4061.31030181 Ry
     electric field correction =       0.00006077 Ry

     convergence has been achieved in  18 iterations

     negative rho (up, down):  1.083E-03 0.000E+00

     Forces acting on atoms (cartesian axes, Ry/au):

     atom    1 type  1   force =     0.00057802    0.00041481   -0.01778304
     atom    2 type  1   force =     0.00058469    0.00040712   -0.01778180
     atom    3 type  2   force =    -0.00046210   -0.00032701    0.03588060
     atom    4 type  2   force =    -0.00046670   -0.00033039    0.03588467
     atom    5 type  1   force =    -0.00040199   -0.00026359   -0.02302871
     atom    6 type  1   force =    -0.00037266   -0.00028315   -0.02302344
     atom    7 type  2   force =    -0.00010372   -0.00008662    0.00551318
     atom    8 type  2   force =    -0.00013061   -0.00008082    0.00550950
     atom    9 type  1   force =    -0.00004871   -0.00004687    0.00051050
     atom   10 type  1   force =    -0.00005560   -0.00002856    0.00051910
     atom   11 type  2   force =     0.00043937    0.00030884   -0.00109978
     atom   12 type  2   force =     0.00044001    0.00031624   -0.00110078

     Total force =     0.065836     Total SCF correction =     0.004088

     Writing output data file ./La2Ru2/La2Ru2_beef.save/

     General routines

     Parallel routines

   This run was terminated on:   7:42: 3  26Jun2022

   JOB DONE.