     Program PWSCF v.6.6 starts on 26Jun2022 at 14:11:54

     R & G space division:  proc/nbgrp/npool/nimage =      37
     Fft bands division:     nmany     =       1
     Reading input from La2Tc2.in
Warning: card &CELL ignored
Warning: card / ignored

     Current dimensions of program PWSCF are:
     Max number of different atomic species (ntypx) = 10
     Max number of k-points (npk) =  40000
     Max angular momentum in pseudopotentials (lmaxx) =  3
     Presently stress not available with electric field and gates

     Message from routine cell_base_init:
     DEPRECATED: use true lattice parameter, not A to a.u. conversion factor
     file La.pbe-spfn-rrkjus_psl.1.0.0.UPF: wavefunction(s)  4F renormalized
     file Tc.pbe-spn-rrkjus_psl.0.3.0.UPF: wavefunction(s)  4S 4P renormalized

     IMPORTANT: XC functional enforced from input :
     Exchange-correlation= BEEF-VDW
                           (   1   4  43  14   2   0   0)
     Any further DFT definition will be discarded
     Please, verify this is what you really want

     Subspace diagonalization in iterative solution of the eigenvalue problem:
     a serial algorithm will be used

     bravais-lattice index     =            0
     lattice parameter (alat)  =       1.8897  a.u.
     unit-cell volume          =    6148.4663 (a.u.)^3
     number of atoms/cell      =           12
     number of atomic types    =            2
     number of electrons       =       156.00
     number of Kohn-Sham states=           94
     kinetic-energy cutoff     =      55.1240  Ry
     charge density cutoff     =     551.2396  Ry
     convergence threshold     =      1.0E-05
     mixing beta               =       0.1000
     number of iterations used =           10  plain     mixing
     Exchange-correlation= BEEF-VDW
                           (   1   4  43  14   2   0   0)

     celldm(1)=   1.889726  celldm(2)=   0.000000  celldm(3)=   0.000000
     celldm(4)=   0.000000  celldm(5)=   0.000000  celldm(6)=   0.000000

     crystal axes: (cart. coord. in units of alat)
               a(1) = (   6.208390   0.000000   0.000000 )
               a(2) = (   2.067103   5.854160   0.000000 )
               a(3) = (   0.000000   0.000000  25.068405 )

     reciprocal axes: (cart. coord. in units 2 pi/alat)
               b(1) = (  0.161072 -0.056875  0.000000 )
               b(2) = (  0.000000  0.170819  0.000000 )
               b(3) = (  0.000000  0.000000  0.039891 )

     PseudoPot. # 1 for La read from file:
     ../pseudo/La.pbe-spfn-rrkjus_psl.1.0.0.UPF
     MD5 check sum: e3bc141c2ecb461b8d0a035ce9ac970e
     Pseudo is Ultrasoft + core correction, Zval = 11.0
     Generated using "atomic" code by A. Dal Corso v.6.2.2
     Using radial grid of 1253 points,  8 beta functions with:
                l(1) =   0
                l(2) =   0
                l(3) =   1
                l(4) =   1
                l(5) =   2
                l(6) =   2
                l(7) =   3
                l(8) =   3
     Q(r) pseudized with 0 coefficients

     PseudoPot. # 2 for Tc read from file:
     ../pseudo/Tc.pbe-spn-rrkjus_psl.0.3.0.UPF
     MD5 check sum: 5f147c0bf103030af994b79b1f5562e4
     Pseudo is Ultrasoft + core correction, Zval = 15.0
     Generated using "atomic" code by A. Dal Corso v.6.2.2
     Using radial grid of 1231 points,  6 beta functions with:
                l(1) =   0
                l(2) =   0
                l(3) =   1
                l(4) =   1
                l(5) =   2
                l(6) =   2
     Q(r) pseudized with 0 coefficients

     atomic species   valence    mass     pseudopotential
        La            11.00   138.90547     La( 1.00)
        Tc            15.00    97.90721     Tc( 1.00)

     No symmetry found

   Cartesian axes

     site n.     atom                  positions (alat units)
         1           La  tau(   1) = (   0.0000000   0.0000000  10.0000000  )
         2           La  tau(   2) = (   4.1377465   2.9270800  10.0000000  )
         3           Tc  tau(   3) = (   3.1041949   0.0000000  10.0000000  )
         4           Tc  tau(   4) = (   1.0335516   2.9270800  10.0000000  )
         5           La  tau(   5) = (   6.2083898   4.3918721  12.5342023  )
         6           La  tau(   6) = (   2.0706433   1.4647921  12.5342023  )
         7           Tc  tau(   7) = (   3.1041949   4.3918721  12.5342023  )
         8           Tc  tau(   8) = (   5.1748382   1.4647921  12.5342023  )
         9           La  tau(   9) = (   4.1393002   2.9281929  15.1012074  )
        10           La  tau(  10) = (   0.0015674   0.0010952  15.1012229  )
        11           Tc  tau(  11) = (   1.0380748   2.9302664  14.5332517  )
        12           Tc  tau(  12) = (   3.1087832   0.0032528  14.5332608  )

     number of k points=    74  Fermi-Dirac smearing, width (Ry)=  0.0100
                       cart. coord. in units 2pi/alat
        k(    1) = (   0.0000000   0.0000000   0.0000000), wk =   0.0138889
        k(    2) = (   0.0000000   0.0142349   0.0000000), wk =   0.0277778
        k(    3) = (   0.0000000   0.0284698   0.0000000), wk =   0.0277778
        k(    4) = (   0.0000000   0.0427047   0.0000000), wk =   0.0277778
        k(    5) = (   0.0000000   0.0569396   0.0000000), wk =   0.0277778
        k(    6) = (   0.0000000   0.0711745   0.0000000), wk =   0.0277778
        k(    7) = (   0.0000000  -0.0854093   0.0000000), wk =   0.0138889
        k(    8) = (   0.0134227  -0.0047396   0.0000000), wk =   0.0277778
        k(    9) = (   0.0134227   0.0094953   0.0000000), wk =   0.0277778
        k(   10) = (   0.0134227   0.0237302   0.0000000), wk =   0.0277778
        k(   11) = (   0.0134227   0.0379651   0.0000000), wk =   0.0277778
        k(   12) = (   0.0134227   0.0522000   0.0000000), wk =   0.0277778
        k(   13) = (   0.0134227   0.0664349   0.0000000), wk =   0.0277778
        k(   14) = (   0.0134227  -0.0901489   0.0000000), wk =   0.0277778
        k(   15) = (   0.0134227  -0.0759140   0.0000000), wk =   0.0277778
        k(   16) = (   0.0134227  -0.0616791   0.0000000), wk =   0.0277778
        k(   17) = (   0.0134227  -0.0474442   0.0000000), wk =   0.0277778
        k(   18) = (   0.0134227  -0.0332093   0.0000000), wk =   0.0277778
        k(   19) = (   0.0134227  -0.0189744   0.0000000), wk =   0.0277778
        k(   20) = (   0.0268454  -0.0094791   0.0000000), wk =   0.0277778
        k(   21) = (   0.0268454   0.0047558   0.0000000), wk =   0.0277778
        k(   22) = (   0.0268454   0.0189907   0.0000000), wk =   0.0277778
        k(   23) = (   0.0268454   0.0332256   0.0000000), wk =   0.0277778
        k(   24) = (   0.0268454   0.0474605   0.0000000), wk =   0.0277778
        k(   25) = (   0.0268454   0.0616954   0.0000000), wk =   0.0277778
        k(   26) = (   0.0268454  -0.0948885   0.0000000), wk =   0.0277778
        k(   27) = (   0.0268454  -0.0806536   0.0000000), wk =   0.0277778
        k(   28) = (   0.0268454  -0.0664187   0.0000000), wk =   0.0277778
        k(   29) = (   0.0268454  -0.0521838   0.0000000), wk =   0.0277778
        k(   30) = (   0.0268454  -0.0379489   0.0000000), wk =   0.0277778
        k(   31) = (   0.0268454  -0.0237140   0.0000000), wk =   0.0277778
        k(   32) = (   0.0402681  -0.0142187   0.0000000), wk =   0.0277778
        k(   33) = (   0.0402681   0.0000162   0.0000000), wk =   0.0277778
        k(   34) = (   0.0402681   0.0142511   0.0000000), wk =   0.0277778
        k(   35) = (   0.0402681   0.0284860   0.0000000), wk =   0.0277778
        k(   36) = (   0.0402681   0.0427209   0.0000000), wk =   0.0277778
        k(   37) = (   0.0402681   0.0569558   0.0000000), wk =   0.0277778
        k(   38) = (   0.0402681  -0.0996280   0.0000000), wk =   0.0277778
        k(   39) = (   0.0402681  -0.0853931   0.0000000), wk =   0.0277778
        k(   40) = (   0.0402681  -0.0711582   0.0000000), wk =   0.0277778
        k(   41) = (   0.0402681  -0.0569233   0.0000000), wk =   0.0277778
        k(   42) = (   0.0402681  -0.0426884   0.0000000), wk =   0.0277778
        k(   43) = (   0.0402681  -0.0284535   0.0000000), wk =   0.0277778
        k(   44) = (   0.0536908  -0.0189582   0.0000000), wk =   0.0277778
        k(   45) = (   0.0536908  -0.0047233   0.0000000), wk =   0.0277778
        k(   46) = (   0.0536908   0.0095116   0.0000000), wk =   0.0277778
        k(   47) = (   0.0536908   0.0237465   0.0000000), wk =   0.0277778
        k(   48) = (   0.0536908   0.0379814   0.0000000), wk =   0.0277778
        k(   49) = (   0.0536908   0.0522163   0.0000000), wk =   0.0277778
        k(   50) = (   0.0536908  -0.1043676   0.0000000), wk =   0.0277778
        k(   51) = (   0.0536908  -0.0901327   0.0000000), wk =   0.0277778
        k(   52) = (   0.0536908  -0.0758978   0.0000000), wk =   0.0277778
        k(   53) = (   0.0536908  -0.0616629   0.0000000), wk =   0.0277778
        k(   54) = (   0.0536908  -0.0474280   0.0000000), wk =   0.0277778
        k(   55) = (   0.0536908  -0.0331931   0.0000000), wk =   0.0277778
        k(   56) = (   0.0671135  -0.0236978   0.0000000), wk =   0.0277778
        k(   57) = (   0.0671135  -0.0094629   0.0000000), wk =   0.0277778
        k(   58) = (   0.0671135   0.0047720   0.0000000), wk =   0.0277778
        k(   59) = (   0.0671135   0.0190069   0.0000000), wk =   0.0277778
        k(   60) = (   0.0671135   0.0332418   0.0000000), wk =   0.0277778
        k(   61) = (   0.0671135   0.0474767   0.0000000), wk =   0.0277778
        k(   62) = (   0.0671135  -0.1091071   0.0000000), wk =   0.0277778
        k(   63) = (   0.0671135  -0.0948722   0.0000000), wk =   0.0277778
        k(   64) = (   0.0671135  -0.0806373   0.0000000), wk =   0.0277778
        k(   65) = (   0.0671135  -0.0664024   0.0000000), wk =   0.0277778
        k(   66) = (   0.0671135  -0.0521675   0.0000000), wk =   0.0277778
        k(   67) = (   0.0671135  -0.0379327   0.0000000), wk =   0.0277778
        k(   68) = (  -0.0805362   0.0284373   0.0000000), wk =   0.0138889
        k(   69) = (  -0.0805362   0.0426722   0.0000000), wk =   0.0277778
        k(   70) = (  -0.0805362   0.0569071   0.0000000), wk =   0.0277778
        k(   71) = (  -0.0805362   0.0711420   0.0000000), wk =   0.0277778
        k(   72) = (  -0.0805362   0.0853769   0.0000000), wk =   0.0277778
        k(   73) = (  -0.0805362   0.0996118   0.0000000), wk =   0.0277778
        k(   74) = (  -0.0805362  -0.0569720   0.0000000), wk =   0.0138889

     Check: negative core charge=   -0.000001

     Initial potential from superposition of free atoms

     starting charge  155.81748, renormalised to  156.00000

     negative rho (up, down):  6.197E-03 0.000E+00

     %%%%%%%%%%%%%%%%%%%%%%%%%%%%%%%%%%%%%%%%%%%%%%%%%%%%%%%%%%%%%%%%%%%%%%%%
     %                                                                      %
     % You are using vdW-DF, which was implemented by the Thonhauser group. %
     % Please cite the following two papers that made this development      %
     % possible and the two reviews that describe the various versions:     %
     %                                                                      %
     %   T. Thonhauser et al., PRL 115, 136402 (2015).                      %
     %   T. Thonhauser et al., PRB 76, 125112 (2007).                       %
     %   K. Berland et al., Rep. Prog. Phys. 78, 066501 (2015).             %
     %   D.C. Langreth et al., J. Phys.: Condens. Matter 21, 084203 (2009). %
     %                                                                      %
     %                                                                      %
     % If you are calculating the stress with vdW-DF, please also cite:     %
     %                                                                      %
     %   R. Sabatini et al., J. Phys.: Condens. Matter 24, 424209 (2012).   %
     %                                                                      %
     %%%%%%%%%%%%%%%%%%%%%%%%%%%%%%%%%%%%%%%%%%%%%%%%%%%%%%%%%%%%%%%%%%%%%%%%

     Adding external electric field

     Computed dipole along edir(3) :
        Dipole                0.0364 Ry au,          0.0924 Debye
        Dipole field          0.0001 Ry au,

        Potential amp.       -0.0069 Ry
        Total length         46.1881 bohr

     Starting wfcs are  198 randomized atomic wfcs

     Self-consistent Calculation

     iteration #  1     ecut=    55.12 Ry     beta= 0.10
     Davidson diagonalization with overlap
     ethr =  1.00E-02,  avg # of iterations =  2.0

[...]

     total energy              =   -1850.78842675 Ry
     estimated scf accuracy    <      12.15922678 Ry

[...]

     iteration #  8     ecut=    55.12 Ry     beta= 0.10
     Davidson diagonalization with overlap
     c_bands:  1 eigenvalues not converged
     c_bands:  1 eigenvalues not converged
     ethr =  1.17E-04,  avg # of iterations = 11.7

[...]

     iteration # 20     ecut=    55.12 Ry     beta= 0.10
     Davidson diagonalization with overlap
     ethr =  4.56E-08,  avg # of iterations =  4.8

[...]

     total energy              =   -1851.49521259 Ry
     estimated scf accuracy    <       0.00002172 Ry

     iteration # 21     ecut=    55.12 Ry     beta= 0.10
     Davidson diagonalization with overlap
     c_bands:  1 eigenvalues not converged
     ethr =  1.39E-08,  avg # of iterations =  5.3

[...]

     Adding external electric field

     Computed dipole along edir(3) :
        Dipole                0.1825 Ry au,          0.4638 Debye
        Dipole field          0.0004 Ry au,

        Potential amp.       -0.0345 Ry
        Total length         46.1881 bohr

     End of self-consistent calculation

          k = 0.0000 0.0000 0.0000 ( 42429 PWs)   bands (ev):

   -63.8374 -63.8353 -63.7619 -63.7600 -63.7007 -63.6989 -35.8613 -35.8509
   -35.8240 -35.8162 -35.8105 -35.7656 -35.7591 -35.7539 -35.7529 -35.7479
   -35.7239 -35.7103 -35.7065 -35.6904 -35.6861 -35.6659 -35.6342 -35.6300
   -30.2964 -30.1887 -29.9808 -29.8711 -29.0106 -28.9135 -14.5544 -14.2643
   -14.1575 -14.0456 -14.0226 -13.9536 -13.8915 -13.7617 -13.7403 -13.6740
   -13.5335 -13.5130 -13.2188 -13.0201 -12.8511 -12.8331 -12.6783 -12.4560
    -1.1337  -0.8373  -0.8152  -0.6146  -0.4673  -0.2930  -0.1903   0.0870
     0.1606   0.1826   0.2819   0.4325   0.7252   0.7456   0.8047   1.0277
     1.0654   1.1205   1.1760   1.2463   1.2724   1.4034   1.6769   1.8116
     1.9500   2.0768   2.0840   2.2770   2.4053   2.6100   2.7686   2.7715
     3.0109   3.1460   3.4447   3.6031   3.6131   3.7241   3.8230   3.8883
     3.9361   4.1319   4.3745   4.4945   4.5308   4.5389

[...]

          k = 0.0671-0.0379 0.0000 ( 42500 PWs)   bands (ev):

[...]

          k =-0.0805 0.0284 0.0000 ( 42512 PWs)   bands (ev):

[...]

          k =-0.0805-0.0570 0.0000 ( 42446 PWs)   bands (ev):

   -63.8371 -63.8355 -63.7621 -63.7597 -63.7007 -63.6989 -35.8648 -35.8556
   -35.8338 -35.8208 -35.8025 -35.7612 -35.7582 -35.7578 -35.7529 -35.7364
   -35.7300 -35.7111 -35.7081 -35.6905 -35.6860 -35.6658 -35.6385 -35.6292
   -30.2836 -30.1850 -29.9627 -29.8664 -29.0022 -28.9033 -14.6000 -14.3289
   -14.2152 -14.1866 -14.0329 -13.9553 -13.8912 -13.8785 -13.7491 -13.6810
   -13.5811 -13.5266 -13.2376 -12.9284 -12.8992 -12.8746 -12.7611 -12.4860
    -0.1332   0.2747   0.3101   0.4224   0.4576   0.4634   0.5834   0.8108
     0.8410   0.9968   1.0371   1.0427   1.0611   1.2129   1.2613   1.3571
     1.3600   1.3941   1.6211   1.6297   1.7227   1.7642   1.8650   1.9354
     2.0092   2.0160   2.0517   2.0940   2.1156   2.2031   2.2225   2.2947
     2.3654   2.3789   2.3892   2.4166   2.6401   2.9135   2.9756   3.2843
     3.5881   3.6439   3.7694   3.9843   4.0512   4.1382

     the Fermi energy is     2.3311 ev

!    total energy              =   -1851.49521921 Ry
     estimated scf accuracy    <       0.00000419 Ry
     smearing contrib. (-TS)   =      -0.09227303 Ry
     internal energy E=F+TS    =   -1851.40294618 Ry

     The total energy is F=E-TS. E is the sum of the following terms:
     one-electron contribution =  -10018.49242161 Ry
     hartree contribution      =    5024.73181338 Ry
     xc contribution           =    -685.82934059 Ry
     ewald contribution        =    3828.18693458 Ry
     electric field correction =       0.00006806 Ry

     convergence has been achieved in  21 iterations

     negative rho (up, down):  5.535E-03 0.000E+00

     Forces acting on atoms (cartesian axes, Ry/au):

     atom    1 type  1   force =     0.00014942    0.00007680   -0.02554038
     atom    2 type  1   force =     0.00012285    0.00011642   -0.02554009
     atom    3 type  2   force =    -0.00009338   -0.00006582    0.04574796
     atom    4 type  2   force =    -0.00008058   -0.00005686    0.04574956
     atom    5 type  1   force =    -0.00009175   -0.00006492   -0.02942685
     atom    6 type  1   force =    -0.00009192   -0.00006404   -0.02942848
     atom    7 type  2   force =     0.00004678    0.00003217    0.01234648
     atom    8 type  2   force =     0.00004839    0.00003345    0.01235381
     atom    9 type  1   force =     0.00006381    0.00006652   -0.00138962
     atom   10 type  1   force =     0.00008203    0.00003661   -0.00139239
     atom   11 type  2   force =    -0.00006878   -0.00004635   -0.00174267
     atom   12 type  2   force =    -0.00008688   -0.00006398   -0.00173733

     Total force =     0.086819     Total SCF correction =     0.007059

     Writing output data file ./La2Tc2/La2Tc2_beef.save/

     General routines

     Parallel routines

   This run was terminated on:  16:29:23  26Jun2022

   JOB DONE.