     Program PWSCF v.6.6 starts on 26Jun2022 at  7:42:17

     R & G space division:  proc/nbgrp/npool/nimage =      37
     Fft bands division:     nmany     =       1
     Reading input from La2Ta2.in
Warning: card &CELL ignored
Warning: card / ignored

     Current dimensions of program PWSCF are:
     Max number of different atomic species (ntypx) = 10
     Max number of k-points (npk) =  40000
     Max angular momentum in pseudopotentials (lmaxx) =  3
     Presently stress not available with electric field and gates

     Message from routine cell_base_init:
     DEPRECATED: use true lattice parameter, not A to a.u. conversion factor
     file La.pbe-spfn-rrkjus_psl.1.0.0.UPF: wavefunction(s)  4F renormalized
     file Ta.pbe-spfn-rrkjus_psl.1.0.0.UPF: wavefunction(s)  5S 5P renormalized

     IMPORTANT: XC functional enforced from input :
     Exchange-correlation= BEEF-VDW
                           (   1   4  43  14   2   0   0)
     Any further DFT definition will be discarded
     Please, verify this is what you really want

     Subspace diagonalization in iterative solution of the eigenvalue problem:
     a serial algorithm will be used

     Found symmetry operation: I + (  0.5000  0.0000  0.0000)
     This is a supercell, fractional translations are disabled

     bravais-lattice index     =            0
     lattice parameter (alat)  =       1.8897  a.u.
     unit-cell volume          =    6433.5636 (a.u.)^3
     number of atoms/cell      =           12
     number of atomic types    =            2
     number of electrons       =       228.00
     number of Kohn-Sham states=          137
     kinetic-energy cutoff     =      55.1240  Ry
     charge density cutoff     =     551.2396  Ry
     convergence threshold     =      1.0E-05
     mixing beta               =       0.1000
     number of iterations used =           10  plain     mixing
     Exchange-correlation= BEEF-VDW
                           (   1   4  43  14   2   0   0)

     celldm(1)=   1.889726  celldm(2)=   0.000000  celldm(3)=   0.000000
     celldm(4)=   0.000000  celldm(5)=   0.000000  celldm(6)=   0.000000

     crystal axes: (cart. coord. in units of alat)
               a(1) = (   6.205950   0.000000   0.000000 )
               a(2) = (  -3.102975   6.064255   0.000000 )
               a(3) = (   0.000000   0.000000  25.331993 )

     reciprocal axes: (cart. coord. in units 2 pi/alat)
               b(1) = (  0.161136  0.082450 -0.000000 )
               b(2) = (  0.000000  0.164901  0.000000 )
               b(3) = (  0.000000 -0.000000  0.039476 )

     PseudoPot. # 1 for La read from file:
     ../pseudo/La.pbe-spfn-rrkjus_psl.1.0.0.UPF
     MD5 check sum: e3bc141c2ecb461b8d0a035ce9ac970e
     Pseudo is Ultrasoft + core correction, Zval = 11.0
     Generated using "atomic" code by A. Dal Corso v.6.2.2
     Using radial grid of 1253 points,  8 beta functions with:
                l(1) =   0
                l(2) =   0
                l(3) =   1
                l(4) =   1
                l(5) =   2
                l(6) =   2
                l(7) =   3
                l(8) =   3
     Q(r) pseudized with 0 coefficients

     PseudoPot. # 2 for Ta read from file:
     ../pseudo/Ta.pbe-spfn-rrkjus_psl.1.0.0.UPF
     MD5 check sum: 39d7d349fe394e56adf8454eb9315fbb
     Pseudo is Ultrasoft + core correction, Zval = 27.0
     Generated using "atomic" code by A. Dal Corso v.6.3
     Using radial grid of 1273 points,  8 beta functions with:
                l(1) =   0
                l(2) =   0
                l(3) =   1
                l(4) =   1
                l(5) =   2
                l(6) =   2
                l(7) =   3
                l(8) =   3
     Q(r) pseudized with 0 coefficients

     atomic species   valence    mass     pseudopotential
        La            11.00   138.90547     La( 1.00)
        Ta            27.00   180.94788     Ta( 1.00)

     No symmetry found

   Cartesian axes

     site n.     atom                  positions (alat units)
         1           La  tau(   1) = (   0.0000000   0.0000000  10.0000000  )
         2           La  tau(   2) = (   3.1029749   0.0000000  10.0000000  )
         3           Ta  tau(   3) = (   1.5514874   3.0321273  10.0000000  )
         4           Ta  tau(   4) = (  -1.5514874   3.0321273  10.0000000  )
         5           La  tau(   5) = (   3.1029749   1.5877389  12.6659966  )
         6           La  tau(   6) = (  -0.0000000   1.5877389  12.6659966  )
         7           Ta  tau(   7) = (  -1.5514874   4.6198662  12.6659966  )
         8           Ta  tau(   8) = (   1.5514874   4.6198662  12.6659966  )
         9           La  tau(   9) = (  -0.0000915   3.3092682  15.5576015  )
        10           La  tau(  10) = (   3.1028836   3.3092565  15.5576174  )
        11           Ta  tau(  11) = (   1.5514365   6.0316906  15.0029564  )
        12           Ta  tau(  12) = (  -1.5515061   6.0317160  15.0029484  )

     number of k points=    74  Fermi-Dirac smearing, width (Ry)=  0.0100
                       cart. coord. in units 2pi/alat
        k(    1) = (   0.0000000   0.0000000   0.0000000), wk =   0.0138889
        k(    2) = (   0.0000000   0.0137417   0.0000000), wk =   0.0277778
        k(    3) = (   0.0000000   0.0274835   0.0000000), wk =   0.0277778
        k(    4) = (   0.0000000   0.0412252   0.0000000), wk =   0.0277778
        k(    5) = (   0.0000000   0.0549669   0.0000000), wk =   0.0277778
        k(    6) = (   0.0000000   0.0687086   0.0000000), wk =   0.0277778
        k(    7) = (   0.0000000  -0.0824504   0.0000000), wk =   0.0138889
        k(    8) = (   0.0134280   0.0068709   0.0000000), wk =   0.0277778
        k(    9) = (   0.0134280   0.0206126   0.0000000), wk =   0.0277778
        k(   10) = (   0.0134280   0.0343543   0.0000000), wk =   0.0277778
        k(   11) = (   0.0134280   0.0480960   0.0000000), wk =   0.0277778
        k(   12) = (   0.0134280   0.0618378   0.0000000), wk =   0.0277778
        k(   13) = (   0.0134280   0.0755795   0.0000000), wk =   0.0277778
        k(   14) = (   0.0134280  -0.0755795   0.0000000), wk =   0.0277778
        k(   15) = (   0.0134280  -0.0618378   0.0000000), wk =   0.0277778
        k(   16) = (   0.0134280  -0.0480960   0.0000000), wk =   0.0277778
        k(   17) = (   0.0134280  -0.0343543   0.0000000), wk =   0.0277778
        k(   18) = (   0.0134280  -0.0206126   0.0000000), wk =   0.0277778
        k(   19) = (   0.0134280  -0.0068709   0.0000000), wk =   0.0277778
        k(   20) = (   0.0268559   0.0137417   0.0000000), wk =   0.0277778
        k(   21) = (   0.0268559   0.0274835   0.0000000), wk =   0.0277778
        k(   22) = (   0.0268559   0.0412252   0.0000000), wk =   0.0277778
        k(   23) = (   0.0268559   0.0549669   0.0000000), wk =   0.0277778
        k(   24) = (   0.0268559   0.0687086   0.0000000), wk =   0.0277778
        k(   25) = (   0.0268559   0.0824504   0.0000000), wk =   0.0277778
        k(   26) = (   0.0268559  -0.0687086   0.0000000), wk =   0.0277778
        k(   27) = (   0.0268559  -0.0549669   0.0000000), wk =   0.0277778
        k(   28) = (   0.0268559  -0.0412252   0.0000000), wk =   0.0277778
        k(   29) = (   0.0268559  -0.0274835   0.0000000), wk =   0.0277778
        k(   30) = (   0.0268559  -0.0137417   0.0000000), wk =   0.0277778
        k(   31) = (   0.0268559  -0.0000000   0.0000000), wk =   0.0277778
        k(   32) = (   0.0402839   0.0206126   0.0000000), wk =   0.0277778
        k(   33) = (   0.0402839   0.0343543   0.0000000), wk =   0.0277778
        k(   34) = (   0.0402839   0.0480960   0.0000000), wk =   0.0277778
        k(   35) = (   0.0402839   0.0618378   0.0000000), wk =   0.0277778
        k(   36) = (   0.0402839   0.0755795   0.0000000), wk =   0.0277778
        k(   37) = (   0.0402839   0.0893212   0.0000000), wk =   0.0277778
        k(   38) = (   0.0402839  -0.0618378   0.0000000), wk =   0.0277778
        k(   39) = (   0.0402839  -0.0480960   0.0000000), wk =   0.0277778
        k(   40) = (   0.0402839  -0.0343543   0.0000000), wk =   0.0277778
        k(   41) = (   0.0402839  -0.0206126   0.0000000), wk =   0.0277778
        k(   42) = (   0.0402839  -0.0068709   0.0000000), wk =   0.0277778
        k(   43) = (   0.0402839   0.0068709   0.0000000), wk =   0.0277778
        k(   44) = (   0.0537119   0.0274835   0.0000000), wk =   0.0277778
        k(   45) = (   0.0537119   0.0412252   0.0000000), wk =   0.0277778
        k(   46) = (   0.0537119   0.0549669   0.0000000), wk =   0.0277778
        k(   47) = (   0.0537119   0.0687086   0.0000000), wk =   0.0277778
        k(   48) = (   0.0537119   0.0824504   0.0000000), wk =   0.0277778
        k(   49) = (   0.0537119   0.0961921   0.0000000), wk =   0.0277778
        k(   50) = (   0.0537119  -0.0549669   0.0000000), wk =   0.0277778
        k(   51) = (   0.0537119  -0.0412252   0.0000000), wk =   0.0277778
        k(   52) = (   0.0537119  -0.0274835   0.0000000), wk =   0.0277778
        k(   53) = (   0.0537119  -0.0137417   0.0000000), wk =   0.0277778
        k(   54) = (   0.0537119   0.0000000   0.0000000), wk =   0.0277778
        k(   55) = (   0.0537119   0.0137417   0.0000000), wk =   0.0277778
        k(   56) = (   0.0671399   0.0343543   0.0000000), wk =   0.0277778
        k(   57) = (   0.0671399   0.0480960   0.0000000), wk =   0.0277778
        k(   58) = (   0.0671399   0.0618378   0.0000000), wk =   0.0277778
        k(   59) = (   0.0671399   0.0755795   0.0000000), wk =   0.0277778
        k(   60) = (   0.0671399   0.0893212   0.0000000), wk =   0.0277778
        k(   61) = (   0.0671399   0.1030629   0.0000000), wk =   0.0277778
        k(   62) = (   0.0671399  -0.0480960   0.0000000), wk =   0.0277778
        k(   63) = (   0.0671399  -0.0343543   0.0000000), wk =   0.0277778
        k(   64) = (   0.0671399  -0.0206126   0.0000000), wk =   0.0277778
        k(   65) = (   0.0671399  -0.0068709   0.0000000), wk =   0.0277778
        k(   66) = (   0.0671399   0.0068709   0.0000000), wk =   0.0277778
        k(   67) = (   0.0671399   0.0206126   0.0000000), wk =   0.0277778
        k(   68) = (  -0.0805678  -0.0412252   0.0000000), wk =   0.0138889
        k(   69) = (  -0.0805678  -0.0274835   0.0000000), wk =   0.0277778
        k(   70) = (  -0.0805678  -0.0137417   0.0000000), wk =   0.0277778
        k(   71) = (  -0.0805678   0.0000000   0.0000000), wk =   0.0277778
        k(   72) = (  -0.0805678   0.0137417   0.0000000), wk =   0.0277778
        k(   73) = (  -0.0805678   0.0274835   0.0000000), wk =   0.0277778
        k(   74) = (  -0.0805678  -0.1236755   0.0000000), wk =   0.0138889

     Initial potential from superposition of free atoms

     starting charge  227.81620, renormalised to  228.00000

     negative rho (up, down):  4.146E-04 0.000E+00

     %%%%%%%%%%%%%%%%%%%%%%%%%%%%%%%%%%%%%%%%%%%%%%%%%%%%%%%%%%%%%%%%%%%%%%%%
     %                                                                      %
     % You are using vdW-DF, which was implemented by the Thonhauser group. %
     % Please cite the following two papers that made this development      %
     % possible and the two reviews that describe the various versions:     %
     %                                                                      %
     %   T. Thonhauser et al., PRL 115, 136402 (2015).                      %
     %   T. Thonhauser et al., PRB 76, 125112 (2007).                       %
     %   K. Berland et al., Rep. Prog. Phys. 78, 066501 (2015).             %
     %   D.C. Langreth et al., J. Phys.: Condens. Matter 21, 084203 (2009). %
     %                                                                      %
     %                                                                      %
     % If you are calculating the stress with vdW-DF, please also cite:     %
     %                                                                      %
     %   R. Sabatini et al., J. Phys.: Condens. Matter 24, 424209 (2012).   %
     %                                                                      %
     %%%%%%%%%%%%%%%%%%%%%%%%%%%%%%%%%%%%%%%%%%%%%%%%%%%%%%%%%%%%%%%%%%%%%%%%

     Adding external electric field

     Computed dipole along edir(3) :
        Dipole                0.0439 Ry au,          0.1116 Debye
        Dipole field          0.0001 Ry au,

        Potential amp.       -0.0080 Ry
        Total length         46.6738 bohr

     Starting wfcs are  222 randomized atomic wfcs

     Self-consistent Calculation

     iteration #  1     ecut=    55.12 Ry     beta= 0.10
     Davidson diagonalization with overlap
     ethr =  1.00E-02,  avg # of iterations =  2.0

[...]

     total energy              =   -4853.86054113 Ry
     estimated scf accuracy    <      16.30233652 Ry

[...]

     iteration #  9     ecut=    55.12 Ry     beta= 0.10
     Davidson diagonalization with overlap
     c_bands:  1 eigenvalues not converged
     c_bands:  3 eigenvalues not converged
     c_bands:  1 eigenvalues not converged
     c_bands:  1 eigenvalues not converged
     c_bands:  1 eigenvalues not converged
     c_bands:  1 eigenvalues not converged
     c_bands:  1 eigenvalues not converged
     c_bands:  1 eigenvalues not converged
     c_bands:  3 eigenvalues not converged
     c_bands:  2 eigenvalues not converged
     c_bands:  1 eigenvalues not converged
     c_bands:  3 eigenvalues not converged
     c_bands:  1 eigenvalues not converged
     c_bands:  1 eigenvalues not converged
     c_bands:  1 eigenvalues not converged
     ethr =  3.42E-05,  avg # of iterations = 16.4

[...]

     iteration # 17     ecut=    55.12 Ry     beta= 0.10
     Davidson diagonalization with overlap
     c_bands:  1 eigenvalues not converged
     c_bands:  2 eigenvalues not converged
     ethr =  3.32E-08,  avg # of iterations =  8.6

[...]

     total energy              =   -4855.42444459 Ry
     estimated scf accuracy    <       0.00001464 Ry

     iteration # 19     ecut=    55.12 Ry     beta= 0.10
     Davidson diagonalization with overlap
     ethr =  6.42E-09,  avg # of iterations =  6.7

[...]

     Adding external electric field

     Computed dipole along edir(3) :
        Dipole                0.2309 Ry au,          0.5868 Debye
        Dipole field          0.0005 Ry au,

        Potential amp.       -0.0421 Ry
        Total length         46.6738 bohr

     End of self-consistent calculation

          k = 0.0000 0.0000 0.0000 ( 44439 PWs)   bands (ev):

   -65.9774 -65.9614 -65.6666 -65.6501 -65.6074 -65.5912 -32.3270 -32.3107
   -32.2903 -32.2232 -32.1855 -32.1704 -32.1310 -32.1212 -32.0413 -31.9753
   -31.9717 -31.9265 -31.8736 -31.8346 -31.7666 -31.7025 -31.6115 -31.5804
   -30.3054 -30.1900 -29.8587 -29.7373 -29.6736 -29.2216 -17.7036 -17.7009
   -17.6999 -17.6990 -17.6983 -17.6902 -17.6845 -17.6805 -17.6788 -17.6676
   -17.6526 -17.6497 -17.6366 -17.6321 -17.3658 -17.3639 -17.3580 -17.3578
   -17.3528 -17.3515 -17.3497 -17.3496 -17.3470 -17.3452 -17.3433 -17.3419
   -17.3329 -17.3291 -17.3230 -17.3208 -17.3125 -17.3111 -17.3109 -17.3092
   -17.3014 -17.3003 -17.2987 -17.2878 -17.2757 -17.2746 -17.2712 -17.2686
   -15.3991 -15.3217 -14.8620 -14.6739 -14.1871 -14.0678 -13.9487 -13.8045
   -13.6239 -13.5060 -13.3740 -13.3495 -12.9282 -12.8938 -12.5341 -12.4958
   -12.3948 -11.9336  -2.5230  -1.3422  -0.9167  -0.7972  -0.3275   0.1394
     0.1991   0.5986   0.6187   0.7914   0.8339   0.9836   1.0143   1.0915
     1.1718   1.6267   1.8151   1.8892   2.1296   2.2242   2.3784   2.5950
     2.8169   3.0289   3.1027   3.2423   3.2519   3.3363   3.6185   3.8003
     3.8713   3.8980   3.9634   4.0308   4.0514   4.1521   4.1877   4.2807
     4.2811   4.2844   4.3466   4.4563   4.4916   4.5190   4.5604   4.5650
     4.5890

[...]

          k = 0.0671 0.0206 0.0000 ( 44499 PWs)   bands (ev):

[...]

          k =-0.0806-0.0412 0.0000 ( 44522 PWs)   bands (ev):

[...]

          k =-0.0806-0.1237 0.0000 ( 44522 PWs)   bands (ev):

   -65.9694 -65.9694 -65.6583 -65.6583 -65.5993 -65.5993 -32.3091 -32.3091
   -32.2056 -32.2056 -32.1515 -32.1514 -32.1437 -32.1437 -31.9529 -31.9529
   -31.9468 -31.9468 -31.8742 -31.8742 -31.8543 -31.8543 -31.5959 -31.5959
   -30.0866 -30.0866 -29.9687 -29.9687 -29.4548 -29.4548 -17.7020 -17.7020
   -17.6993 -17.6993 -17.6940 -17.6940 -17.6825 -17.6825 -17.6734 -17.6734
   -17.6432 -17.6432 -17.6429 -17.6429 -17.3613 -17.3613 -17.3575 -17.3574
   -17.3552 -17.3552 -17.3474 -17.3474 -17.3434 -17.3433 -17.3404 -17.3404
   -17.3393 -17.3393 -17.3164 -17.3164 -17.3149 -17.3149 -17.3061 -17.3060
   -17.3048 -17.3048 -17.2959 -17.2959 -17.2752 -17.2752 -17.2699 -17.2699
   -14.4519 -14.4518 -14.1015 -14.1015 -14.0143 -14.0143 -13.8518 -13.8518
   -13.7532 -13.7532 -13.6036 -13.6036 -13.5509 -13.5509 -13.1523 -13.1523
   -12.7369 -12.7369  -1.0144  -1.0144   0.0088   0.0088   0.4260   0.4260
     1.1255   1.1255   1.3901   1.3901   1.5635   1.5635   1.7247   1.7247
     1.8592   1.8592   2.0390   2.0390   2.2098   2.2099   2.3115   2.3115
     2.5000   2.5001   2.6292   2.6292   2.9313   2.9313   3.0439   3.0439
     3.2080   3.2080   3.3173   3.3173   3.7370   3.7371   3.9140   3.9140
     4.0947   4.0948   4.2962   4.2962   4.3871   4.3874   4.4177   4.4188
     4.5218

     the Fermi energy is     2.6393 ev

!    total energy              =   -4855.42443814 Ry
     estimated scf accuracy    <       0.00000711 Ry
     smearing contrib. (-TS)   =      -0.08164246 Ry
     internal energy E=F+TS    =   -4855.34279569 Ry

     The total energy is F=E-TS. E is the sum of the following terms:
     one-electron contribution =  -22958.78649178 Ry
     hartree contribution      =   11591.19814501 Ry
     xc contribution           =    -861.88856328 Ry
     ewald contribution        =    7374.13401025 Ry
     electric field correction =       0.00010411 Ry

     convergence has been achieved in  19 iterations

     negative rho (up, down):  2.604E-04 0.000E+00

     Forces acting on atoms (cartesian axes, Ry/au):

     atom    1 type  1   force =     0.00000483   -0.01261492   -0.02376886
     atom    2 type  1   force =     0.00000314   -0.01261153   -0.02376576
     atom    3 type  2   force =    -0.00001596    0.02215111    0.05199894
     atom    4 type  2   force =     0.00001776    0.02214660    0.05200349
     atom    5 type  1   force =     0.00001859    0.00844629   -0.00941712
     atom    6 type  1   force =     0.00001941    0.00844585   -0.00941264
     atom    7 type  2   force =    -0.00003968   -0.01996221   -0.01833454
     atom    8 type  2   force =    -0.00003764   -0.01996361   -0.01834587
     atom    9 type  1   force =     0.00000136    0.00033938   -0.00071589
     atom   10 type  1   force =    -0.00000226    0.00033999   -0.00071893
     atom   11 type  2   force =     0.00001318    0.00164423    0.00023321
     atom   12 type  2   force =     0.00001727    0.00163882    0.00024399

     Total force =     0.098152     Total SCF correction =     0.009179

     Writing output data file ./La2Ta2/La2Ta2_beef.save/

     General routines

     Parallel routines

   This run was terminated on:  14:11:51  26Jun2022

   JOB DONE.