     Program PWSCF v.6.6 starts on 26Jun2022 at 18:53: 8

     R & G space division:  proc/nbgrp/npool/nimage =      37
     Fft bands division:     nmany     =       1
     Reading input from La2Y2.in
Warning: card &CELL ignored
Warning: card / ignored

     Current dimensions of program PWSCF are:
     Max number of different atomic species (ntypx) = 10
     Max number of k-points (npk) =  40000
     Max angular momentum in pseudopotentials (lmaxx) =  3
     Presently stress not available with electric field and gates

     Message from routine cell_base_init:
     DEPRECATED: use true lattice parameter, not A to a.u. conversion factor
     file La.pbe-spfn-rrkjus_psl.1.0.0.UPF: wavefunction(s)  4F renormalized
     file Y.pbe-spn-rrkjus_psl.1.0.0.UPF: wavefunction(s)  4S renormalized

     IMPORTANT: XC functional enforced from input :
     Exchange-correlation= BEEF-VDW
                           (   1   4  43  14   2   0   0)
     Any further DFT definition will be discarded
     Please, verify this is what you really want

     Subspace diagonalization in iterative solution of the eigenvalue problem:
     a serial algorithm will be used

     Found symmetry operation: I + (  0.5000 -0.5000  0.0000)
     This is a supercell, fractional translations are disabled

     bravais-lattice index     =            0
     lattice parameter (alat)  =       1.8897  a.u.
     unit-cell volume          =    8162.3700 (a.u.)^3
     number of atoms/cell      =           12
     number of atomic types    =            2
     number of electrons       =       132.00
     number of Kohn-Sham states=           79
     kinetic-energy cutoff     =      55.1240  Ry
     charge density cutoff     =     551.2396  Ry
     convergence threshold     =      1.0E-05
     mixing beta               =       0.1000
     number of iterations used =           10  plain     mixing
     Exchange-correlation= BEEF-VDW
                           (   1   4  43  14   2   0   0)

     celldm(1)=   1.889726  celldm(2)=   0.000000  celldm(3)=   0.000000
     celldm(4)=   0.000000  celldm(5)=   0.000000  celldm(6)=   0.000000

     crystal axes: (cart. coord. in units of alat)
               a(1) = (   7.312741   0.000000   0.000000 )
               a(2) = (   3.600141   6.365152   0.000000 )
               a(3) = (   0.000000   0.000000  25.985483 )

     reciprocal axes: (cart. coord. in units 2 pi/alat)
               b(1) = (  0.136748 -0.077345  0.000000 )
               b(2) = (  0.000000  0.157105  0.000000 )
               b(3) = (  0.000000  0.000000  0.038483 )

     PseudoPot. # 1 for La read from file:
     ../pseudo/La.pbe-spfn-rrkjus_psl.1.0.0.UPF
     MD5 check sum: e3bc141c2ecb461b8d0a035ce9ac970e
     Pseudo is Ultrasoft + core correction, Zval = 11.0
     Generated using "atomic" code by A. Dal Corso v.6.2.2
     Using radial grid of 1253 points,  8 beta functions with:
                l(1) =   0
                l(2) =   0
                l(3) =   1
                l(4) =   1
                l(5) =   2
                l(6) =   2
                l(7) =   3
                l(8) =   3
     Q(r) pseudized with 0 coefficients

     PseudoPot. # 2 for Y  read from file:
     ../pseudo/Y.pbe-spn-rrkjus_psl.1.0.0.UPF
     MD5 check sum: 5fe32e6a006803c2ec2edff47948a3c8
     Pseudo is Ultrasoft + core correction, Zval = 11.0
     Generated using "atomic" code by A. Dal Corso v.6.2.2
     Using radial grid of 1223 points,  6 beta functions with:
                l(1) =   0
                l(2) =   0
                l(3) =   1
                l(4) =   1
                l(5) =   2
                l(6) =   2
     Q(r) pseudized with 0 coefficients

     atomic species   valence    mass     pseudopotential
        La            11.00   138.90547     La( 1.00)
        Y             11.00    88.90584     Y ( 1.00)

     No symmetry found

   Cartesian axes

     site n.     atom                  positions (alat units)
         1           La  tau(   1) = (   0.0000000   0.0000000  10.0000000  )
         2           La  tau(   2) = (   5.4564410   3.1825762  10.0000000  )
         3           Y   tau(   3) = (   3.6563705   0.0000000  10.0000000  )
         4           Y   tau(   4) = (   1.8000705   3.1825762  10.0000000  )
         5           La  tau(   5) = (   7.3127409   4.2652995  12.9927414  )
         6           La  tau(   6) = (   1.8562999   1.0827233  12.9927414  )
         7           Y   tau(   7) = (   3.6563705   4.2652995  12.9927414  )
         8           Y   tau(   8) = (   5.5126704   1.0827233  12.9927414  )
         9           La  tau(   9) = (   3.7009792   2.1586559  15.9979764  )
        10           La  tau(  10) = (   9.1574063   5.3412501  15.9979850  )
        11           Y   tau(  11) = (   7.3659913   2.1637504  15.8504956  )
        12           Y   tau(  12) = (   5.5097333   5.3462784  15.8504100  )

     number of k points=    74  Fermi-Dirac smearing, width (Ry)=  0.0100
                       cart. coord. in units 2pi/alat
        k(    1) = (   0.0000000   0.0000000   0.0000000), wk =   0.0138889
        k(    2) = (   0.0000000   0.0130921   0.0000000), wk =   0.0277778
        k(    3) = (   0.0000000   0.0261842   0.0000000), wk =   0.0277778
        k(    4) = (   0.0000000   0.0392764   0.0000000), wk =   0.0277778
        k(    5) = (   0.0000000   0.0523685   0.0000000), wk =   0.0277778
        k(    6) = (   0.0000000   0.0654606   0.0000000), wk =   0.0277778
        k(    7) = (   0.0000000  -0.0785527   0.0000000), wk =   0.0138889
        k(    8) = (   0.0113956  -0.0064454   0.0000000), wk =   0.0277778
        k(    9) = (   0.0113956   0.0066467   0.0000000), wk =   0.0277778
        k(   10) = (   0.0113956   0.0197388   0.0000000), wk =   0.0277778
        k(   11) = (   0.0113956   0.0328310   0.0000000), wk =   0.0277778
        k(   12) = (   0.0113956   0.0459231   0.0000000), wk =   0.0277778
        k(   13) = (   0.0113956   0.0590152   0.0000000), wk =   0.0277778
        k(   14) = (   0.0113956  -0.0849981   0.0000000), wk =   0.0277778
        k(   15) = (   0.0113956  -0.0719060   0.0000000), wk =   0.0277778
        k(   16) = (   0.0113956  -0.0588139   0.0000000), wk =   0.0277778
        k(   17) = (   0.0113956  -0.0457218   0.0000000), wk =   0.0277778
        k(   18) = (   0.0113956  -0.0326296   0.0000000), wk =   0.0277778
        k(   19) = (   0.0113956  -0.0195375   0.0000000), wk =   0.0277778
        k(   20) = (   0.0227913  -0.0128908   0.0000000), wk =   0.0277778
        k(   21) = (   0.0227913   0.0002013   0.0000000), wk =   0.0277778
        k(   22) = (   0.0227913   0.0132935   0.0000000), wk =   0.0277778
        k(   23) = (   0.0227913   0.0263856   0.0000000), wk =   0.0277778
        k(   24) = (   0.0227913   0.0394777   0.0000000), wk =   0.0277778
        k(   25) = (   0.0227913   0.0525698   0.0000000), wk =   0.0277778
        k(   26) = (   0.0227913  -0.0914435   0.0000000), wk =   0.0277778
        k(   27) = (   0.0227913  -0.0783514   0.0000000), wk =   0.0277778
        k(   28) = (   0.0227913  -0.0652593   0.0000000), wk =   0.0277778
        k(   29) = (   0.0227913  -0.0521671   0.0000000), wk =   0.0277778
        k(   30) = (   0.0227913  -0.0390750   0.0000000), wk =   0.0277778
        k(   31) = (   0.0227913  -0.0259829   0.0000000), wk =   0.0277778
        k(   32) = (   0.0341869  -0.0193362   0.0000000), wk =   0.0277778
        k(   33) = (   0.0341869  -0.0062441   0.0000000), wk =   0.0277778
        k(   34) = (   0.0341869   0.0068481   0.0000000), wk =   0.0277778
        k(   35) = (   0.0341869   0.0199402   0.0000000), wk =   0.0277778
        k(   36) = (   0.0341869   0.0330323   0.0000000), wk =   0.0277778
        k(   37) = (   0.0341869   0.0461244   0.0000000), wk =   0.0277778
        k(   38) = (   0.0341869  -0.0978889   0.0000000), wk =   0.0277778
        k(   39) = (   0.0341869  -0.0847968   0.0000000), wk =   0.0277778
        k(   40) = (   0.0341869  -0.0717047   0.0000000), wk =   0.0277778
        k(   41) = (   0.0341869  -0.0586125   0.0000000), wk =   0.0277778
        k(   42) = (   0.0341869  -0.0455204   0.0000000), wk =   0.0277778
        k(   43) = (   0.0341869  -0.0324283   0.0000000), wk =   0.0277778
        k(   44) = (   0.0455825  -0.0257816   0.0000000), wk =   0.0277778
        k(   45) = (   0.0455825  -0.0126894   0.0000000), wk =   0.0277778
        k(   46) = (   0.0455825   0.0004027   0.0000000), wk =   0.0277778
        k(   47) = (   0.0455825   0.0134948   0.0000000), wk =   0.0277778
        k(   48) = (   0.0455825   0.0265869   0.0000000), wk =   0.0277778
        k(   49) = (   0.0455825   0.0396790   0.0000000), wk =   0.0277778
        k(   50) = (   0.0455825  -0.1043343   0.0000000), wk =   0.0277778
        k(   51) = (   0.0455825  -0.0912422   0.0000000), wk =   0.0277778
        k(   52) = (   0.0455825  -0.0781500   0.0000000), wk =   0.0277778
        k(   53) = (   0.0455825  -0.0650579   0.0000000), wk =   0.0277778
        k(   54) = (   0.0455825  -0.0519658   0.0000000), wk =   0.0277778
        k(   55) = (   0.0455825  -0.0388737   0.0000000), wk =   0.0277778
        k(   56) = (   0.0569782  -0.0322270   0.0000000), wk =   0.0277778
        k(   57) = (   0.0569782  -0.0191348   0.0000000), wk =   0.0277778
        k(   58) = (   0.0569782  -0.0060427   0.0000000), wk =   0.0277778
        k(   59) = (   0.0569782   0.0070494   0.0000000), wk =   0.0277778
        k(   60) = (   0.0569782   0.0201415   0.0000000), wk =   0.0277778
        k(   61) = (   0.0569782   0.0332336   0.0000000), wk =   0.0277778
        k(   62) = (   0.0569782  -0.1107797   0.0000000), wk =   0.0277778
        k(   63) = (   0.0569782  -0.0976876   0.0000000), wk =   0.0277778
        k(   64) = (   0.0569782  -0.0845954   0.0000000), wk =   0.0277778
        k(   65) = (   0.0569782  -0.0715033   0.0000000), wk =   0.0277778
        k(   66) = (   0.0569782  -0.0584112   0.0000000), wk =   0.0277778
        k(   67) = (   0.0569782  -0.0453191   0.0000000), wk =   0.0277778
        k(   68) = (  -0.0683738   0.0386723   0.0000000), wk =   0.0138889
        k(   69) = (  -0.0683738   0.0517645   0.0000000), wk =   0.0277778
        k(   70) = (  -0.0683738   0.0648566   0.0000000), wk =   0.0277778
        k(   71) = (  -0.0683738   0.0779487   0.0000000), wk =   0.0277778
        k(   72) = (  -0.0683738   0.0910408   0.0000000), wk =   0.0277778
        k(   73) = (  -0.0683738   0.1041329   0.0000000), wk =   0.0277778
        k(   74) = (  -0.0683738  -0.0398804   0.0000000), wk =   0.0138889

     Initial potential from superposition of free atoms

     starting charge  131.79676, renormalised to  132.00000

     negative rho (up, down):  5.010E-04 0.000E+00

     %%%%%%%%%%%%%%%%%%%%%%%%%%%%%%%%%%%%%%%%%%%%%%%%%%%%%%%%%%%%%%%%%%%%%%%%
     %                                                                      %
     % You are using vdW-DF, which was implemented by the Thonhauser group. %
     % Please cite the following two papers that made this development      %
     % possible and the two reviews that describe the various versions:     %
     %                                                                      %
     %   T. Thonhauser et al., PRL 115, 136402 (2015).                      %
     %   T. Thonhauser et al., PRB 76, 125112 (2007).                       %
     %   K. Berland et al., Rep. Prog. Phys. 78, 066501 (2015).             %
     %   D.C. Langreth et al., J. Phys.: Condens. Matter 21, 084203 (2009). %
     %                                                                      %
     %                                                                      %
     % If you are calculating the stress with vdW-DF, please also cite:     %
     %                                                                      %
     %   R. Sabatini et al., J. Phys.: Condens. Matter 24, 424209 (2012).   %
     %                                                                      %
     %%%%%%%%%%%%%%%%%%%%%%%%%%%%%%%%%%%%%%%%%%%%%%%%%%%%%%%%%%%%%%%%%%%%%%%%

     Adding external electric field

     Computed dipole along edir(3) :
        Dipole                0.0072 Ry au,          0.0182 Debye
        Dipole field          0.0000 Ry au,

        Potential amp.       -0.0011 Ry
        Total length         47.8778 bohr

     Starting wfcs are  198 randomized atomic wfcs

     Self-consistent Calculation

     iteration #  1     ecut=    55.12 Ry     beta= 0.10
     Davidson diagonalization with overlap
     ethr =  1.00E-02,  avg # of iterations =  2.0

[...]

     total energy              =   -1267.92210099 Ry
     estimated scf accuracy    <       8.11565309 Ry

[...]

     iteration #  7     ecut=    55.12 Ry     beta= 0.10
     Davidson diagonalization with overlap
     c_bands:  1 eigenvalues not converged
     c_bands:  1 eigenvalues not converged
     c_bands:  1 eigenvalues not converged
     ethr =  6.76E-05,  avg # of iterations = 12.1

[...]

     iteration # 16     ecut=    55.12 Ry     beta= 0.10
     Davidson diagonalization with overlap
     c_bands:  1 eigenvalues not converged
     c_bands:  1 eigenvalues not converged
     ethr =  5.86E-07,  avg # of iterations =  2.8

[...]

     total energy              =   -1268.57080649 Ry
     estimated scf accuracy    <       0.00001826 Ry

     iteration # 20     ecut=    55.12 Ry     beta= 0.10
     Davidson diagonalization with overlap
     ethr =  1.17E-08,  avg # of iterations =  2.1

[...]

     Adding external electric field

     Computed dipole along edir(3) :
        Dipole                0.0216 Ry au,          0.0549 Debye
        Dipole field          0.0000 Ry au,

        Potential amp.       -0.0032 Ry
        Total length         47.8778 bohr

     End of self-consistent calculation

          k = 0.0000 0.0000 0.0000 ( 56493 PWs)   bands (ev):

   -42.0139 -41.9994 -41.9091 -41.8944 -41.4701 -41.4553 -31.7553 -31.7333
   -31.6806 -31.6585 -31.2168 -31.1399 -21.9980 -21.9911 -21.9745 -21.9240
   -21.9036 -21.9005 -21.8961 -21.8802 -21.8298 -21.8012 -21.7709 -21.6777
   -21.4969 -21.4485 -21.4189 -21.3723 -21.3481 -21.2700 -15.7591 -15.7381
   -15.5609 -15.4617 -15.4610 -15.3834 -15.3660 -15.3611 -15.2957 -15.2956
   -15.2768 -14.9630 -14.9419 -14.9007 -14.8051 -14.8034 -14.7168 -14.4802
    -2.1322  -1.3271  -0.7199  -0.4623  -0.3748  -0.0620   0.0011   0.1704
     0.1719   0.3509   0.3728   0.5355   0.5685   0.5994   0.7171   1.0177
     1.1807   1.3708   1.6600   1.6721   2.0648   2.1515   2.2136   2.3136
     2.3980   2.5012   2.5848   2.6002   2.6360   2.7488   2.7847

[...]

          k = 0.0570-0.0453 0.0000 ( 56365 PWs)   bands (ev):

[...]

          k =-0.0684 0.0387 0.0000 ( 56376 PWs)   bands (ev):

[...]

          k =-0.0684-0.0399 0.0000 ( 56416 PWs)   bands (ev):

   -42.0138 -41.9994 -41.9090 -41.8945 -41.4701 -41.4553 -31.7560 -31.7340
   -31.6808 -31.6587 -31.2176 -31.1400 -21.9970 -21.9869 -21.9742 -21.9144
   -21.9022 -21.8962 -21.8930 -21.8796 -21.8192 -21.7977 -21.7705 -21.6773
   -21.4926 -21.4394 -21.4165 -21.3715 -21.3483 -21.2696 -15.7764 -15.7529
   -15.5861 -15.4734 -15.4514 -15.4218 -15.3961 -15.3562 -15.3112 -15.3103
   -15.2904 -14.9656 -14.9444 -14.9189 -14.8156 -14.8104 -14.7193 -14.4826
    -0.9305  -0.8942  -0.1516  -0.1240   0.2826   0.3428   0.4439   0.5338
     0.5470   0.8058   0.9200   1.0456   1.1864   1.2387   1.2948   1.3099
     1.3419   1.3804   1.4327   1.5165   1.5899   1.6291   1.6366   1.7146
     1.8530   1.9102   1.9767   1.9814   1.9962   2.1069   2.1352

     the Fermi energy is     1.4441 ev

!    total energy              =   -1268.57079740 Ry
     estimated scf accuracy    <       0.00000333 Ry
     smearing contrib. (-TS)   =      -0.10795167 Ry
     internal energy E=F+TS    =   -1268.46284574 Ry

     The total energy is F=E-TS. E is the sum of the following terms:
     one-electron contribution =   -5002.83051555 Ry
     hartree contribution      =    2504.78729519 Ry
     xc contribution           =    -558.32199220 Ry
     ewald contribution        =    1787.90236612 Ry
     electric field correction =       0.00000072 Ry

     convergence has been achieved in  20 iterations

     negative rho (up, down):  1.397E-04 0.000E+00

     Forces acting on atoms (cartesian axes, Ry/au):

     atom    1 type  1   force =     0.00063992    0.00037166   -0.00116745
     atom    2 type  1   force =     0.00063548    0.00037655   -0.00117166
     atom    3 type  2   force =    -0.00006768   -0.00003961    0.00754850
     atom    4 type  2   force =    -0.00006726   -0.00003788    0.00754835
     atom    5 type  1   force =     0.00086640    0.00050471   -0.00562366
     atom    6 type  1   force =     0.00086451    0.00050184   -0.00562355
     atom    7 type  2   force =    -0.00083715   -0.00048920   -0.00077140
     atom    8 type  2   force =    -0.00083915   -0.00048910   -0.00076744
     atom    9 type  1   force =    -0.00042539   -0.00024395    0.00005909
     atom   10 type  1   force =    -0.00041885   -0.00024885    0.00005790
     atom   11 type  2   force =    -0.00017113   -0.00010557   -0.00004679
     atom   12 type  2   force =    -0.00017969   -0.00010059   -0.00004190

     Total force =     0.013664     Total SCF correction =     0.003769
     SCF correction compared to forces is large: reduce conv_thr to get better values

     Writing output data file ./La2Y2/La2Y2_beef.save/

     General routines

     Parallel routines

   This run was terminated on:  21:42:52  26Jun2022

   JOB DONE.