     Program PWSCF v.6.6 starts on 26Jun2022 at 21:42:56

     R & G space division:  proc/nbgrp/npool/nimage =      37
     Fft bands division:     nmany     =       1
     Reading input from La2Zr2.in
Warning: card &CELL ignored
Warning: card / ignored

     Current dimensions of program PWSCF are:
     Max number of different atomic species (ntypx) = 10
     Max number of k-points (npk) =  40000
     Max angular momentum in pseudopotentials (lmaxx) =  3
     Presently stress not available with electric field and gates

     Message from routine cell_base_init:
     DEPRECATED: use true lattice parameter, not A to a.u. conversion factor
     file La.pbe-spfn-rrkjus_psl.1.0.0.UPF: wavefunction(s)  4F renormalized
     file Zr.pbe-spn-rrkjus_psl.1.0.0.UPF: wavefunction(s)  4S renormalized

     IMPORTANT: XC functional enforced from input :
     Exchange-correlation= BEEF-VDW
                           (   1   4  43  14   2   0   0)
     Any further DFT definition will be discarded
     Please, verify this is what you really want

     Subspace diagonalization in iterative solution of the eigenvalue problem:
     a serial algorithm will be used

     Found symmetry operation: I + (  0.5000  0.0000  0.0000)
     This is a supercell, fractional translations are disabled

     bravais-lattice index     =            0
     lattice parameter (alat)  =       1.8897  a.u.
     unit-cell volume          =    7129.7607 (a.u.)^3
     number of atoms/cell      =           12
     number of atomic types    =            2
     number of electrons       =       138.00
     number of Kohn-Sham states=           83
     kinetic-energy cutoff     =      55.1240  Ry
     charge density cutoff     =     551.2396  Ry
     convergence threshold     =      1.0E-05
     mixing beta               =       0.1000
     number of iterations used =           10  plain     mixing
     Exchange-correlation= BEEF-VDW
                           (   1   4  43  14   2   0   0)

     celldm(1)=   1.889726  celldm(2)=   0.000000  celldm(3)=   0.000000
     celldm(4)=   0.000000  celldm(5)=   0.000000  celldm(6)=   0.000000

     crystal axes: (cart. coord. in units of alat)
               a(1) = (   6.795670   0.000000   0.000000 )
               a(2) = (  -3.397835   6.066046   0.000000 )
               a(3) = (   0.000000   0.000000  25.629519 )

     reciprocal axes: (cart. coord. in units 2 pi/alat)
               b(1) = (  0.147153  0.082426 -0.000000 )
               b(2) = (  0.000000  0.164852  0.000000 )
               b(3) = (  0.000000 -0.000000  0.039018 )

     PseudoPot. # 1 for La read from file:
     ../pseudo/La.pbe-spfn-rrkjus_psl.1.0.0.UPF
     MD5 check sum: e3bc141c2ecb461b8d0a035ce9ac970e
     Pseudo is Ultrasoft + core correction, Zval = 11.0
     Generated using "atomic" code by A. Dal Corso v.6.2.2
     Using radial grid of 1253 points,  8 beta functions with:
                l(1) =   0
                l(2) =   0
                l(3) =   1
                l(4) =   1
                l(5) =   2
                l(6) =   2
                l(7) =   3
                l(8) =   3
     Q(r) pseudized with 0 coefficients

     PseudoPot. # 2 for Zr read from file:
     ../pseudo/Zr.pbe-spn-rrkjus_psl.1.0.0.UPF
     MD5 check sum: 3d17ee99aa1707c2ccb6b09ed65e51a1
     Pseudo is Ultrasoft + core correction, Zval = 12.0
     Generated using "atomic" code by A. Dal Corso v.6.2.2
     Using radial grid of 1225 points,  6 beta functions with:
                l(1) =   0
                l(2) =   0
                l(3) =   1
                l(4) =   1
                l(5) =   2
                l(6) =   2
     Q(r) pseudized with 0 coefficients

     atomic species   valence    mass     pseudopotential
        La            11.00   138.90547     La( 1.00)
        Zr            12.00    91.22400     Zr( 1.00)

     No symmetry found

   Cartesian axes

     site n.     atom                  positions (alat units)
         1           La  tau(   1) = (   0.0000000   0.0000000  10.0000000  )
         2           La  tau(   2) = (   3.3978349   0.0000000  10.0000000  )
         3           Zr  tau(   3) = (   1.6989174   3.0330228  10.0000000  )
         4           Zr  tau(   4) = (  -1.6989174   3.0330228  10.0000000  )
         5           La  tau(   5) = (   3.3978349   1.9032633  12.8147594  )
         6           La  tau(   6) = (  -0.0000000   1.9032633  12.8147594  )
         7           Zr  tau(   7) = (  -1.6989174   4.9362860  12.8147594  )
         8           Zr  tau(   8) = (   1.6989174   4.9362860  12.8147594  )
         9           La  tau(   9) = (   0.0000067   3.8761019  15.7621589  )
        10           La  tau(  10) = (   3.3978429   3.8760977  15.7621565  )
        11           Zr  tau(  11) = (   5.0967350   0.6696908  15.3540645  )
        12           Zr  tau(  12) = (   1.6989135   0.6697016  15.3540537  )

     number of k points=    74  Fermi-Dirac smearing, width (Ry)=  0.0100
                       cart. coord. in units 2pi/alat
        k(    1) = (   0.0000000   0.0000000   0.0000000), wk =   0.0138889
        k(    2) = (   0.0000000   0.0137377   0.0000000), wk =   0.0277778
        k(    3) = (   0.0000000   0.0274753   0.0000000), wk =   0.0277778
        k(    4) = (   0.0000000   0.0412130   0.0000000), wk =   0.0277778
        k(    5) = (   0.0000000   0.0549507   0.0000000), wk =   0.0277778
        k(    6) = (   0.0000000   0.0686883   0.0000000), wk =   0.0277778
        k(    7) = (   0.0000000  -0.0824260   0.0000000), wk =   0.0138889
        k(    8) = (   0.0122627   0.0068688   0.0000000), wk =   0.0277778
        k(    9) = (   0.0122627   0.0206065   0.0000000), wk =   0.0277778
        k(   10) = (   0.0122627   0.0343442   0.0000000), wk =   0.0277778
        k(   11) = (   0.0122627   0.0480818   0.0000000), wk =   0.0277778
        k(   12) = (   0.0122627   0.0618195   0.0000000), wk =   0.0277778
        k(   13) = (   0.0122627   0.0755572   0.0000000), wk =   0.0277778
        k(   14) = (   0.0122627  -0.0755572   0.0000000), wk =   0.0277778
        k(   15) = (   0.0122627  -0.0618195   0.0000000), wk =   0.0277778
        k(   16) = (   0.0122627  -0.0480818   0.0000000), wk =   0.0277778
        k(   17) = (   0.0122627  -0.0343442   0.0000000), wk =   0.0277778
        k(   18) = (   0.0122627  -0.0206065   0.0000000), wk =   0.0277778
        k(   19) = (   0.0122627  -0.0068688   0.0000000), wk =   0.0277778
        k(   20) = (   0.0245254   0.0137377   0.0000000), wk =   0.0277778
        k(   21) = (   0.0245254   0.0274753   0.0000000), wk =   0.0277778
        k(   22) = (   0.0245254   0.0412130   0.0000000), wk =   0.0277778
        k(   23) = (   0.0245254   0.0549507   0.0000000), wk =   0.0277778
        k(   24) = (   0.0245254   0.0686883   0.0000000), wk =   0.0277778
        k(   25) = (   0.0245254   0.0824260   0.0000000), wk =   0.0277778
        k(   26) = (   0.0245254  -0.0686883   0.0000000), wk =   0.0277778
        k(   27) = (   0.0245254  -0.0549507   0.0000000), wk =   0.0277778
        k(   28) = (   0.0245254  -0.0412130   0.0000000), wk =   0.0277778
        k(   29) = (   0.0245254  -0.0274753   0.0000000), wk =   0.0277778
        k(   30) = (   0.0245254  -0.0137377   0.0000000), wk =   0.0277778
        k(   31) = (   0.0245254  -0.0000000   0.0000000), wk =   0.0277778
        k(   32) = (   0.0367881   0.0206065   0.0000000), wk =   0.0277778
        k(   33) = (   0.0367881   0.0343442   0.0000000), wk =   0.0277778
        k(   34) = (   0.0367881   0.0480818   0.0000000), wk =   0.0277778
        k(   35) = (   0.0367881   0.0618195   0.0000000), wk =   0.0277778
        k(   36) = (   0.0367881   0.0755572   0.0000000), wk =   0.0277778
        k(   37) = (   0.0367881   0.0892948   0.0000000), wk =   0.0277778
        k(   38) = (   0.0367881  -0.0618195   0.0000000), wk =   0.0277778
        k(   39) = (   0.0367881  -0.0480818   0.0000000), wk =   0.0277778
        k(   40) = (   0.0367881  -0.0343442   0.0000000), wk =   0.0277778
        k(   41) = (   0.0367881  -0.0206065   0.0000000), wk =   0.0277778
        k(   42) = (   0.0367881  -0.0068688   0.0000000), wk =   0.0277778
        k(   43) = (   0.0367881   0.0068688   0.0000000), wk =   0.0277778
        k(   44) = (   0.0490508   0.0274753   0.0000000), wk =   0.0277778
        k(   45) = (   0.0490508   0.0412130   0.0000000), wk =   0.0277778
        k(   46) = (   0.0490508   0.0549507   0.0000000), wk =   0.0277778
        k(   47) = (   0.0490508   0.0686883   0.0000000), wk =   0.0277778
        k(   48) = (   0.0490508   0.0824260   0.0000000), wk =   0.0277778
        k(   49) = (   0.0490508   0.0961637   0.0000000), wk =   0.0277778
        k(   50) = (   0.0490508  -0.0549507   0.0000000), wk =   0.0277778
        k(   51) = (   0.0490508  -0.0412130   0.0000000), wk =   0.0277778
        k(   52) = (   0.0490508  -0.0274753   0.0000000), wk =   0.0277778
        k(   53) = (   0.0490508  -0.0137377   0.0000000), wk =   0.0277778
        k(   54) = (   0.0490508   0.0000000   0.0000000), wk =   0.0277778
        k(   55) = (   0.0490508   0.0137377   0.0000000), wk =   0.0277778
        k(   56) = (   0.0613136   0.0343442   0.0000000), wk =   0.0277778
        k(   57) = (   0.0613136   0.0480818   0.0000000), wk =   0.0277778
        k(   58) = (   0.0613136   0.0618195   0.0000000), wk =   0.0277778
        k(   59) = (   0.0613136   0.0755572   0.0000000), wk =   0.0277778
        k(   60) = (   0.0613136   0.0892948   0.0000000), wk =   0.0277778
        k(   61) = (   0.0613136   0.1030325   0.0000000), wk =   0.0277778
        k(   62) = (   0.0613136  -0.0480818   0.0000000), wk =   0.0277778
        k(   63) = (   0.0613136  -0.0343442   0.0000000), wk =   0.0277778
        k(   64) = (   0.0613136  -0.0206065   0.0000000), wk =   0.0277778
        k(   65) = (   0.0613136  -0.0068688   0.0000000), wk =   0.0277778
        k(   66) = (   0.0613136   0.0068688   0.0000000), wk =   0.0277778
        k(   67) = (   0.0613136   0.0206065   0.0000000), wk =   0.0277778
        k(   68) = (  -0.0735763  -0.0412130   0.0000000), wk =   0.0138889
        k(   69) = (  -0.0735763  -0.0274753   0.0000000), wk =   0.0277778
        k(   70) = (  -0.0735763  -0.0137377   0.0000000), wk =   0.0277778
        k(   71) = (  -0.0735763   0.0000000   0.0000000), wk =   0.0277778
        k(   72) = (  -0.0735763   0.0137377   0.0000000), wk =   0.0277778
        k(   73) = (  -0.0735763   0.0274753   0.0000000), wk =   0.0277778
        k(   74) = (  -0.0735763  -0.1236390   0.0000000), wk =   0.0138889

     Initial potential from superposition of free atoms

     starting charge  137.80836, renormalised to  138.00000

     negative rho (up, down):  5.345E-04 0.000E+00

     %%%%%%%%%%%%%%%%%%%%%%%%%%%%%%%%%%%%%%%%%%%%%%%%%%%%%%%%%%%%%%%%%%%%%%%%
     %                                                                      %
     % You are using vdW-DF, which was implemented by the Thonhauser group. %
     % Please cite the following two papers that made this development      %
     % possible and the two reviews that describe the various versions:     %
     %                                                                      %
     %   T. Thonhauser et al., PRL 115, 136402 (2015).                      %
     %   T. Thonhauser et al., PRB 76, 125112 (2007).                       %
     %   K. Berland et al., Rep. Prog. Phys. 78, 066501 (2015).             %
     %   D.C. Langreth et al., J. Phys.: Condens. Matter 21, 084203 (2009). %
     %                                                                      %
     %                                                                      %
     % If you are calculating the stress with vdW-DF, please also cite:     %
     %                                                                      %
     %   R. Sabatini et al., J. Phys.: Condens. Matter 24, 424209 (2012).   %
     %                                                                      %
     %%%%%%%%%%%%%%%%%%%%%%%%%%%%%%%%%%%%%%%%%%%%%%%%%%%%%%%%%%%%%%%%%%%%%%%%

     Adding external electric field

     Computed dipole along edir(3) :
        Dipole                0.0224 Ry au,          0.0570 Debye
        Dipole field          0.0000 Ry au,

        Potential amp.       -0.0037 Ry
        Total length         47.2219 bohr

     Starting wfcs are  198 randomized atomic wfcs

     Self-consistent Calculation

     iteration #  1     ecut=    55.12 Ry     beta= 0.10
     Davidson diagonalization with overlap
     ethr =  1.00E-02,  avg # of iterations =  2.0

[...]

     total energy              =   -1362.86252157 Ry
     estimated scf accuracy    <      10.48164009 Ry

[...]

     iteration #  9     ecut=    55.12 Ry     beta= 0.10
     Davidson diagonalization with overlap
     c_bands:  1 eigenvalues not converged
     c_bands:  2 eigenvalues not converged
     c_bands:  2 eigenvalues not converged
     c_bands:  1 eigenvalues not converged
     c_bands:  2 eigenvalues not converged
     c_bands:  1 eigenvalues not converged
     c_bands:  2 eigenvalues not converged
     c_bands:  2 eigenvalues not converged
     c_bands:  1 eigenvalues not converged
     c_bands:  2 eigenvalues not converged
     ethr =  3.10E-05,  avg # of iterations = 14.5

[...]

     iteration # 15     ecut=    55.12 Ry     beta= 0.10
     Davidson diagonalization with overlap
     c_bands:  1 eigenvalues not converged
     c_bands:  1 eigenvalues not converged
     ethr =  1.34E-06,  avg # of iterations =  6.9

[...]

     total energy              =   -1363.79241333 Ry
     estimated scf accuracy    <       0.00001716 Ry

     iteration # 21     ecut=    55.12 Ry     beta= 0.10
     Davidson diagonalization with overlap
     ethr =  1.24E-08,  avg # of iterations =  4.5

[...]

     Adding external electric field

     Computed dipole along edir(3) :
        Dipole                0.1214 Ry au,          0.3085 Debye
        Dipole field          0.0002 Ry au,

        Potential amp.       -0.0202 Ry
        Total length         47.2219 bohr

     End of self-consistent calculation

          k = 0.0000 0.0000 0.0000 ( 49351 PWs)   bands (ev):

   -47.6857 -47.6645 -47.4749 -47.4531 -47.3586 -47.3371 -31.1626 -31.0576
   -30.9791 -30.8728 -30.5236 -30.3337 -25.7119 -25.7039 -25.6748 -25.6556
   -25.6225 -25.5542 -25.5470 -25.5168 -25.4737 -25.4438 -25.4364 -25.4359
   -25.3621 -25.3288 -25.2723 -25.1884 -25.1624 -25.1584 -15.5907 -15.5052
   -15.1284 -15.0389 -14.9053 -14.8842 -14.8045 -14.7047 -14.6741 -14.6073
   -14.5046 -14.2497 -14.0679 -14.0586 -14.0349 -13.9713 -13.8715 -13.4787
    -1.9649  -1.0471  -0.7216  -0.5669  -0.5330  -0.1236  -0.0255   0.0043
     0.2776   0.2953   0.3768   0.4375   0.5014   0.5946   0.6066   1.1159
     1.3007   1.4132   1.8159   1.9983   2.0442   2.1046   2.4476   2.5252
     2.6226   2.7399   2.8847   2.8853   2.9519   3.0117   3.0371   3.0828
     3.1279   3.1500   3.2625

[...]

          k = 0.0613 0.0206 0.0000 ( 49285 PWs)   bands (ev):

[...]

          k =-0.0736-0.0412 0.0000 ( 49264 PWs)   bands (ev):

[...]

          k =-0.0736-0.1236 0.0000 ( 49264 PWs)   bands (ev):

   -47.6751 -47.6751 -47.4640 -47.4640 -47.3478 -47.3478 -31.0732 -31.0732
   -30.9678 -30.9678 -30.4312 -30.4312 -25.6885 -25.6885 -25.6357 -25.6357
   -25.5749 -25.5749 -25.5307 -25.5307 -25.4561 -25.4560 -25.4140 -25.4140
   -25.3437 -25.3437 -25.2982 -25.2982 -25.1754 -25.1754 -15.0320 -15.0320
   -14.8883 -14.8883 -14.8006 -14.8006 -14.7761 -14.7761 -14.7234 -14.7234
   -14.6209 -14.6209 -14.3203 -14.3203 -14.1535 -14.1535 -13.9680 -13.9679
    -0.6667  -0.6667   0.0427   0.0427   0.2828   0.2828   0.6846   0.6846
     0.8831   0.8831   1.0803   1.0803   1.2110   1.2110   1.2612   1.2612
     1.5887   1.5887   1.6958   1.6958   1.7615   1.7615   1.8542   1.8542
     2.0547   2.0547   2.3005   2.3005   2.3895   2.3895   2.5478   2.5479
     2.7157   2.7159   2.7767

     the Fermi energy is     1.8137 ev

!    total energy              =   -1363.79240384 Ry
     estimated scf accuracy    <       0.00000682 Ry
     smearing contrib. (-TS)   =      -0.10033200 Ry
     internal energy E=F+TS    =   -1363.69207184 Ry

     The total energy is F=E-TS. E is the sum of the following terms:
     one-electron contribution =   -6332.93769389 Ry
     hartree contribution      =    3171.07334179 Ry
     xc contribution           =    -559.36134965 Ry
     ewald contribution        =    2357.53360395 Ry
     electric field correction =       0.00002597 Ry

     convergence has been achieved in  21 iterations

     negative rho (up, down):  3.119E-04 0.000E+00

     Forces acting on atoms (cartesian axes, Ry/au):

     atom    1 type  1   force =    -0.00000912   -0.00675683   -0.01313571
     atom    2 type  1   force =    -0.00001096   -0.00675394   -0.01313554
     atom    3 type  2   force =    -0.00000681    0.01002780    0.02520445
     atom    4 type  2   force =    -0.00000693    0.01002853    0.02520358
     atom    5 type  1   force =     0.00004284    0.00606785   -0.01028526
     atom    6 type  1   force =     0.00004141    0.00607140   -0.01028703
     atom    7 type  2   force =    -0.00000600   -0.00832515   -0.00097472
     atom    8 type  2   force =    -0.00000698   -0.00832381   -0.00097523
     atom    9 type  1   force =    -0.00001137   -0.00170623   -0.00079342
     atom   10 type  1   force =    -0.00001419   -0.00170845   -0.00079703
     atom   11 type  2   force =    -0.00000601    0.00069028   -0.00001357
     atom   12 type  2   force =    -0.00000589    0.00068855   -0.00001050

     Total force =     0.048392     Total SCF correction =     0.008476
     SCF correction compared to forces is large: reduce conv_thr to get better values

     Writing output data file ./La2Zr2/La2Zr2_beef.save/

     General routines

     Parallel routines

   This run was terminated on:   0:21:41  27Jun2022

   JOB DONE.