     Program PWSCF v.6.6 starts on 27Jun2022 at 13:17:55

     R & G space division:  proc/nbgrp/npool/nimage =      37
     Fft bands division:     nmany     =       1
     Reading input from Mn2Au2.in
Warning: card &CELL ignored
Warning: card / ignored

     Current dimensions of program PWSCF are:
     Max number of different atomic species (ntypx) = 10
     Max number of k-points (npk) =  40000
     Max angular momentum in pseudopotentials (lmaxx) =  3
     Presently stress not available with electric field and gates

     Message from routine cell_base_init:
     DEPRECATED: use true lattice parameter, not A to a.u. conversion factor
     file Mn.pbe-spn-rrkjus_psl.0.3.1.UPF: wavefunction(s)  3D renormalized

     IMPORTANT: XC functional enforced from input :
     Exchange-correlation= BEEF-VDW
                           (   1   4  43  14   2   0   0)
     Any further DFT definition will be discarded
     Please, verify this is what you really want

     Subspace diagonalization in iterative solution of the eigenvalue problem:
     a serial algorithm will be used

     bravais-lattice index     =            0
     lattice parameter (alat)  =       1.8897  a.u.
     unit-cell volume          =    4970.1917 (a.u.)^3
     number of atoms/cell      =           12
     number of atomic types    =            2
     number of electrons       =       156.00
     number of Kohn-Sham states=           94
     kinetic-energy cutoff     =      55.1240  Ry
     charge density cutoff     =     551.2396  Ry
     convergence threshold     =      1.0E-05
     mixing beta               =       0.1000
     number of iterations used =           10  plain     mixing
     Exchange-correlation= BEEF-VDW
                           (   1   4  43  14   2   0   0)

     celldm(1)=   1.889726  celldm(2)=   0.000000  celldm(3)=   0.000000
     celldm(4)=   0.000000  celldm(5)=   0.000000  celldm(6)=   0.000000

     crystal axes: (cart. coord. in units of alat)
               a(1) = (   5.640753   0.000000   0.000000 )
               a(2) = (   1.919904   5.303966   0.000000 )
               a(3) = (   0.000000   0.000000  24.617209 )

     reciprocal axes: (cart. coord. in units 2 pi/alat)
               b(1) = (  0.177281 -0.064171  0.000000 )
               b(2) = (  0.000000  0.188538  0.000000 )
               b(3) = (  0.000000  0.000000  0.040622 )

     PseudoPot. # 1 for Mn read from file:
     ../pseudo/Mn.pbe-spn-rrkjus_psl.0.3.1.UPF
     MD5 check sum: e1cac159bdd2ba70c18e85765a5d4279
     Pseudo is Ultrasoft + core correction, Zval = 15.0
     Generated using "atomic" code by A. Dal Corso v.6.2.2
     Using radial grid of 1187 points,  6 beta functions with:
                l(1) =   0
                l(2) =   0
                l(3) =   1
                l(4) =   1
                l(5) =   2
                l(6) =   2
     Q(r) pseudized with 0 coefficients

     PseudoPot. # 2 for Au read from file:
     ../pseudo/Au.pbe-n-rrkjus_psl.1.0.0.UPF
     MD5 check sum: d7e77ba19504afed2c9b41c931dde4f0
     Pseudo is Ultrasoft + core correction, Zval = 11.0
     Generated using "atomic" code by A. Dal Corso v.6.3
     Using radial grid of 1279 points,  6 beta functions with:
                l(1) =   0
                l(2) =   0
                l(3) =   1
                l(4) =   1
                l(5) =   2
                l(6) =   2
     Q(r) pseudized with 0 coefficients

     atomic species   valence    mass     pseudopotential
        Mn            15.00    54.93804     Mn( 1.00)
        Au            11.00   196.96657     Au( 1.00)

     Starting magnetic structure
     atomic species   magnetization
        Mn           0.667
        Au           0.000

     No symmetry found

   Cartesian axes

     site n.     atom                  positions (alat units)
         1           Mn  tau(   1) = (   0.0000000   0.0000000  10.0000000  )
         2           Mn  tau(   2) = (   3.7803284   2.6519832  10.0000000  )
         3           Au  tau(   3) = (   2.8203764   0.0000000  10.0000000  )
         4           Au  tau(   4) = (   0.9599520   2.6519832  10.0000000  )
         5           Mn  tau(   5) = (   5.6407527   3.9571117  12.3086045  )
         6           Mn  tau(   6) = (   1.8604244   1.3051285  12.3086045  )
         7           Au  tau(   7) = (   2.8203764   3.9571117  12.3086045  )
         8           Au  tau(   8) = (   4.6808007   1.3051285  12.3086045  )
         9           Mn  tau(   9) = (   3.7209551   2.6103198  14.6141109  )
        10           Mn  tau(  10) = (   7.5012568   5.2623099  14.6140974  )
        11           Au  tau(  11) = (   6.5454703   2.6132634  14.5690639  )
        12           Au  tau(  12) = (   4.6851029   5.2652290  14.5690995  )

     number of k points=    74  Fermi-Dirac smearing, width (Ry)=  0.0100
                       cart. coord. in units 2pi/alat
        k(    1) = (   0.0000000   0.0000000   0.0000000), wk =   0.0069444
        k(    2) = (   0.0000000   0.0157115   0.0000000), wk =   0.0138889
        k(    3) = (   0.0000000   0.0314230   0.0000000), wk =   0.0138889
        k(    4) = (   0.0000000   0.0471345   0.0000000), wk =   0.0138889
        k(    5) = (   0.0000000   0.0628461   0.0000000), wk =   0.0138889
        k(    6) = (   0.0000000   0.0785576   0.0000000), wk =   0.0138889
        k(    7) = (   0.0000000  -0.0942691   0.0000000), wk =   0.0069444
        k(    8) = (   0.0147734  -0.0053476   0.0000000), wk =   0.0138889
        k(    9) = (   0.0147734   0.0103639   0.0000000), wk =   0.0138889
        k(   10) = (   0.0147734   0.0260754   0.0000000), wk =   0.0138889
        k(   11) = (   0.0147734   0.0417869   0.0000000), wk =   0.0138889
        k(   12) = (   0.0147734   0.0574984   0.0000000), wk =   0.0138889
        k(   13) = (   0.0147734   0.0732099   0.0000000), wk =   0.0138889
        k(   14) = (   0.0147734  -0.0996167   0.0000000), wk =   0.0138889
        k(   15) = (   0.0147734  -0.0839052   0.0000000), wk =   0.0138889
        k(   16) = (   0.0147734  -0.0681937   0.0000000), wk =   0.0138889
        k(   17) = (   0.0147734  -0.0524822   0.0000000), wk =   0.0138889
        k(   18) = (   0.0147734  -0.0367706   0.0000000), wk =   0.0138889
        k(   19) = (   0.0147734  -0.0210591   0.0000000), wk =   0.0138889
        k(   20) = (   0.0295469  -0.0106952   0.0000000), wk =   0.0138889
        k(   21) = (   0.0295469   0.0050163   0.0000000), wk =   0.0138889
        k(   22) = (   0.0295469   0.0207278   0.0000000), wk =   0.0138889
        k(   23) = (   0.0295469   0.0364393   0.0000000), wk =   0.0138889
        k(   24) = (   0.0295469   0.0521508   0.0000000), wk =   0.0138889
        k(   25) = (   0.0295469   0.0678623   0.0000000), wk =   0.0138889
        k(   26) = (   0.0295469  -0.1049643   0.0000000), wk =   0.0138889
        k(   27) = (   0.0295469  -0.0892528   0.0000000), wk =   0.0138889
        k(   28) = (   0.0295469  -0.0735413   0.0000000), wk =   0.0138889
        k(   29) = (   0.0295469  -0.0578298   0.0000000), wk =   0.0138889
        k(   30) = (   0.0295469  -0.0421183   0.0000000), wk =   0.0138889
        k(   31) = (   0.0295469  -0.0264068   0.0000000), wk =   0.0138889
        k(   32) = (   0.0443203  -0.0160429   0.0000000), wk =   0.0138889
        k(   33) = (   0.0443203  -0.0003313   0.0000000), wk =   0.0138889
        k(   34) = (   0.0443203   0.0153802   0.0000000), wk =   0.0138889
        k(   35) = (   0.0443203   0.0310917   0.0000000), wk =   0.0138889
        k(   36) = (   0.0443203   0.0468032   0.0000000), wk =   0.0138889
        k(   37) = (   0.0443203   0.0625147   0.0000000), wk =   0.0138889
        k(   38) = (   0.0443203  -0.1103119   0.0000000), wk =   0.0138889
        k(   39) = (   0.0443203  -0.0946004   0.0000000), wk =   0.0138889
        k(   40) = (   0.0443203  -0.0788889   0.0000000), wk =   0.0138889
        k(   41) = (   0.0443203  -0.0631774   0.0000000), wk =   0.0138889
        k(   42) = (   0.0443203  -0.0474659   0.0000000), wk =   0.0138889
        k(   43) = (   0.0443203  -0.0317544   0.0000000), wk =   0.0138889
        k(   44) = (   0.0590938  -0.0213905   0.0000000), wk =   0.0138889
        k(   45) = (   0.0590938  -0.0056790   0.0000000), wk =   0.0138889
        k(   46) = (   0.0590938   0.0100326   0.0000000), wk =   0.0138889
        k(   47) = (   0.0590938   0.0257441   0.0000000), wk =   0.0138889
        k(   48) = (   0.0590938   0.0414556   0.0000000), wk =   0.0138889
        k(   49) = (   0.0590938   0.0571671   0.0000000), wk =   0.0138889
        k(   50) = (   0.0590938  -0.1156596   0.0000000), wk =   0.0138889
        k(   51) = (   0.0590938  -0.0999480   0.0000000), wk =   0.0138889
        k(   52) = (   0.0590938  -0.0842365   0.0000000), wk =   0.0138889
        k(   53) = (   0.0590938  -0.0685250   0.0000000), wk =   0.0138889
        k(   54) = (   0.0590938  -0.0528135   0.0000000), wk =   0.0138889
        k(   55) = (   0.0590938  -0.0371020   0.0000000), wk =   0.0138889
        k(   56) = (   0.0738672  -0.0267381   0.0000000), wk =   0.0138889
        k(   57) = (   0.0738672  -0.0110266   0.0000000), wk =   0.0138889
        k(   58) = (   0.0738672   0.0046849   0.0000000), wk =   0.0138889
        k(   59) = (   0.0738672   0.0203964   0.0000000), wk =   0.0138889
        k(   60) = (   0.0738672   0.0361080   0.0000000), wk =   0.0138889
        k(   61) = (   0.0738672   0.0518195   0.0000000), wk =   0.0138889
        k(   62) = (   0.0738672  -0.1210072   0.0000000), wk =   0.0138889
        k(   63) = (   0.0738672  -0.1052957   0.0000000), wk =   0.0138889
        k(   64) = (   0.0738672  -0.0895841   0.0000000), wk =   0.0138889
        k(   65) = (   0.0738672  -0.0738726   0.0000000), wk =   0.0138889
        k(   66) = (   0.0738672  -0.0581611   0.0000000), wk =   0.0138889
        k(   67) = (   0.0738672  -0.0424496   0.0000000), wk =   0.0138889
        k(   68) = (  -0.0886406   0.0320857   0.0000000), wk =   0.0069444
        k(   69) = (  -0.0886406   0.0477972   0.0000000), wk =   0.0138889
        k(   70) = (  -0.0886406   0.0635087   0.0000000), wk =   0.0138889
        k(   71) = (  -0.0886406   0.0792203   0.0000000), wk =   0.0138889
        k(   72) = (  -0.0886406   0.0949318   0.0000000), wk =   0.0138889
        k(   73) = (  -0.0886406   0.1106433   0.0000000), wk =   0.0138889
        k(   74) = (  -0.0886406  -0.0621834   0.0000000), wk =   0.0069444

     Check: negative core charge=   -0.000003
     Generating pointlists ...
     new r_m :   1.1472 (alat units)  2.1678 (a.u.) for type    1
     new r_m :   1.1472 (alat units)  2.1678 (a.u.) for type    2

     Initial potential from superposition of free atoms

     starting charge  155.99635, renormalised to  156.00000

     %%%%%%%%%%%%%%%%%%%%%%%%%%%%%%%%%%%%%%%%%%%%%%%%%%%%%%%%%%%%%%%%%%%%%%%%
     %                                                                      %
     % You are using vdW-DF, which was implemented by the Thonhauser group. %
     % Please cite the following two papers that made this development      %
     % possible and the two reviews that describe the various versions:     %
     %                                                                      %
     %   T. Thonhauser et al., PRL 115, 136402 (2015).                      %
     %   T. Thonhauser et al., PRB 76, 125112 (2007).                       %
     %   K. Berland et al., Rep. Prog. Phys. 78, 066501 (2015).             %
     %   D.C. Langreth et al., J. Phys.: Condens. Matter 21, 084203 (2009). %
     %                                                                      %
     %                                                                      %
     % If you are calculating the stress with vdW-DF, please also cite:     %
     %                                                                      %
     %   R. Sabatini et al., J. Phys.: Condens. Matter 24, 424209 (2012).   %
     %                                                                      %
     %%%%%%%%%%%%%%%%%%%%%%%%%%%%%%%%%%%%%%%%%%%%%%%%%%%%%%%%%%%%%%%%%%%%%%%%

     Adding external electric field

     Computed dipole along edir(3) :
        Dipole                0.0000 Ry au,          0.0001 Debye
        Dipole field          0.0000 Ry au,

        Potential amp.       -0.0000 Ry
        Total length         45.3568 bohr

[...]

     Starting wfcs are  114 randomized atomic wfcs

     Self-consistent Calculation

     iteration #  1     ecut=    55.12 Ry     beta= 0.10
     Davidson diagonalization with overlap
     ethr =  1.00E-02,  avg # of iterations =  2.4

[...]

     total energy              =   -1806.16492470 Ry
     estimated scf accuracy    <       4.39710345 Ry

     total magnetization       =    30.40 Bohr mag/cell
     absolute magnetization    =    30.51 Bohr mag/cell

[...]

     iteration #  9     ecut=    55.12 Ry     beta= 0.10
     Davidson diagonalization with overlap
     c_bands:  1 eigenvalues not converged
     ethr =  1.36E-05,  avg # of iterations =  6.1

[...]

     iteration # 17     ecut=    55.12 Ry     beta= 0.10
     Davidson diagonalization with overlap
     ethr =  1.28E-07,  avg # of iterations =  3.7

[...]

     total energy              =   -1809.74931428 Ry
     estimated scf accuracy    <       0.00001256 Ry

[...]

     iteration # 19     ecut=    55.12 Ry     beta= 0.10
     Davidson diagonalization with overlap
     c_bands:  1 eigenvalues not converged
     ethr =  8.05E-09,  avg # of iterations =  2.7

[...]

     Adding external electric field

     Computed dipole along edir(3) :
        Dipole                0.0009 Ry au,          0.0023 Debye
        Dipole field          0.0000 Ry au,

        Potential amp.       -0.0002 Ry
        Total length         45.3568 bohr

     Magnetic moment per site:
     atom:    1    charge:   13.4932    magn:    4.1784    constr:    0.0000
     atom:    2    charge:   13.4932    magn:    4.1784    constr:    0.0000
     atom:    3    charge:    9.1050    magn:    0.0862    constr:    0.0000
     atom:    4    charge:    9.1050    magn:    0.0862    constr:    0.0000
     atom:    5    charge:   13.5678    magn:    4.0831    constr:    0.0000
     atom:    6    charge:   13.5678    magn:    4.0831    constr:    0.0000
     atom:    7    charge:    9.1347    magn:    0.0867    constr:    0.0000
     atom:    8    charge:    9.1347    magn:    0.0867    constr:    0.0000
     atom:    9    charge:   13.4946    magn:    4.1761    constr:    0.0000
     atom:   10    charge:   13.4946    magn:    4.1761    constr:    0.0000
     atom:   11    charge:    9.1100    magn:    0.0893    constr:    0.0000
     atom:   12    charge:    9.1100    magn:    0.0893    constr:    0.0000

     End of self-consistent calculation

     Number of k-points >= 100: set verbosity='high' to print the bands.

     the Fermi energy is     0.7445 ev

!    total energy              =   -1807.88716676 Ry
     estimated scf accuracy    <       0.00000547 Ry
     smearing contrib. (-TS)   =      -0.03487704 Ry
     internal energy E=F+TS    =   -1807.85228972 Ry

     The total energy is F=E-TS. E is the sum of the following terms:
     one-electron contribution =  -12520.99213707 Ry
     hartree contribution      =    6298.84217818 Ry
     xc contribution           =    -373.82538405 Ry
     ewald contribution        =    4788.12305322 Ry
     electric field correction =       0.00000000 Ry

     total magnetization       =    26.43 Bohr mag/cell
     absolute magnetization    =    27.23 Bohr mag/cell

     convergence has been achieved in  19 iterations

     Forces acting on atoms (cartesian axes, Ry/au):

     atom    1 type  1   force =    -0.00003409   -0.00001561   -0.00324279
     atom    2 type  1   force =    -0.00002803   -0.00002562   -0.00324598
     atom    3 type  2   force =    -0.00050780   -0.00035442    0.00411035
     atom    4 type  2   force =    -0.00051242   -0.00035480    0.00411237
     atom    5 type  1   force =     0.00006212    0.00004634   -0.00486415
     atom    6 type  1   force =     0.00006836    0.00004357   -0.00485545
     atom    7 type  2   force =     0.00004893    0.00002859   -0.00050780
     atom    8 type  2   force =     0.00004754    0.00003474   -0.00051014
     atom    9 type  1   force =     0.00057616    0.00040902    0.00256668
     atom   10 type  1   force =     0.00059139    0.00040621    0.00256865
     atom   11 type  2   force =    -0.00014950   -0.00010881    0.00193629
     atom   12 type  2   force =    -0.00016266   -0.00010922    0.00193198

     Total force =     0.011188     Total SCF correction =     0.010389
     SCF correction compared to forces is large: reduce conv_thr to get better values

     Writing output data file ./Mn2Au2/Mn2Au2_beef.save/

     General routines

     Parallel routines

   This run was terminated on:  16: 9:47  27Jun2022

   JOB DONE.