     Program PWSCF v.6.6 starts on 27Jun2022 at 22:11:23

     R & G space division:  proc/nbgrp/npool/nimage =      37
     Fft bands division:     nmany     =       1
     Reading input from Mn2Hg2.in
Warning: card &CELL ignored
Warning: card / ignored

     Current dimensions of program PWSCF are:
     Max number of different atomic species (ntypx) = 10
     Max number of k-points (npk) =  40000
     Max angular momentum in pseudopotentials (lmaxx) =  3
     Presently stress not available with electric field and gates

     Message from routine cell_base_init:
     DEPRECATED: use true lattice parameter, not A to a.u. conversion factor
     file Mn.pbe-spn-rrkjus_psl.0.3.1.UPF: wavefunction(s)  3D renormalized
     file Hg.pbe-n-rrkjus_psl.1.0.0.UPF: wavefunction(s)  6S renormalized

     IMPORTANT: XC functional enforced from input :
     Exchange-correlation= BEEF-VDW
                           (   1   4  43  14   2   0   0)
     Any further DFT definition will be discarded
     Please, verify this is what you really want

     Subspace diagonalization in iterative solution of the eigenvalue problem:
     a serial algorithm will be used

     Found symmetry operation: I + ( -0.5000 -0.5000  0.0000)
     This is a supercell, fractional translations are disabled

     bravais-lattice index     =            0
     lattice parameter (alat)  =       1.8897  a.u.
     unit-cell volume          =    5407.0083 (a.u.)^3
     number of atoms/cell      =           12
     number of atomic types    =            2
     number of electrons       =       162.00
     number of Kohn-Sham states=           97
     kinetic-energy cutoff     =      55.1240  Ry
     charge density cutoff     =     551.2396  Ry
     convergence threshold     =      1.0E-05
     mixing beta               =       0.1000
     number of iterations used =           10  plain     mixing
     Exchange-correlation= BEEF-VDW
                           (   1   4  43  14   2   0   0)

     celldm(1)=   1.889726  celldm(2)=   0.000000  celldm(3)=   0.000000
     celldm(4)=   0.000000  celldm(5)=   0.000000  celldm(6)=   0.000000

     crystal axes: (cart. coord. in units of alat)
               a(1) = (   5.871332   0.000000   0.000000 )
               a(2) = (   2.060725   5.497813   0.000000 )
               a(3) = (   0.000000   0.000000  24.821837 )

     reciprocal axes: (cart. coord. in units 2 pi/alat)
               b(1) = (  0.170319 -0.063840  0.000000 )
               b(2) = (  0.000000  0.181891  0.000000 )
               b(3) = (  0.000000  0.000000  0.040287 )

     PseudoPot. # 1 for Mn read from file:
     ../pseudo/Mn.pbe-spn-rrkjus_psl.0.3.1.UPF
     MD5 check sum: e1cac159bdd2ba70c18e85765a5d4279
     Pseudo is Ultrasoft + core correction, Zval = 15.0
     Generated using "atomic" code by A. Dal Corso v.6.2.2
     Using radial grid of 1187 points,  6 beta functions with:
                l(1) =   0
                l(2) =   0
                l(3) =   1
                l(4) =   1
                l(5) =   2
                l(6) =   2
     Q(r) pseudized with 0 coefficients

     PseudoPot. # 2 for Hg read from file:
     ../pseudo/Hg.pbe-n-rrkjus_psl.1.0.0.UPF
     MD5 check sum: 7519ac2e5b9cac440d3cfd4127d6ea3c
     Pseudo is Ultrasoft + core correction, Zval = 12.0
     Generated using "atomic" code by A. Dal Corso v.6.3
     Using radial grid of 1279 points,  6 beta functions with:
                l(1) =   0
                l(2) =   0
                l(3) =   1
                l(4) =   1
                l(5) =   2
                l(6) =   2
     Q(r) pseudized with 0 coefficients

     atomic species   valence    mass     pseudopotential
        Mn            15.00    54.93804     Mn( 1.00)
        Hg            12.00   200.59200     Hg( 1.00)

     Starting magnetic structure
     atomic species   magnetization
        Mn           0.667
        Hg           0.000

     No symmetry found

   Cartesian axes

     site n.     atom                  positions (alat units)
         1           Mn  tau(   1) = (   0.0000000   0.0000000  10.0000000  )
         2           Mn  tau(   2) = (   3.9660288   2.7489067  10.0000000  )
         3           Hg  tau(   3) = (   2.9356661   0.0000000  10.0000000  )
         4           Hg  tau(   4) = (   1.0303627   2.7489067  10.0000000  )
         5           Mn  tau(   5) = (   5.8713322   4.0694976  12.4109185  )
         6           Mn  tau(   6) = (   1.9053034   1.3205909  12.4109185  )
         7           Hg  tau(   7) = (   2.9356661   4.0694976  12.4109185  )
         8           Hg  tau(   8) = (   4.8409695   1.3205909  12.4109185  )
         9           Mn  tau(   9) = (   3.8065477   2.6383676  14.7860993  )
        10           Mn  tau(  10) = (   7.7725542   5.3872581  14.7860656  )
        11           Hg  tau(  11) = (   6.7539609   2.6465080  15.0426000  )
        12           Hg  tau(  12) = (   4.8486550   5.3954222  15.0426027  )

     number of k points=    74  Fermi-Dirac smearing, width (Ry)=  0.0100
                       cart. coord. in units 2pi/alat
        k(    1) = (   0.0000000   0.0000000   0.0000000), wk =   0.0069444
        k(    2) = (   0.0000000   0.0151575   0.0000000), wk =   0.0138889
        k(    3) = (   0.0000000   0.0303151   0.0000000), wk =   0.0138889
        k(    4) = (   0.0000000   0.0454726   0.0000000), wk =   0.0138889
        k(    5) = (   0.0000000   0.0606302   0.0000000), wk =   0.0138889
        k(    6) = (   0.0000000   0.0757877   0.0000000), wk =   0.0138889
        k(    7) = (   0.0000000  -0.0909453   0.0000000), wk =   0.0069444
        k(    8) = (   0.0141933  -0.0053200   0.0000000), wk =   0.0138889
        k(    9) = (   0.0141933   0.0098375   0.0000000), wk =   0.0138889
        k(   10) = (   0.0141933   0.0249951   0.0000000), wk =   0.0138889
        k(   11) = (   0.0141933   0.0401526   0.0000000), wk =   0.0138889
        k(   12) = (   0.0141933   0.0553102   0.0000000), wk =   0.0138889
        k(   13) = (   0.0141933   0.0704677   0.0000000), wk =   0.0138889
        k(   14) = (   0.0141933  -0.0962653   0.0000000), wk =   0.0138889
        k(   15) = (   0.0141933  -0.0811077   0.0000000), wk =   0.0138889
        k(   16) = (   0.0141933  -0.0659502   0.0000000), wk =   0.0138889
        k(   17) = (   0.0141933  -0.0507926   0.0000000), wk =   0.0138889
        k(   18) = (   0.0141933  -0.0356351   0.0000000), wk =   0.0138889
        k(   19) = (   0.0141933  -0.0204775   0.0000000), wk =   0.0138889
        k(   20) = (   0.0283865  -0.0106400   0.0000000), wk =   0.0138889
        k(   21) = (   0.0283865   0.0045175   0.0000000), wk =   0.0138889
        k(   22) = (   0.0283865   0.0196751   0.0000000), wk =   0.0138889
        k(   23) = (   0.0283865   0.0348326   0.0000000), wk =   0.0138889
        k(   24) = (   0.0283865   0.0499902   0.0000000), wk =   0.0138889
        k(   25) = (   0.0283865   0.0651477   0.0000000), wk =   0.0138889
        k(   26) = (   0.0283865  -0.1015853   0.0000000), wk =   0.0138889
        k(   27) = (   0.0283865  -0.0864277   0.0000000), wk =   0.0138889
        k(   28) = (   0.0283865  -0.0712702   0.0000000), wk =   0.0138889
        k(   29) = (   0.0283865  -0.0561126   0.0000000), wk =   0.0138889
        k(   30) = (   0.0283865  -0.0409551   0.0000000), wk =   0.0138889
        k(   31) = (   0.0283865  -0.0257976   0.0000000), wk =   0.0138889
        k(   32) = (   0.0425798  -0.0159600   0.0000000), wk =   0.0138889
        k(   33) = (   0.0425798  -0.0008025   0.0000000), wk =   0.0138889
        k(   34) = (   0.0425798   0.0143551   0.0000000), wk =   0.0138889
        k(   35) = (   0.0425798   0.0295126   0.0000000), wk =   0.0138889
        k(   36) = (   0.0425798   0.0446701   0.0000000), wk =   0.0138889
        k(   37) = (   0.0425798   0.0598277   0.0000000), wk =   0.0138889
        k(   38) = (   0.0425798  -0.1069053   0.0000000), wk =   0.0138889
        k(   39) = (   0.0425798  -0.0917477   0.0000000), wk =   0.0138889
        k(   40) = (   0.0425798  -0.0765902   0.0000000), wk =   0.0138889
        k(   41) = (   0.0425798  -0.0614326   0.0000000), wk =   0.0138889
        k(   42) = (   0.0425798  -0.0462751   0.0000000), wk =   0.0138889
        k(   43) = (   0.0425798  -0.0311176   0.0000000), wk =   0.0138889
        k(   44) = (   0.0567730  -0.0212800   0.0000000), wk =   0.0138889
        k(   45) = (   0.0567730  -0.0061225   0.0000000), wk =   0.0138889
        k(   46) = (   0.0567730   0.0090351   0.0000000), wk =   0.0138889
        k(   47) = (   0.0567730   0.0241926   0.0000000), wk =   0.0138889
        k(   48) = (   0.0567730   0.0393501   0.0000000), wk =   0.0138889
        k(   49) = (   0.0567730   0.0545077   0.0000000), wk =   0.0138889
        k(   50) = (   0.0567730  -0.1122253   0.0000000), wk =   0.0138889
        k(   51) = (   0.0567730  -0.0970677   0.0000000), wk =   0.0138889
        k(   52) = (   0.0567730  -0.0819102   0.0000000), wk =   0.0138889
        k(   53) = (   0.0567730  -0.0667527   0.0000000), wk =   0.0138889
        k(   54) = (   0.0567730  -0.0515951   0.0000000), wk =   0.0138889
        k(   55) = (   0.0567730  -0.0364376   0.0000000), wk =   0.0138889
        k(   56) = (   0.0709663  -0.0266000   0.0000000), wk =   0.0138889
        k(   57) = (   0.0709663  -0.0114425   0.0000000), wk =   0.0138889
        k(   58) = (   0.0709663   0.0037151   0.0000000), wk =   0.0138889
        k(   59) = (   0.0709663   0.0188726   0.0000000), wk =   0.0138889
        k(   60) = (   0.0709663   0.0340301   0.0000000), wk =   0.0138889
        k(   61) = (   0.0709663   0.0491877   0.0000000), wk =   0.0138889
        k(   62) = (   0.0709663  -0.1175453   0.0000000), wk =   0.0138889
        k(   63) = (   0.0709663  -0.1023877   0.0000000), wk =   0.0138889
        k(   64) = (   0.0709663  -0.0872302   0.0000000), wk =   0.0138889
        k(   65) = (   0.0709663  -0.0720727   0.0000000), wk =   0.0138889
        k(   66) = (   0.0709663  -0.0569151   0.0000000), wk =   0.0138889
        k(   67) = (   0.0709663  -0.0417576   0.0000000), wk =   0.0138889
        k(   68) = (  -0.0851596   0.0319200   0.0000000), wk =   0.0069444
        k(   69) = (  -0.0851596   0.0470776   0.0000000), wk =   0.0138889
        k(   70) = (  -0.0851596   0.0622351   0.0000000), wk =   0.0138889
        k(   71) = (  -0.0851596   0.0773927   0.0000000), wk =   0.0138889
        k(   72) = (  -0.0851596   0.0925502   0.0000000), wk =   0.0138889
        k(   73) = (  -0.0851596   0.1077078   0.0000000), wk =   0.0138889
        k(   74) = (  -0.0851596  -0.0590252   0.0000000), wk =   0.0069444

     Check: negative core charge=   -0.000003
     Generating pointlists ...
     new r_m :   1.1989 (alat units)  2.2657 (a.u.) for type    1
     new r_m :   1.1989 (alat units)  2.2657 (a.u.) for type    2

     Initial potential from superposition of free atoms

     starting charge  161.99651, renormalised to  162.00000

     %%%%%%%%%%%%%%%%%%%%%%%%%%%%%%%%%%%%%%%%%%%%%%%%%%%%%%%%%%%%%%%%%%%%%%%%
     %                                                                      %
     % You are using vdW-DF, which was implemented by the Thonhauser group. %
     % Please cite the following two papers that made this development      %
     % possible and the two reviews that describe the various versions:     %
     %                                                                      %
     %   T. Thonhauser et al., PRL 115, 136402 (2015).                      %
     %   T. Thonhauser et al., PRB 76, 125112 (2007).                       %
     %   K. Berland et al., Rep. Prog. Phys. 78, 066501 (2015).             %
     %   D.C. Langreth et al., J. Phys.: Condens. Matter 21, 084203 (2009). %
     %                                                                      %
     %                                                                      %
     % If you are calculating the stress with vdW-DF, please also cite:     %
     %                                                                      %
     %   R. Sabatini et al., J. Phys.: Condens. Matter 24, 424209 (2012).   %
     %                                                                      %
     %%%%%%%%%%%%%%%%%%%%%%%%%%%%%%%%%%%%%%%%%%%%%%%%%%%%%%%%%%%%%%%%%%%%%%%%

     Adding external electric field

     Computed dipole along edir(3) :
        Dipole               -0.0002 Ry au,         -0.0004 Debye
        Dipole field         -0.0000 Ry au,

        Potential amp.        0.0000 Ry
        Total length         45.7338 bohr

[...]

     Starting wfcs are  114 randomized atomic wfcs

     Self-consistent Calculation

     iteration #  1     ecut=    55.12 Ry     beta= 0.10
     Davidson diagonalization with overlap
     ethr =  1.00E-02,  avg # of iterations =  2.6

[...]

     total energy              =   -1893.30901562 Ry
     estimated scf accuracy    <       4.27372146 Ry

     total magnetization       =    30.22 Bohr mag/cell
     absolute magnetization    =    30.56 Bohr mag/cell

[...]

     iteration # 14     ecut=    55.12 Ry     beta= 0.10
     Davidson diagonalization with overlap
     c_bands:  1 eigenvalues not converged
     c_bands:  2 eigenvalues not converged
     ethr =  6.07E-06,  avg # of iterations =  7.0

[...]

     iteration # 18     ecut=    55.12 Ry     beta= 0.10
     Davidson diagonalization with overlap
     c_bands:  1 eigenvalues not converged
     c_bands:  1 eigenvalues not converged
     ethr =  2.13E-07,  avg # of iterations =  8.3

[...]

     total energy              =   -1896.58704949 Ry
     estimated scf accuracy    <       0.00001116 Ry

[...]

     iteration # 23     ecut=    55.12 Ry     beta= 0.10
     Davidson diagonalization with overlap
     ethr =  6.89E-09,  avg # of iterations =  2.1

[...]

     Adding external electric field

     Computed dipole along edir(3) :
        Dipole               -0.0316 Ry au,         -0.0804 Debye
        Dipole field         -0.0001 Ry au,

        Potential amp.        0.0067 Ry
        Total length         45.7338 bohr

     Magnetic moment per site:
     atom:    1    charge:   13.6405    magn:    4.1827    constr:    0.0000
     atom:    2    charge:   13.6405    magn:    4.1827    constr:    0.0000
     atom:    3    charge:   10.2351    magn:   -0.0064    constr:    0.0000
     atom:    4    charge:   10.2351    magn:   -0.0064    constr:    0.0000
     atom:    5    charge:   13.6864    magn:    4.1084    constr:    0.0000
     atom:    6    charge:   13.6864    magn:    4.1084    constr:    0.0000
     atom:    7    charge:   10.2808    magn:   -0.0189    constr:    0.0000
     atom:    8    charge:   10.2808    magn:   -0.0189    constr:    0.0000
     atom:    9    charge:   13.6422    magn:    4.1738    constr:    0.0000
     atom:   10    charge:   13.6422    magn:    4.1738    constr:    0.0000
     atom:   11    charge:   10.2142    magn:   -0.0063    constr:    0.0000
     atom:   12    charge:   10.2142    magn:   -0.0063    constr:    0.0000

     End of self-consistent calculation

     Number of k-points >= 100: set verbosity='high' to print the bands.

     the Fermi energy is     0.6865 ev

!    total energy              =   -1895.53909332 Ry
     estimated scf accuracy    <       0.00000909 Ry
     smearing contrib. (-TS)   =      -0.04732682 Ry
     internal energy E=F+TS    =   -1895.49176650 Ry

     The total energy is F=E-TS. E is the sum of the following terms:
     one-electron contribution =  -12227.16568917 Ry
     hartree contribution      =    6151.00221546 Ry
     xc contribution           =    -375.44856422 Ry
     ewald contribution        =    4556.12026910 Ry
     electric field correction =       0.00000233 Ry

     total magnetization       =    25.59 Bohr mag/cell
     absolute magnetization    =    26.75 Bohr mag/cell

     convergence has been achieved in  23 iterations

     Forces acting on atoms (cartesian axes, Ry/au):

     atom    1 type  1   force =     0.00062269    0.00043033    0.00068902
     atom    2 type  1   force =     0.00062144    0.00042961    0.00069284
     atom    3 type  2   force =    -0.00075532   -0.00052998   -0.01437258
     atom    4 type  2   force =    -0.00076053   -0.00053493   -0.01437529
     atom    5 type  1   force =    -0.00056799   -0.00038337    0.00812338
     atom    6 type  1   force =    -0.00055840   -0.00039632    0.00812521
     atom    7 type  2   force =     0.00073341    0.00050649    0.00302686
     atom    8 type  2   force =     0.00072573    0.00051156    0.00302175
     atom    9 type  1   force =     0.00083278    0.00057891    0.00141527
     atom   10 type  1   force =     0.00084281    0.00058241    0.00141285
     atom   11 type  2   force =    -0.00086660   -0.00059561    0.00112153
     atom   12 type  2   force =    -0.00087003   -0.00059910    0.00111917

     Total force =     0.024097     Total SCF correction =     0.001276

     Writing output data file ./Mn2Hg2/Mn2Hg2_beef.save/

     General routines

     Parallel routines

   This run was terminated on:   2:15:53  28Jun2022

   JOB DONE.