     Program PWSCF v.6.6 starts on 28Jun2022 at 14:13:15

     R & G space division:  proc/nbgrp/npool/nimage =      37
     Fft bands division:     nmany     =       1
     Reading input from Mn2Mo2.in
Warning: card &CELL ignored
Warning: card / ignored

     Current dimensions of program PWSCF are:
     Max number of different atomic species (ntypx) = 10
     Max number of k-points (npk) =  40000
     Max angular momentum in pseudopotentials (lmaxx) =  3
     Presently stress not available with electric field and gates

     Message from routine cell_base_init:
     DEPRECATED: use true lattice parameter, not A to a.u. conversion factor
     file Mn.pbe-spn-rrkjus_psl.0.3.1.UPF: wavefunction(s)  3D renormalized
     file Mo.pbe-spn-rrkjus_psl.1.0.0.UPF: wavefunction(s)  4S renormalized

     IMPORTANT: XC functional enforced from input :
     Exchange-correlation= BEEF-VDW
                           (   1   4  43  14   2   0   0)
     Any further DFT definition will be discarded
     Please, verify this is what you really want

     Subspace diagonalization in iterative solution of the eigenvalue problem:
     a serial algorithm will be used

     bravais-lattice index     =            0
     lattice parameter (alat)  =       1.8897  a.u.
     unit-cell volume          =    4209.3416 (a.u.)^3
     number of atoms/cell      =           12
     number of atomic types    =            2
     number of electrons       =       174.00
     number of Kohn-Sham states=          104
     kinetic-energy cutoff     =      55.1240  Ry
     charge density cutoff     =     551.2396  Ry
     convergence threshold     =      1.0E-05
     mixing beta               =       0.1000
     number of iterations used =           10  plain     mixing
     Exchange-correlation= BEEF-VDW
                           (   1   4  43  14   2   0   0)

     celldm(1)=   1.889726  celldm(2)=   0.000000  celldm(3)=   0.000000
     celldm(4)=   0.000000  celldm(5)=   0.000000  celldm(6)=   0.000000

     crystal axes: (cart. coord. in units of alat)
               a(1) = (   5.236394   0.000000   0.000000 )
               a(2) = (  -2.618197   4.878311   0.000000 )
               a(3) = (   0.000000   0.000000  24.418324 )

     reciprocal axes: (cart. coord. in units 2 pi/alat)
               b(1) = (  0.190971  0.102494 -0.000000 )
               b(2) = (  0.000000  0.204989  0.000000 )
               b(3) = (  0.000000 -0.000000  0.040953 )

     PseudoPot. # 1 for Mn read from file:
     ../pseudo/Mn.pbe-spn-rrkjus_psl.0.3.1.UPF
     MD5 check sum: e1cac159bdd2ba70c18e85765a5d4279
     Pseudo is Ultrasoft + core correction, Zval = 15.0
     Generated using "atomic" code by A. Dal Corso v.6.2.2
     Using radial grid of 1187 points,  6 beta functions with:
                l(1) =   0
                l(2) =   0
                l(3) =   1
                l(4) =   1
                l(5) =   2
                l(6) =   2
     Q(r) pseudized with 0 coefficients

     PseudoPot. # 2 for Mo read from file:
     ../pseudo/Mo.pbe-spn-rrkjus_psl.1.0.0.UPF
     MD5 check sum: 03f09b12e49601d1a456a78ce8b2d514
     Pseudo is Ultrasoft + core correction, Zval = 14.0
     Generated using "atomic" code by A. Dal Corso v.6.3
     Using radial grid of 1229 points,  6 beta functions with:
                l(1) =   0
                l(2) =   0
                l(3) =   1
                l(4) =   1
                l(5) =   2
                l(6) =   2
     Q(r) pseudized with 0 coefficients

     atomic species   valence    mass     pseudopotential
        Mn            15.00    54.93804     Mn( 1.00)
        Mo            14.00    95.95000     Mo( 1.00)

     Starting magnetic structure
     atomic species   magnetization
        Mn           0.667
        Mo           0.000

     No symmetry found

   Cartesian axes

     site n.     atom                  positions (alat units)
         1           Mn  tau(   1) = (   0.0000000   0.0000000  10.0000000  )
         2           Mn  tau(   2) = (   2.6181971   0.0000000  10.0000000  )
         3           Mo  tau(   3) = (   1.3090986   2.4391557  10.0000000  )
         4           Mo  tau(   4) = (  -1.3090986   2.4391557  10.0000000  )
         5           Mn  tau(   5) = (   2.6181971   1.4051903  12.2091619  )
         6           Mn  tau(   6) = (  -0.0000000   1.4051903  12.2091619  )
         7           Mo  tau(   7) = (  -1.3090986   3.8443461  12.2091619  )
         8           Mo  tau(   8) = (   1.3090986   3.8443461  12.2091619  )
         9           Mn  tau(   9) = (   0.0000011   3.0648068  14.5511647  )
        10           Mn  tau(  10) = (   2.6181983   3.0648928  14.5510670  )
        11           Mo  tau(  11) = (   3.9274384   0.6561681  14.3257174  )
        12           Mo  tau(  12) = (   1.3089594   0.6561697  14.3257180  )

     number of k points=    74  Fermi-Dirac smearing, width (Ry)=  0.0100
                       cart. coord. in units 2pi/alat
        k(    1) = (   0.0000000   0.0000000   0.0000000), wk =   0.0069444
        k(    2) = (   0.0000000   0.0170824   0.0000000), wk =   0.0138889
        k(    3) = (   0.0000000   0.0341648   0.0000000), wk =   0.0138889
        k(    4) = (   0.0000000   0.0512472   0.0000000), wk =   0.0138889
        k(    5) = (   0.0000000   0.0683297   0.0000000), wk =   0.0138889
        k(    6) = (   0.0000000   0.0854121   0.0000000), wk =   0.0138889
        k(    7) = (   0.0000000  -0.1024945   0.0000000), wk =   0.0069444
        k(    8) = (   0.0159143   0.0085412   0.0000000), wk =   0.0138889
        k(    9) = (   0.0159143   0.0256236   0.0000000), wk =   0.0138889
        k(   10) = (   0.0159143   0.0427060   0.0000000), wk =   0.0138889
        k(   11) = (   0.0159143   0.0597885   0.0000000), wk =   0.0138889
        k(   12) = (   0.0159143   0.0768709   0.0000000), wk =   0.0138889
        k(   13) = (   0.0159143   0.0939533   0.0000000), wk =   0.0138889
        k(   14) = (   0.0159143  -0.0939533   0.0000000), wk =   0.0138889
        k(   15) = (   0.0159143  -0.0768709   0.0000000), wk =   0.0138889
        k(   16) = (   0.0159143  -0.0597885   0.0000000), wk =   0.0138889
        k(   17) = (   0.0159143  -0.0427060   0.0000000), wk =   0.0138889
        k(   18) = (   0.0159143  -0.0256236   0.0000000), wk =   0.0138889
        k(   19) = (   0.0159143  -0.0085412   0.0000000), wk =   0.0138889
        k(   20) = (   0.0318285   0.0170824   0.0000000), wk =   0.0138889
        k(   21) = (   0.0318285   0.0341648   0.0000000), wk =   0.0138889
        k(   22) = (   0.0318285   0.0512472   0.0000000), wk =   0.0138889
        k(   23) = (   0.0318285   0.0683297   0.0000000), wk =   0.0138889
        k(   24) = (   0.0318285   0.0854121   0.0000000), wk =   0.0138889
        k(   25) = (   0.0318285   0.1024945   0.0000000), wk =   0.0138889
        k(   26) = (   0.0318285  -0.0854121   0.0000000), wk =   0.0138889
        k(   27) = (   0.0318285  -0.0683297   0.0000000), wk =   0.0138889
        k(   28) = (   0.0318285  -0.0512472   0.0000000), wk =   0.0138889
        k(   29) = (   0.0318285  -0.0341648   0.0000000), wk =   0.0138889
        k(   30) = (   0.0318285  -0.0170824   0.0000000), wk =   0.0138889
        k(   31) = (   0.0318285  -0.0000000   0.0000000), wk =   0.0138889
        k(   32) = (   0.0477428   0.0256236   0.0000000), wk =   0.0138889
        k(   33) = (   0.0477428   0.0427060   0.0000000), wk =   0.0138889
        k(   34) = (   0.0477428   0.0597885   0.0000000), wk =   0.0138889
        k(   35) = (   0.0477428   0.0768709   0.0000000), wk =   0.0138889
        k(   36) = (   0.0477428   0.0939533   0.0000000), wk =   0.0138889
        k(   37) = (   0.0477428   0.1110357   0.0000000), wk =   0.0138889
        k(   38) = (   0.0477428  -0.0768709   0.0000000), wk =   0.0138889
        k(   39) = (   0.0477428  -0.0597885   0.0000000), wk =   0.0138889
        k(   40) = (   0.0477428  -0.0427060   0.0000000), wk =   0.0138889
        k(   41) = (   0.0477428  -0.0256236   0.0000000), wk =   0.0138889
        k(   42) = (   0.0477428  -0.0085412   0.0000000), wk =   0.0138889
        k(   43) = (   0.0477428   0.0085412   0.0000000), wk =   0.0138889
        k(   44) = (   0.0636570   0.0341648   0.0000000), wk =   0.0138889
        k(   45) = (   0.0636570   0.0512472   0.0000000), wk =   0.0138889
        k(   46) = (   0.0636570   0.0683297   0.0000000), wk =   0.0138889
        k(   47) = (   0.0636570   0.0854121   0.0000000), wk =   0.0138889
        k(   48) = (   0.0636570   0.1024945   0.0000000), wk =   0.0138889
        k(   49) = (   0.0636570   0.1195769   0.0000000), wk =   0.0138889
        k(   50) = (   0.0636570  -0.0683297   0.0000000), wk =   0.0138889
        k(   51) = (   0.0636570  -0.0512472   0.0000000), wk =   0.0138889
        k(   52) = (   0.0636570  -0.0341648   0.0000000), wk =   0.0138889
        k(   53) = (   0.0636570  -0.0170824   0.0000000), wk =   0.0138889
        k(   54) = (   0.0636570   0.0000000   0.0000000), wk =   0.0138889
        k(   55) = (   0.0636570   0.0170824   0.0000000), wk =   0.0138889
        k(   56) = (   0.0795713   0.0427060   0.0000000), wk =   0.0138889
        k(   57) = (   0.0795713   0.0597885   0.0000000), wk =   0.0138889
        k(   58) = (   0.0795713   0.0768709   0.0000000), wk =   0.0138889
        k(   59) = (   0.0795713   0.0939533   0.0000000), wk =   0.0138889
        k(   60) = (   0.0795713   0.1110357   0.0000000), wk =   0.0138889
        k(   61) = (   0.0795713   0.1281181   0.0000000), wk =   0.0138889
        k(   62) = (   0.0795713  -0.0597885   0.0000000), wk =   0.0138889
        k(   63) = (   0.0795713  -0.0427060   0.0000000), wk =   0.0138889
        k(   64) = (   0.0795713  -0.0256236   0.0000000), wk =   0.0138889
        k(   65) = (   0.0795713  -0.0085412   0.0000000), wk =   0.0138889
        k(   66) = (   0.0795713   0.0085412   0.0000000), wk =   0.0138889
        k(   67) = (   0.0795713   0.0256236   0.0000000), wk =   0.0138889
        k(   68) = (  -0.0954856  -0.0512472   0.0000000), wk =   0.0069444
        k(   69) = (  -0.0954856  -0.0341648   0.0000000), wk =   0.0138889
        k(   70) = (  -0.0954856  -0.0170824   0.0000000), wk =   0.0138889
        k(   71) = (  -0.0954856   0.0000000   0.0000000), wk =   0.0138889
        k(   72) = (  -0.0954856   0.0170824   0.0000000), wk =   0.0138889
        k(   73) = (  -0.0954856   0.0341648   0.0000000), wk =   0.0138889
        k(   74) = (  -0.0954856  -0.1537417   0.0000000), wk =   0.0069444

     Check: negative core charge=   -0.000004
     Generating pointlists ...
     new r_m :   1.0720 (alat units)  2.0259 (a.u.) for type    1
     new r_m :   1.0720 (alat units)  2.0259 (a.u.) for type    2

     Initial potential from superposition of free atoms

     starting charge  173.99172, renormalised to  174.00000

     %%%%%%%%%%%%%%%%%%%%%%%%%%%%%%%%%%%%%%%%%%%%%%%%%%%%%%%%%%%%%%%%%%%%%%%%
     %                                                                      %
     % You are using vdW-DF, which was implemented by the Thonhauser group. %
     % Please cite the following two papers that made this development      %
     % possible and the two reviews that describe the various versions:     %
     %                                                                      %
     %   T. Thonhauser et al., PRL 115, 136402 (2015).                      %
     %   T. Thonhauser et al., PRB 76, 125112 (2007).                       %
     %   K. Berland et al., Rep. Prog. Phys. 78, 066501 (2015).             %
     %   D.C. Langreth et al., J. Phys.: Condens. Matter 21, 084203 (2009). %
     %                                                                      %
     %                                                                      %
     % If you are calculating the stress with vdW-DF, please also cite:     %
     %                                                                      %
     %   R. Sabatini et al., J. Phys.: Condens. Matter 24, 424209 (2012).   %
     %                                                                      %
     %%%%%%%%%%%%%%%%%%%%%%%%%%%%%%%%%%%%%%%%%%%%%%%%%%%%%%%%%%%%%%%%%%%%%%%%

     Adding external electric field

     Computed dipole along edir(3) :
        Dipole               -0.0002 Ry au,         -0.0005 Debye
        Dipole field         -0.0000 Ry au,

        Potential amp.        0.0000 Ry
        Total length         44.9903 bohr

[...]

     Starting wfcs are  120 randomized atomic wfcs

     Self-consistent Calculation

     iteration #  1     ecut=    55.12 Ry     beta= 0.10
     Davidson diagonalization with overlap
     ethr =  1.00E-02,  avg # of iterations =  3.4

[...]

     total energy              =   -2126.33410878 Ry
     estimated scf accuracy    <       8.26015090 Ry

     total magnetization       =    27.20 Bohr mag/cell
     absolute magnetization    =    29.44 Bohr mag/cell

[...]

     iteration #  7     ecut=    55.12 Ry     beta= 0.10
     Davidson diagonalization with overlap
     c_bands:  2 eigenvalues not converged
     ethr =  3.51E-04,  avg # of iterations =  5.2

[...]

     iteration # 24     ecut=    55.12 Ry     beta= 0.10
     Davidson diagonalization with overlap
     c_bands:  1 eigenvalues not converged
     c_bands:  2 eigenvalues not converged
     c_bands:  1 eigenvalues not converged
     ethr =  8.08E-08,  avg # of iterations =  5.9

[...]

     total energy              =   -2130.25490477 Ry
     estimated scf accuracy    <       0.00005383 Ry

[...]

     iteration # 29     ecut=    55.12 Ry     beta= 0.10
     Davidson diagonalization with overlap
     ethr =  1.27E-08,  avg # of iterations =  4.3

[...]

     Adding external electric field

     Computed dipole along edir(3) :
        Dipole                0.0197 Ry au,          0.0501 Debye
        Dipole field          0.0001 Ry au,

        Potential amp.       -0.0053 Ry
        Total length         44.9903 bohr

     Magnetic moment per site:
     atom:    1    charge:   13.4590    magn:    3.1258    constr:    0.0000
     atom:    2    charge:   13.4589    magn:    3.1257    constr:    0.0000
     atom:    3    charge:   11.3891    magn:   -0.4612    constr:    0.0000
     atom:    4    charge:   11.3894    magn:   -0.4612    constr:    0.0000
     atom:    5    charge:   13.5871    magn:    2.2939    constr:    0.0000
     atom:    6    charge:   13.5864    magn:    2.2935    constr:    0.0000
     atom:    7    charge:   11.4158    magn:   -0.1955    constr:    0.0000
     atom:    8    charge:   11.4158    magn:   -0.1955    constr:    0.0000
     atom:    9    charge:   13.4316    magn:    3.2305    constr:    0.0000
     atom:   10    charge:   13.4317    magn:    3.2304    constr:    0.0000
     atom:   11    charge:   11.4022    magn:   -0.5183    constr:    0.0000
     atom:   12    charge:   11.4023    magn:   -0.5183    constr:    0.0000

     End of self-consistent calculation

     Number of k-points >= 100: set verbosity='high' to print the bands.

     the Fermi energy is     1.7220 ev

!    total energy              =   -2129.47407370 Ry
     estimated scf accuracy    <       0.00000660 Ry
     smearing contrib. (-TS)   =      -0.07435961 Ry
     internal energy E=F+TS    =   -2129.39971409 Ry

     The total energy is F=E-TS. E is the sum of the following terms:
     one-electron contribution =  -18140.60755961 Ry
     hartree contribution      =    9066.06952275 Ry
     xc contribution           =    -294.97263616 Ry
     ewald contribution        =    7240.11095775 Ry
     electric field correction =       0.00000116 Ry

     total magnetization       =    15.31 Bohr mag/cell
     absolute magnetization    =    21.71 Bohr mag/cell

     convergence has been achieved in  29 iterations

     Forces acting on atoms (cartesian axes, Ry/au):

     atom    1 type  1   force =     0.00000105   -0.00042917   -0.01590497
     atom    2 type  1   force =     0.00000170   -0.00054756   -0.01599968
     atom    3 type  2   force =     0.00003019   -0.01022358    0.01090236
     atom    4 type  2   force =    -0.00003268   -0.01022342    0.01090185
     atom    5 type  1   force =    -0.00001138    0.01163493   -0.00677318
     atom    6 type  1   force =     0.00001182    0.01167766   -0.00688603
     atom    7 type  2   force =     0.00000839   -0.00112787    0.00856752
     atom    8 type  2   force =    -0.00000936   -0.00113275    0.00856877
     atom    9 type  1   force =    -0.00000074    0.00009050    0.00186252
     atom   10 type  1   force =     0.00000253    0.00014554    0.00195247
     atom   11 type  2   force =    -0.00010599    0.00006666    0.00140308
     atom   12 type  2   force =     0.00010447    0.00006904    0.00140529

     Total force =     0.038495     Total SCF correction =     0.006170
     SCF correction compared to forces is large: reduce conv_thr to get better values

     Writing output data file ./Mn2Mo2/Mn2Mo2_beef.save/

     General routines

     Parallel routines

   This run was terminated on:  17:58:22  28Jun2022

   JOB DONE.