     Program PWSCF v.6.6 starts on 28Jun2022 at 23:11:40

     R & G space division:  proc/nbgrp/npool/nimage =      37
     Fft bands division:     nmany     =       1
     Reading input from Mn2Ni2.in
Warning: card &CELL ignored
Warning: card / ignored

     Current dimensions of program PWSCF are:
     Max number of different atomic species (ntypx) = 10
     Max number of k-points (npk) =  40000
     Max angular momentum in pseudopotentials (lmaxx) =  3
     Presently stress not available with electric field and gates

     Message from routine cell_base_init:
     DEPRECATED: use true lattice parameter, not A to a.u. conversion factor
     file Mn.pbe-spn-rrkjus_psl.0.3.1.UPF: wavefunction(s)  3D renormalized
     file Ni.pbe-n-rrkjus_psl.1.0.0.UPF: wavefunction(s)  3D renormalized

     IMPORTANT: XC functional enforced from input :
     Exchange-correlation= BEEF-VDW
                           (   1   4  43  14   2   0   0)
     Any further DFT definition will be discarded
     Please, verify this is what you really want

     Subspace diagonalization in iterative solution of the eigenvalue problem:
     a serial algorithm will be used

     bravais-lattice index     =            0
     lattice parameter (alat)  =       1.8897  a.u.
     unit-cell volume          =    3997.1234 (a.u.)^3
     number of atoms/cell      =           12
     number of atomic types    =            2
     number of electrons       =       150.00
     number of Kohn-Sham states=           90
     kinetic-energy cutoff     =      55.1240  Ry
     charge density cutoff     =     551.2396  Ry
     convergence threshold     =      1.0E-05
     mixing beta               =       0.1000
     number of iterations used =           10  plain     mixing
     Exchange-correlation= BEEF-VDW
                           (   1   4  43  14   2   0   0)

     celldm(1)=   1.889726  celldm(2)=   0.000000  celldm(3)=   0.000000
     celldm(4)=   0.000000  celldm(5)=   0.000000  celldm(6)=   0.000000

     crystal axes: (cart. coord. in units of alat)
               a(1) = (   5.090291   0.000000   0.000000 )
               a(2) = (   1.632879   4.821283   0.000000 )
               a(3) = (   0.000000   0.000000  24.134917 )

     reciprocal axes: (cart. coord. in units 2 pi/alat)
               b(1) = (  0.196452 -0.066535  0.000000 )
               b(2) = (  0.000000  0.207414  0.000000 )
               b(3) = (  0.000000  0.000000  0.041434 )

     PseudoPot. # 1 for Mn read from file:
     ../pseudo/Mn.pbe-spn-rrkjus_psl.0.3.1.UPF
     MD5 check sum: e1cac159bdd2ba70c18e85765a5d4279
     Pseudo is Ultrasoft + core correction, Zval = 15.0
     Generated using "atomic" code by A. Dal Corso v.6.2.2
     Using radial grid of 1187 points,  6 beta functions with:
                l(1) =   0
                l(2) =   0
                l(3) =   1
                l(4) =   1
                l(5) =   2
                l(6) =   2
     Q(r) pseudized with 0 coefficients

     PseudoPot. # 2 for Ni read from file:
     ../pseudo/Ni.pbe-n-rrkjus_psl.1.0.0.UPF
     MD5 check sum: 9f76af1bddcd5839b31985483df98d0a
     Pseudo is Ultrasoft + core correction, Zval = 10.0
     Generated using "atomic" code by A. Dal Corso v.6.5
     Using radial grid of 1195 points,  6 beta functions with:
                l(1) =   0
                l(2) =   0
                l(3) =   1
                l(4) =   1
                l(5) =   2
                l(6) =   2
     Q(r) pseudized with 0 coefficients

     atomic species   valence    mass     pseudopotential
        Mn            15.00    54.93804     Mn( 1.00)
        Ni            10.00    58.69340     Ni( 1.00)

     Starting magnetic structure
     atomic species   magnetization
        Mn           0.667
        Ni           0.500

     No symmetry found

   Cartesian axes

     site n.     atom                  positions (alat units)
         1           Mn  tau(   1) = (   0.0000000   0.0000000  10.0000000  )
         2           Mn  tau(   2) = (   3.3615850   2.4106416  10.0000000  )
         3           Ni  tau(   3) = (   2.5451456   0.0000000  10.0000000  )
         4           Ni  tau(   4) = (   0.8164394   2.4106416  10.0000000  )
         5           Mn  tau(   5) = (   5.0902912   3.6503220  12.0674587  )
         6           Mn  tau(   6) = (   1.7287062   1.2396804  12.0674587  )
         7           Ni  tau(   7) = (   2.5451456   3.6503220  12.0674587  )
         8           Ni  tau(   8) = (   4.2738518   1.2396804  12.0674587  )
         9           Mn  tau(   9) = (   3.4452305   2.4706150  14.1897511  )
        10           Mn  tau(  10) = (   0.0838510   0.0601393  14.1897556  )
        11           Ni  tau(  11) = (   0.9032460   2.4731879  14.0066782  )
        12           Ni  tau(  12) = (   2.6322269   0.0621520  14.0066446  )

     number of k points=    74  Fermi-Dirac smearing, width (Ry)=  0.0100
                       cart. coord. in units 2pi/alat
        k(    1) = (   0.0000000   0.0000000   0.0000000), wk =   0.0069444
        k(    2) = (   0.0000000   0.0172845   0.0000000), wk =   0.0138889
        k(    3) = (   0.0000000   0.0345689   0.0000000), wk =   0.0138889
        k(    4) = (   0.0000000   0.0518534   0.0000000), wk =   0.0138889
        k(    5) = (   0.0000000   0.0691379   0.0000000), wk =   0.0138889
        k(    6) = (   0.0000000   0.0864224   0.0000000), wk =   0.0138889
        k(    7) = (   0.0000000  -0.1037068   0.0000000), wk =   0.0069444
        k(    8) = (   0.0163710  -0.0055446   0.0000000), wk =   0.0138889
        k(    9) = (   0.0163710   0.0117399   0.0000000), wk =   0.0138889
        k(   10) = (   0.0163710   0.0290244   0.0000000), wk =   0.0138889
        k(   11) = (   0.0163710   0.0463089   0.0000000), wk =   0.0138889
        k(   12) = (   0.0163710   0.0635933   0.0000000), wk =   0.0138889
        k(   13) = (   0.0163710   0.0808778   0.0000000), wk =   0.0138889
        k(   14) = (   0.0163710  -0.1092514   0.0000000), wk =   0.0138889
        k(   15) = (   0.0163710  -0.0919669   0.0000000), wk =   0.0138889
        k(   16) = (   0.0163710  -0.0746825   0.0000000), wk =   0.0138889
        k(   17) = (   0.0163710  -0.0573980   0.0000000), wk =   0.0138889
        k(   18) = (   0.0163710  -0.0401135   0.0000000), wk =   0.0138889
        k(   19) = (   0.0163710  -0.0228290   0.0000000), wk =   0.0138889
        k(   20) = (   0.0327421  -0.0110891   0.0000000), wk =   0.0138889
        k(   21) = (   0.0327421   0.0061953   0.0000000), wk =   0.0138889
        k(   22) = (   0.0327421   0.0234798   0.0000000), wk =   0.0138889
        k(   23) = (   0.0327421   0.0407643   0.0000000), wk =   0.0138889
        k(   24) = (   0.0327421   0.0580488   0.0000000), wk =   0.0138889
        k(   25) = (   0.0327421   0.0753332   0.0000000), wk =   0.0138889
        k(   26) = (   0.0327421  -0.1147960   0.0000000), wk =   0.0138889
        k(   27) = (   0.0327421  -0.0975115   0.0000000), wk =   0.0138889
        k(   28) = (   0.0327421  -0.0802270   0.0000000), wk =   0.0138889
        k(   29) = (   0.0327421  -0.0629425   0.0000000), wk =   0.0138889
        k(   30) = (   0.0327421  -0.0456581   0.0000000), wk =   0.0138889
        k(   31) = (   0.0327421  -0.0283736   0.0000000), wk =   0.0138889
        k(   32) = (   0.0491131  -0.0166337   0.0000000), wk =   0.0138889
        k(   33) = (   0.0491131   0.0006508   0.0000000), wk =   0.0138889
        k(   34) = (   0.0491131   0.0179352   0.0000000), wk =   0.0138889
        k(   35) = (   0.0491131   0.0352197   0.0000000), wk =   0.0138889
        k(   36) = (   0.0491131   0.0525042   0.0000000), wk =   0.0138889
        k(   37) = (   0.0491131   0.0697887   0.0000000), wk =   0.0138889
        k(   38) = (   0.0491131  -0.1203405   0.0000000), wk =   0.0138889
        k(   39) = (   0.0491131  -0.1030561   0.0000000), wk =   0.0138889
        k(   40) = (   0.0491131  -0.0857716   0.0000000), wk =   0.0138889
        k(   41) = (   0.0491131  -0.0684871   0.0000000), wk =   0.0138889
        k(   42) = (   0.0491131  -0.0512026   0.0000000), wk =   0.0138889
        k(   43) = (   0.0491131  -0.0339182   0.0000000), wk =   0.0138889
        k(   44) = (   0.0654841  -0.0221783   0.0000000), wk =   0.0138889
        k(   45) = (   0.0654841  -0.0048938   0.0000000), wk =   0.0138889
        k(   46) = (   0.0654841   0.0123907   0.0000000), wk =   0.0138889
        k(   47) = (   0.0654841   0.0296752   0.0000000), wk =   0.0138889
        k(   48) = (   0.0654841   0.0469596   0.0000000), wk =   0.0138889
        k(   49) = (   0.0654841   0.0642441   0.0000000), wk =   0.0138889
        k(   50) = (   0.0654841  -0.1258851   0.0000000), wk =   0.0138889
        k(   51) = (   0.0654841  -0.1086006   0.0000000), wk =   0.0138889
        k(   52) = (   0.0654841  -0.0913162   0.0000000), wk =   0.0138889
        k(   53) = (   0.0654841  -0.0740317   0.0000000), wk =   0.0138889
        k(   54) = (   0.0654841  -0.0567472   0.0000000), wk =   0.0138889
        k(   55) = (   0.0654841  -0.0394627   0.0000000), wk =   0.0138889
        k(   56) = (   0.0818552  -0.0277228   0.0000000), wk =   0.0138889
        k(   57) = (   0.0818552  -0.0104384   0.0000000), wk =   0.0138889
        k(   58) = (   0.0818552   0.0068461   0.0000000), wk =   0.0138889
        k(   59) = (   0.0818552   0.0241306   0.0000000), wk =   0.0138889
        k(   60) = (   0.0818552   0.0414151   0.0000000), wk =   0.0138889
        k(   61) = (   0.0818552   0.0586995   0.0000000), wk =   0.0138889
        k(   62) = (   0.0818552  -0.1314297   0.0000000), wk =   0.0138889
        k(   63) = (   0.0818552  -0.1141452   0.0000000), wk =   0.0138889
        k(   64) = (   0.0818552  -0.0968607   0.0000000), wk =   0.0138889
        k(   65) = (   0.0818552  -0.0795762   0.0000000), wk =   0.0138889
        k(   66) = (   0.0818552  -0.0622918   0.0000000), wk =   0.0138889
        k(   67) = (   0.0818552  -0.0450073   0.0000000), wk =   0.0138889
        k(   68) = (  -0.0982262   0.0332674   0.0000000), wk =   0.0069444
        k(   69) = (  -0.0982262   0.0505519   0.0000000), wk =   0.0138889
        k(   70) = (  -0.0982262   0.0678363   0.0000000), wk =   0.0138889
        k(   71) = (  -0.0982262   0.0851208   0.0000000), wk =   0.0138889
        k(   72) = (  -0.0982262   0.1024053   0.0000000), wk =   0.0138889
        k(   73) = (  -0.0982262   0.1196898   0.0000000), wk =   0.0138889
        k(   74) = (  -0.0982262  -0.0704394   0.0000000), wk =   0.0069444

     Check: negative core charge=   -0.000003
     Generating pointlists ...
     new r_m :   1.0072 (alat units)  1.9033 (a.u.) for type    1
     new r_m :   1.0072 (alat units)  1.9033 (a.u.) for type    2

     Initial potential from superposition of free atoms

     starting charge  149.99553, renormalised to  150.00000

     %%%%%%%%%%%%%%%%%%%%%%%%%%%%%%%%%%%%%%%%%%%%%%%%%%%%%%%%%%%%%%%%%%%%%%%%
     %                                                                      %
     % You are using vdW-DF, which was implemented by the Thonhauser group. %
     % Please cite the following two papers that made this development      %
     % possible and the two reviews that describe the various versions:     %
     %                                                                      %
     %   T. Thonhauser et al., PRL 115, 136402 (2015).                      %
     %   T. Thonhauser et al., PRB 76, 125112 (2007).                       %
     %   K. Berland et al., Rep. Prog. Phys. 78, 066501 (2015).             %
     %   D.C. Langreth et al., J. Phys.: Condens. Matter 21, 084203 (2009). %
     %                                                                      %
     %                                                                      %
     % If you are calculating the stress with vdW-DF, please also cite:     %
     %                                                                      %
     %   R. Sabatini et al., J. Phys.: Condens. Matter 24, 424209 (2012).   %
     %                                                                      %
     %%%%%%%%%%%%%%%%%%%%%%%%%%%%%%%%%%%%%%%%%%%%%%%%%%%%%%%%%%%%%%%%%%%%%%%%

     Adding external electric field

     Computed dipole along edir(3) :
        Dipole                0.0000 Ry au,          0.0001 Debye
        Dipole field          0.0000 Ry au,

        Potential amp.       -0.0000 Ry
        Total length         44.4682 bohr

[...]

     Starting wfcs are  114 randomized atomic wfcs

     Self-consistent Calculation

     iteration #  1     ecut=    55.12 Ry     beta= 0.10
     Davidson diagonalization with overlap
     ethr =  1.00E-02,  avg # of iterations =  2.0

[...]

     total energy              =   -1896.15166480 Ry
     estimated scf accuracy    <      13.77680523 Ry

     total magnetization       =    30.00 Bohr mag/cell
     absolute magnetization    =    30.31 Bohr mag/cell

[...]

     iteration # 11     ecut=    55.12 Ry     beta= 0.10
     Davidson diagonalization with overlap
     c_bands:  1 eigenvalues not converged
     c_bands:  1 eigenvalues not converged
     c_bands:  2 eigenvalues not converged
     ethr =  2.01E-05,  avg # of iterations =  9.0

[...]

     iteration # 18     ecut=    55.12 Ry     beta= 0.10
     Davidson diagonalization with overlap
     c_bands:  1 eigenvalues not converged
     ethr =  1.68E-07,  avg # of iterations =  8.1

[...]

     total energy              =   -1900.86246802 Ry
     estimated scf accuracy    <       0.00001801 Ry

[...]

     iteration # 22     ecut=    55.12 Ry     beta= 0.10
     Davidson diagonalization with overlap
     ethr =  1.20E-08,  avg # of iterations =  4.1

[...]

     Adding external electric field

     Computed dipole along edir(3) :
        Dipole                0.0327 Ry au,          0.0830 Debye
        Dipole field          0.0001 Ry au,

        Potential amp.       -0.0091 Ry
        Total length         44.4682 bohr

     Magnetic moment per site:
     atom:    1    charge:   13.0717    magn:    3.6949    constr:    0.0000
     atom:    2    charge:   13.0717    magn:    3.6949    constr:    0.0000
     atom:    3    charge:    8.5728    magn:    0.6299    constr:    0.0000
     atom:    4    charge:    8.5725    magn:    0.6301    constr:    0.0000
     atom:    5    charge:   13.1417    magn:    3.4168    constr:    0.0000
     atom:    6    charge:   13.1416    magn:    3.4169    constr:    0.0000
     atom:    7    charge:    8.6068    magn:    0.7353    constr:    0.0000
     atom:    8    charge:    8.6068    magn:    0.7353    constr:    0.0000
     atom:    9    charge:   13.0600    magn:    3.7238    constr:    0.0000
     atom:   10    charge:   13.0600    magn:    3.7238    constr:    0.0000
     atom:   11    charge:    8.5994    magn:    0.6165    constr:    0.0000
     atom:   12    charge:    8.5996    magn:    0.6164    constr:    0.0000

     End of self-consistent calculation

     Number of k-points >= 100: set verbosity='high' to print the bands.

     the Fermi energy is     0.1640 ev

!    total energy              =   -1899.64422995 Ry
     estimated scf accuracy    <       0.00000488 Ry
     smearing contrib. (-TS)   =      -0.03771366 Ry
     internal energy E=F+TS    =   -1899.60651629 Ry

     The total energy is F=E-TS. E is the sum of the following terms:
     one-electron contribution =  -14644.46611971 Ry
     hartree contribution      =    7381.96767693 Ry
     xc contribution           =    -432.78257397 Ry
     ewald contribution        =    5795.67449710 Ry
     electric field correction =       0.00000336 Ry

     total magnetization       =    26.76 Bohr mag/cell
     absolute magnetization    =    27.69 Bohr mag/cell

     convergence has been achieved in  22 iterations

     Forces acting on atoms (cartesian axes, Ry/au):

     atom    1 type  1   force =     0.00248487    0.00178886   -0.01023118
     atom    2 type  1   force =     0.00248428    0.00178380   -0.01023581
     atom    3 type  2   force =     0.00032933    0.00023839    0.01984792
     atom    4 type  2   force =     0.00032003    0.00023149    0.01986834
     atom    5 type  1   force =    -0.00112213   -0.00092518   -0.01551411
     atom    6 type  1   force =    -0.00123356   -0.00076546   -0.01547325
     atom    7 type  2   force =     0.00042236    0.00030023    0.00326627
     atom    8 type  2   force =     0.00049900    0.00036022    0.00326973
     atom    9 type  1   force =    -0.00084966   -0.00061921    0.00123914
     atom   10 type  1   force =    -0.00085206   -0.00061048    0.00124626
     atom   11 type  2   force =    -0.00123058   -0.00091083    0.00135116
     atom   12 type  2   force =    -0.00125188   -0.00087184    0.00136554

     Total force =     0.039207     Total SCF correction =     0.006752
     SCF correction compared to forces is large: reduce conv_thr to get better values

     Writing output data file ./Mn2Ni2/Mn2Ni2_beef.save/

     General routines

     Parallel routines

   This run was terminated on:   1:21:18  29Jun2022

   JOB DONE.