     Program PWSCF v.6.6 starts on 28Jun2022 at 18: 0:23

     R & G space division:  proc/nbgrp/npool/nimage =      37
     Fft bands division:     nmany     =       1
     Reading input from Mn2Nb2.in
Warning: card &CELL ignored
Warning: card / ignored

     Current dimensions of program PWSCF are:
     Max number of different atomic species (ntypx) = 10
     Max number of k-points (npk) =  40000
     Max angular momentum in pseudopotentials (lmaxx) =  3
     Presently stress not available with electric field and gates

     Message from routine cell_base_init:
     DEPRECATED: use true lattice parameter, not A to a.u. conversion factor
     file Mn.pbe-spn-rrkjus_psl.0.3.1.UPF: wavefunction(s)  3D renormalized
     file Nb.pbe-spn-rrkjus_psl.1.0.0.UPF: wavefunction(s)  4S 4P renormalized

     IMPORTANT: XC functional enforced from input :
     Exchange-correlation= BEEF-VDW
                           (   1   4  43  14   2   0   0)
     Any further DFT definition will be discarded
     Please, verify this is what you really want

     Subspace diagonalization in iterative solution of the eigenvalue problem:
     a serial algorithm will be used

     Found symmetry operation: I + (  0.5000 -0.5000  0.0000)
     This is a supercell, fractional translations are disabled

     bravais-lattice index     =            0
     lattice parameter (alat)  =       1.8897  a.u.
     unit-cell volume          =    4367.2225 (a.u.)^3
     number of atoms/cell      =           12
     number of atomic types    =            2
     number of electrons       =       168.00
     number of Kohn-Sham states=          101
     kinetic-energy cutoff     =      55.1240  Ry
     charge density cutoff     =     551.2396  Ry
     convergence threshold     =      1.0E-05
     mixing beta               =       0.1000
     number of iterations used =           10  plain     mixing
     Exchange-correlation= BEEF-VDW
                           (   1   4  43  14   2   0   0)

     celldm(1)=   1.889726  celldm(2)=   0.000000  celldm(3)=   0.000000
     celldm(4)=   0.000000  celldm(5)=   0.000000  celldm(6)=   0.000000

     crystal axes: (cart. coord. in units of alat)
               a(1) = (   5.310954   0.000000   0.000000 )
               a(2) = (   1.770951   5.006992   0.000000 )
               a(3) = (   0.000000   0.000000  24.336570 )

     reciprocal axes: (cart. coord. in units 2 pi/alat)
               b(1) = (  0.188290 -0.066597  0.000000 )
               b(2) = (  0.000000  0.199721  0.000000 )
               b(3) = (  0.000000  0.000000  0.041090 )

     PseudoPot. # 1 for Mn read from file:
     ../pseudo/Mn.pbe-spn-rrkjus_psl.0.3.1.UPF
     MD5 check sum: e1cac159bdd2ba70c18e85765a5d4279
     Pseudo is Ultrasoft + core correction, Zval = 15.0
     Generated using "atomic" code by A. Dal Corso v.6.2.2
     Using radial grid of 1187 points,  6 beta functions with:
                l(1) =   0
                l(2) =   0
                l(3) =   1
                l(4) =   1
                l(5) =   2
                l(6) =   2
     Q(r) pseudized with 0 coefficients

     PseudoPot. # 2 for Nb read from file:
     ../pseudo/Nb.pbe-spn-rrkjus_psl.1.0.0.UPF
     MD5 check sum: 6ee677a9f002bd3e3657f443f129faad
     Pseudo is Ultrasoft + core correction, Zval = 13.0
     Generated using "atomic" code by A. Dal Corso v.6.2.2
     Using radial grid of 1227 points,  6 beta functions with:
                l(1) =   0
                l(2) =   0
                l(3) =   1
                l(4) =   1
                l(5) =   2
                l(6) =   2
     Q(r) pseudized with 0 coefficients

     atomic species   valence    mass     pseudopotential
        Mn            15.00    54.93804     Mn( 1.00)
        Nb            13.00    92.90637     Nb( 1.00)

     Starting magnetic structure
     atomic species   magnetization
        Mn           0.667
        Nb           0.000

     No symmetry found

   Cartesian axes

     site n.     atom                  positions (alat units)
         1           Mn  tau(   1) = (   0.0000000   0.0000000  10.0000000  )
         2           Mn  tau(   2) = (   3.5409525   2.5034961  10.0000000  )
         3           Nb  tau(   3) = (   2.6554772   0.0000000  10.0000000  )
         4           Nb  tau(   4) = (   0.8854753   2.5034961  10.0000000  )
         5           Mn  tau(   5) = (   5.3109545   3.7549088  12.1682848  )
         6           Mn  tau(   6) = (   1.7700019   1.2514127  12.1682848  )
         7           Nb  tau(   7) = (   2.6554772   3.7549088  12.1682848  )
         8           Nb  tau(   8) = (   4.4254792   1.2514127  12.1682848  )
         9           Mn  tau(   9) = (   3.5402955   2.5030283  14.2144340  )
        10           Mn  tau(  10) = (   7.0812785   5.0065529  14.2144736  )
        11           Nb  tau(  11) = (   6.1958400   2.5030745  14.3960603  )
        12           Nb  tau(  12) = (   4.4258307   5.0065748  14.3960601  )

     number of k points=    74  Fermi-Dirac smearing, width (Ry)=  0.0100
                       cart. coord. in units 2pi/alat
        k(    1) = (   0.0000000   0.0000000   0.0000000), wk =   0.0069444
        k(    2) = (   0.0000000   0.0166434   0.0000000), wk =   0.0138889
        k(    3) = (   0.0000000   0.0332868   0.0000000), wk =   0.0138889
        k(    4) = (   0.0000000   0.0499302   0.0000000), wk =   0.0138889
        k(    5) = (   0.0000000   0.0665736   0.0000000), wk =   0.0138889
        k(    6) = (   0.0000000   0.0832170   0.0000000), wk =   0.0138889
        k(    7) = (   0.0000000  -0.0998604   0.0000000), wk =   0.0069444
        k(    8) = (   0.0156908  -0.0055498   0.0000000), wk =   0.0138889
        k(    9) = (   0.0156908   0.0110936   0.0000000), wk =   0.0138889
        k(   10) = (   0.0156908   0.0277370   0.0000000), wk =   0.0138889
        k(   11) = (   0.0156908   0.0443804   0.0000000), wk =   0.0138889
        k(   12) = (   0.0156908   0.0610238   0.0000000), wk =   0.0138889
        k(   13) = (   0.0156908   0.0776672   0.0000000), wk =   0.0138889
        k(   14) = (   0.0156908  -0.1054101   0.0000000), wk =   0.0138889
        k(   15) = (   0.0156908  -0.0887667   0.0000000), wk =   0.0138889
        k(   16) = (   0.0156908  -0.0721234   0.0000000), wk =   0.0138889
        k(   17) = (   0.0156908  -0.0554800   0.0000000), wk =   0.0138889
        k(   18) = (   0.0156908  -0.0388366   0.0000000), wk =   0.0138889
        k(   19) = (   0.0156908  -0.0221932   0.0000000), wk =   0.0138889
        k(   20) = (   0.0313817  -0.0110996   0.0000000), wk =   0.0138889
        k(   21) = (   0.0313817   0.0055438   0.0000000), wk =   0.0138889
        k(   22) = (   0.0313817   0.0221872   0.0000000), wk =   0.0138889
        k(   23) = (   0.0313817   0.0388306   0.0000000), wk =   0.0138889
        k(   24) = (   0.0313817   0.0554740   0.0000000), wk =   0.0138889
        k(   25) = (   0.0313817   0.0721174   0.0000000), wk =   0.0138889
        k(   26) = (   0.0313817  -0.1109599   0.0000000), wk =   0.0138889
        k(   27) = (   0.0313817  -0.0943165   0.0000000), wk =   0.0138889
        k(   28) = (   0.0313817  -0.0776731   0.0000000), wk =   0.0138889
        k(   29) = (   0.0313817  -0.0610297   0.0000000), wk =   0.0138889
        k(   30) = (   0.0313817  -0.0443863   0.0000000), wk =   0.0138889
        k(   31) = (   0.0313817  -0.0277430   0.0000000), wk =   0.0138889
        k(   32) = (   0.0470725  -0.0166493   0.0000000), wk =   0.0138889
        k(   33) = (   0.0470725  -0.0000060   0.0000000), wk =   0.0138889
        k(   34) = (   0.0470725   0.0166374   0.0000000), wk =   0.0138889
        k(   35) = (   0.0470725   0.0332808   0.0000000), wk =   0.0138889
        k(   36) = (   0.0470725   0.0499242   0.0000000), wk =   0.0138889
        k(   37) = (   0.0470725   0.0665676   0.0000000), wk =   0.0138889
        k(   38) = (   0.0470725  -0.1165097   0.0000000), wk =   0.0138889
        k(   39) = (   0.0470725  -0.0998663   0.0000000), wk =   0.0138889
        k(   40) = (   0.0470725  -0.0832229   0.0000000), wk =   0.0138889
        k(   41) = (   0.0470725  -0.0665795   0.0000000), wk =   0.0138889
        k(   42) = (   0.0470725  -0.0499361   0.0000000), wk =   0.0138889
        k(   43) = (   0.0470725  -0.0332927   0.0000000), wk =   0.0138889
        k(   44) = (   0.0627634  -0.0221991   0.0000000), wk =   0.0138889
        k(   45) = (   0.0627634  -0.0055557   0.0000000), wk =   0.0138889
        k(   46) = (   0.0627634   0.0110877   0.0000000), wk =   0.0138889
        k(   47) = (   0.0627634   0.0277311   0.0000000), wk =   0.0138889
        k(   48) = (   0.0627634   0.0443744   0.0000000), wk =   0.0138889
        k(   49) = (   0.0627634   0.0610178   0.0000000), wk =   0.0138889
        k(   50) = (   0.0627634  -0.1220595   0.0000000), wk =   0.0138889
        k(   51) = (   0.0627634  -0.1054161   0.0000000), wk =   0.0138889
        k(   52) = (   0.0627634  -0.0887727   0.0000000), wk =   0.0138889
        k(   53) = (   0.0627634  -0.0721293   0.0000000), wk =   0.0138889
        k(   54) = (   0.0627634  -0.0554859   0.0000000), wk =   0.0138889
        k(   55) = (   0.0627634  -0.0388425   0.0000000), wk =   0.0138889
        k(   56) = (   0.0784542  -0.0277489   0.0000000), wk =   0.0138889
        k(   57) = (   0.0784542  -0.0111055   0.0000000), wk =   0.0138889
        k(   58) = (   0.0784542   0.0055379   0.0000000), wk =   0.0138889
        k(   59) = (   0.0784542   0.0221813   0.0000000), wk =   0.0138889
        k(   60) = (   0.0784542   0.0388247   0.0000000), wk =   0.0138889
        k(   61) = (   0.0784542   0.0554681   0.0000000), wk =   0.0138889
        k(   62) = (   0.0784542  -0.1276093   0.0000000), wk =   0.0138889
        k(   63) = (   0.0784542  -0.1109659   0.0000000), wk =   0.0138889
        k(   64) = (   0.0784542  -0.0943225   0.0000000), wk =   0.0138889
        k(   65) = (   0.0784542  -0.0776791   0.0000000), wk =   0.0138889
        k(   66) = (   0.0784542  -0.0610357   0.0000000), wk =   0.0138889
        k(   67) = (   0.0784542  -0.0443923   0.0000000), wk =   0.0138889
        k(   68) = (  -0.0941450   0.0332987   0.0000000), wk =   0.0069444
        k(   69) = (  -0.0941450   0.0499421   0.0000000), wk =   0.0138889
        k(   70) = (  -0.0941450   0.0665855   0.0000000), wk =   0.0138889
        k(   71) = (  -0.0941450   0.0832289   0.0000000), wk =   0.0138889
        k(   72) = (  -0.0941450   0.0998723   0.0000000), wk =   0.0138889
        k(   73) = (  -0.0941450   0.1165156   0.0000000), wk =   0.0138889
        k(   74) = (  -0.0941450  -0.0665617   0.0000000), wk =   0.0069444

     Check: negative core charge=   -0.000004
     Generating pointlists ...
     new r_m :   1.0546 (alat units)  1.9930 (a.u.) for type    1
     new r_m :   1.0546 (alat units)  1.9930 (a.u.) for type    2

     Initial potential from superposition of free atoms

     starting charge  167.98916, renormalised to  168.00000

     %%%%%%%%%%%%%%%%%%%%%%%%%%%%%%%%%%%%%%%%%%%%%%%%%%%%%%%%%%%%%%%%%%%%%%%%
     %                                                                      %
     % You are using vdW-DF, which was implemented by the Thonhauser group. %
     % Please cite the following two papers that made this development      %
     % possible and the two reviews that describe the various versions:     %
     %                                                                      %
     %   T. Thonhauser et al., PRL 115, 136402 (2015).                      %
     %   T. Thonhauser et al., PRB 76, 125112 (2007).                       %
     %   K. Berland et al., Rep. Prog. Phys. 78, 066501 (2015).             %
     %   D.C. Langreth et al., J. Phys.: Condens. Matter 21, 084203 (2009). %
     %                                                                      %
     %                                                                      %
     % If you are calculating the stress with vdW-DF, please also cite:     %
     %                                                                      %
     %   R. Sabatini et al., J. Phys.: Condens. Matter 24, 424209 (2012).   %
     %                                                                      %
     %%%%%%%%%%%%%%%%%%%%%%%%%%%%%%%%%%%%%%%%%%%%%%%%%%%%%%%%%%%%%%%%%%%%%%%%

     Adding external electric field

     Computed dipole along edir(3) :
        Dipole                0.0003 Ry au,          0.0008 Debye
        Dipole field          0.0000 Ry au,

        Potential amp.       -0.0001 Ry
        Total length         44.8397 bohr

[...]

     Starting wfcs are  138 randomized atomic wfcs

     Self-consistent Calculation

     iteration #  1     ecut=    55.12 Ry     beta= 0.10
     Davidson diagonalization with overlap
     ethr =  1.00E-02,  avg # of iterations =  2.2

[...]

     total energy              =   -1996.53572735 Ry
     estimated scf accuracy    <      11.08304788 Ry

     total magnetization       =    25.59 Bohr mag/cell
     absolute magnetization    =    28.56 Bohr mag/cell

[...]

     iteration #  9     ecut=    55.12 Ry     beta= 0.10
     Davidson diagonalization with overlap
     c_bands:  3 eigenvalues not converged
     c_bands:  2 eigenvalues not converged
     c_bands:  3 eigenvalues not converged
     ethr =  9.64E-05,  avg # of iterations =  9.7

[...]

     iteration # 32     ecut=    55.12 Ry     beta= 0.10
     Davidson diagonalization with overlap
     c_bands:  1 eigenvalues not converged
     ethr =  2.16E-08,  avg # of iterations =  8.7

[...]

     total energy              =   -2001.54058294 Ry
     estimated scf accuracy    <       0.00001372 Ry

[...]

     iteration # 37     ecut=    55.12 Ry     beta= 0.10
     Davidson diagonalization with overlap
     ethr =  8.17E-09,  avg # of iterations =  7.0

[...]

     Adding external electric field

     Computed dipole along edir(3) :
        Dipole                0.0274 Ry au,          0.0695 Debye
        Dipole field          0.0001 Ry au,

        Potential amp.       -0.0071 Ry
        Total length         44.8397 bohr

     Magnetic moment per site:
     atom:    1    charge:   13.4723    magn:    2.3444    constr:    0.0000
     atom:    2    charge:   13.4718    magn:    2.3442    constr:    0.0000
     atom:    3    charge:   10.0743    magn:   -0.5502    constr:    0.0000
     atom:    4    charge:   10.0743    magn:   -0.5502    constr:    0.0000
     atom:    5    charge:   13.5600    magn:    0.8830    constr:    0.0000
     atom:    6    charge:   13.5591    magn:    0.8827    constr:    0.0000
     atom:    7    charge:   10.1120    magn:   -0.3832    constr:    0.0000
     atom:    8    charge:   10.1120    magn:   -0.3832    constr:    0.0000
     atom:    9    charge:   13.5150    magn:    1.9421    constr:    0.0000
     atom:   10    charge:   13.5149    magn:    1.9426    constr:    0.0000
     atom:   11    charge:   10.0506    magn:   -0.4871    constr:    0.0000
     atom:   12    charge:   10.0506    magn:   -0.4871    constr:    0.0000

     End of self-consistent calculation

     Number of k-points >= 100: set verbosity='high' to print the bands.

     the Fermi energy is     1.7577 ev

!    total energy              =   -2001.06636565 Ry
     estimated scf accuracy    <       0.00000864 Ry
     smearing contrib. (-TS)   =      -0.06066255 Ry
     internal energy E=F+TS    =   -2001.00570311 Ry

     The total energy is F=E-TS. E is the sum of the following terms:
     one-electron contribution =  -16536.20024176 Ry
     hartree contribution      =    8264.00918989 Ry
     xc contribution           =    -289.33464961 Ry
     ewald contribution        =    6560.51999622 Ry
     electric field correction =       0.00000215 Ry

     total magnetization       =     6.46 Bohr mag/cell
     absolute magnetization    =    15.25 Bohr mag/cell

     convergence has been achieved in  37 iterations

     Forces acting on atoms (cartesian axes, Ry/au):

     atom    1 type  1   force =     0.00006924    0.00004479    0.01659285
     atom    2 type  1   force =    -0.00008930   -0.00005876    0.01650580
     atom    3 type  2   force =    -0.00003513   -0.00009279   -0.02119637
     atom    4 type  2   force =    -0.00010062   -0.00000370   -0.02119609
     atom    5 type  1   force =    -0.00000184   -0.00000199    0.00310142
     atom    6 type  1   force =     0.00003247    0.00002239    0.00311999
     atom    7 type  2   force =     0.00002019    0.00006174   -0.00256790
     atom    8 type  2   force =     0.00006445   -0.00000273   -0.00257197
     atom    9 type  1   force =    -0.00006977   -0.00005650    0.00240248
     atom   10 type  1   force =     0.00008732    0.00007143    0.00237935
     atom   11 type  2   force =    -0.00001781    0.00005280    0.00171522
     atom   12 type  2   force =     0.00004079   -0.00003669    0.00171523

     Total force =     0.038682     Total SCF correction =     0.005513
     SCF correction compared to forces is large: reduce conv_thr to get better values

     Writing output data file ./Mn2Nb2/Mn2Nb2_beef.save/

     General routines

     Parallel routines

   This run was terminated on:  23:10:25  28Jun2022

   JOB DONE.