     Program PWSCF v.6.6 starts on 29Jun2022 at  1:22: 3

     R & G space division:  proc/nbgrp/npool/nimage =      37
     Fft bands division:     nmany     =       1
     Reading input from Mn2Pd2.in
Warning: card &CELL ignored
Warning: card / ignored

     Current dimensions of program PWSCF are:
     Max number of different atomic species (ntypx) = 10
     Max number of k-points (npk) =  40000
     Max angular momentum in pseudopotentials (lmaxx) =  3
     Presently stress not available with electric field and gates

     Message from routine cell_base_init:
     DEPRECATED: use true lattice parameter, not A to a.u. conversion factor
     file Mn.pbe-spn-rrkjus_psl.0.3.1.UPF: wavefunction(s)  3D renormalized
     file Pd.pbe-n-rrkjus_psl.1.0.0.UPF: wavefunction(s)  4D renormalized

     IMPORTANT: XC functional enforced from input :
     Exchange-correlation= BEEF-VDW
                           (   1   4  43  14   2   0   0)
     Any further DFT definition will be discarded
     Please, verify this is what you really want

     Subspace diagonalization in iterative solution of the eigenvalue problem:
     a serial algorithm will be used

     Found symmetry operation: I + (  0.5000 -0.5000  0.0000)
     This is a supercell, fractional translations are disabled

     bravais-lattice index     =            0
     lattice parameter (alat)  =       1.8897  a.u.
     unit-cell volume          =    4594.8018 (a.u.)^3
     number of atoms/cell      =           12
     number of atomic types    =            2
     number of electrons       =       150.00
     number of Kohn-Sham states=           90
     kinetic-energy cutoff     =      55.1240  Ry
     charge density cutoff     =     551.2396  Ry
     convergence threshold     =      1.0E-05
     mixing beta               =       0.1000
     number of iterations used =           10  plain     mixing
     Exchange-correlation= BEEF-VDW
                           (   1   4  43  14   2   0   0)

     celldm(1)=   1.889726  celldm(2)=   0.000000  celldm(3)=   0.000000
     celldm(4)=   0.000000  celldm(5)=   0.000000  celldm(6)=   0.000000

     crystal axes: (cart. coord. in units of alat)
               a(1) = (   5.471943   0.000000   0.000000 )
               a(2) = (   2.045570   5.075214   0.000000 )
               a(3) = (   0.000000   0.000000  24.517396 )

     reciprocal axes: (cart. coord. in units 2 pi/alat)
               b(1) = (  0.182750 -0.073658  0.000000 )
               b(2) = (  0.000000  0.197036  0.000000 )
               b(3) = (  0.000000  0.000000  0.040787 )

     PseudoPot. # 1 for Mn read from file:
     ../pseudo/Mn.pbe-spn-rrkjus_psl.0.3.1.UPF
     MD5 check sum: e1cac159bdd2ba70c18e85765a5d4279
     Pseudo is Ultrasoft + core correction, Zval = 15.0
     Generated using "atomic" code by A. Dal Corso v.6.2.2
     Using radial grid of 1187 points,  6 beta functions with:
                l(1) =   0
                l(2) =   0
                l(3) =   1
                l(4) =   1
                l(5) =   2
                l(6) =   2
     Q(r) pseudized with 0 coefficients

     PseudoPot. # 2 for Pd read from file:
     ../pseudo/Pd.pbe-n-rrkjus_psl.1.0.0.UPF
     MD5 check sum: d9f693bf1c5b493397a6bd6f2231cfc3
     Pseudo is Ultrasoft + core correction, Zval = 10.0
     Generated using "atomic" code by A. Dal Corso v.6.3
     Using radial grid of 1235 points,  6 beta functions with:
                l(1) =   0
                l(2) =   0
                l(3) =   1
                l(4) =   1
                l(5) =   2
                l(6) =   2
     Q(r) pseudized with 0 coefficients

     atomic species   valence    mass     pseudopotential
        Mn            15.00    54.93804     Mn( 1.00)
        Pd            10.00   106.42000     Pd( 1.00)

     Starting magnetic structure
     atomic species   magnetization
        Mn           0.667
        Pd           0.000

     No symmetry found

   Cartesian axes

     site n.     atom                  positions (alat units)
         1           Mn  tau(   1) = (   0.0000000   0.0000000  10.0000000  )
         2           Mn  tau(   2) = (   3.7587564   2.5376070  10.0000000  )
         3           Pd  tau(   3) = (   2.7359713   0.0000000  10.0000000  )
         4           Pd  tau(   4) = (   1.0227851   2.5376070  10.0000000  )
         5           Mn  tau(   5) = (   5.4719425   3.6942111  12.2586979  )
         6           Mn  tau(   6) = (   1.7131861   1.1566041  12.2586979  )
         7           Pd  tau(   7) = (   2.7359713   3.6942111  12.2586979  )
         8           Pd  tau(   8) = (   4.4491574   1.1566041  12.2586979  )
         9           Mn  tau(   9) = (   3.5854422   2.4206018  14.5405855  )
        10           Mn  tau(  10) = (   7.3441999   4.9582050  14.5406010  )
        11           Pd  tau(  11) = (   6.3217931   2.4208515  14.4240277  )
        12           Pd  tau(  12) = (   4.6086013   4.9584633  14.4240175  )

     number of k points=    74  Fermi-Dirac smearing, width (Ry)=  0.0100
                       cart. coord. in units 2pi/alat
        k(    1) = (   0.0000000   0.0000000   0.0000000), wk =   0.0069444
        k(    2) = (   0.0000000   0.0164197   0.0000000), wk =   0.0138889
        k(    3) = (   0.0000000   0.0328393   0.0000000), wk =   0.0138889
        k(    4) = (   0.0000000   0.0492590   0.0000000), wk =   0.0138889
        k(    5) = (   0.0000000   0.0656787   0.0000000), wk =   0.0138889
        k(    6) = (   0.0000000   0.0820983   0.0000000), wk =   0.0138889
        k(    7) = (   0.0000000  -0.0985180   0.0000000), wk =   0.0069444
        k(    8) = (   0.0152292  -0.0061381   0.0000000), wk =   0.0138889
        k(    9) = (   0.0152292   0.0102815   0.0000000), wk =   0.0138889
        k(   10) = (   0.0152292   0.0267012   0.0000000), wk =   0.0138889
        k(   11) = (   0.0152292   0.0431209   0.0000000), wk =   0.0138889
        k(   12) = (   0.0152292   0.0595405   0.0000000), wk =   0.0138889
        k(   13) = (   0.0152292   0.0759602   0.0000000), wk =   0.0138889
        k(   14) = (   0.0152292  -0.1046562   0.0000000), wk =   0.0138889
        k(   15) = (   0.0152292  -0.0882365   0.0000000), wk =   0.0138889
        k(   16) = (   0.0152292  -0.0718168   0.0000000), wk =   0.0138889
        k(   17) = (   0.0152292  -0.0553972   0.0000000), wk =   0.0138889
        k(   18) = (   0.0152292  -0.0389775   0.0000000), wk =   0.0138889
        k(   19) = (   0.0152292  -0.0225578   0.0000000), wk =   0.0138889
        k(   20) = (   0.0304584  -0.0122763   0.0000000), wk =   0.0138889
        k(   21) = (   0.0304584   0.0041434   0.0000000), wk =   0.0138889
        k(   22) = (   0.0304584   0.0205630   0.0000000), wk =   0.0138889
        k(   23) = (   0.0304584   0.0369827   0.0000000), wk =   0.0138889
        k(   24) = (   0.0304584   0.0534024   0.0000000), wk =   0.0138889
        k(   25) = (   0.0304584   0.0698221   0.0000000), wk =   0.0138889
        k(   26) = (   0.0304584  -0.1107943   0.0000000), wk =   0.0138889
        k(   27) = (   0.0304584  -0.0943746   0.0000000), wk =   0.0138889
        k(   28) = (   0.0304584  -0.0779550   0.0000000), wk =   0.0138889
        k(   29) = (   0.0304584  -0.0615353   0.0000000), wk =   0.0138889
        k(   30) = (   0.0304584  -0.0451156   0.0000000), wk =   0.0138889
        k(   31) = (   0.0304584  -0.0286960   0.0000000), wk =   0.0138889
        k(   32) = (   0.0456876  -0.0184144   0.0000000), wk =   0.0138889
        k(   33) = (   0.0456876  -0.0019948   0.0000000), wk =   0.0138889
        k(   34) = (   0.0456876   0.0144249   0.0000000), wk =   0.0138889
        k(   35) = (   0.0456876   0.0308446   0.0000000), wk =   0.0138889
        k(   36) = (   0.0456876   0.0472642   0.0000000), wk =   0.0138889
        k(   37) = (   0.0456876   0.0636839   0.0000000), wk =   0.0138889
        k(   38) = (   0.0456876  -0.1169324   0.0000000), wk =   0.0138889
        k(   39) = (   0.0456876  -0.1005128   0.0000000), wk =   0.0138889
        k(   40) = (   0.0456876  -0.0840931   0.0000000), wk =   0.0138889
        k(   41) = (   0.0456876  -0.0676734   0.0000000), wk =   0.0138889
        k(   42) = (   0.0456876  -0.0512538   0.0000000), wk =   0.0138889
        k(   43) = (   0.0456876  -0.0348341   0.0000000), wk =   0.0138889
        k(   44) = (   0.0609168  -0.0245526   0.0000000), wk =   0.0138889
        k(   45) = (   0.0609168  -0.0081329   0.0000000), wk =   0.0138889
        k(   46) = (   0.0609168   0.0082868   0.0000000), wk =   0.0138889
        k(   47) = (   0.0609168   0.0247064   0.0000000), wk =   0.0138889
        k(   48) = (   0.0609168   0.0411261   0.0000000), wk =   0.0138889
        k(   49) = (   0.0609168   0.0575458   0.0000000), wk =   0.0138889
        k(   50) = (   0.0609168  -0.1230706   0.0000000), wk =   0.0138889
        k(   51) = (   0.0609168  -0.1066509   0.0000000), wk =   0.0138889
        k(   52) = (   0.0609168  -0.0902313   0.0000000), wk =   0.0138889
        k(   53) = (   0.0609168  -0.0738116   0.0000000), wk =   0.0138889
        k(   54) = (   0.0609168  -0.0573919   0.0000000), wk =   0.0138889
        k(   55) = (   0.0609168  -0.0409723   0.0000000), wk =   0.0138889
        k(   56) = (   0.0761460  -0.0306907   0.0000000), wk =   0.0138889
        k(   57) = (   0.0761460  -0.0142711   0.0000000), wk =   0.0138889
        k(   58) = (   0.0761460   0.0021486   0.0000000), wk =   0.0138889
        k(   59) = (   0.0761460   0.0185683   0.0000000), wk =   0.0138889
        k(   60) = (   0.0761460   0.0349879   0.0000000), wk =   0.0138889
        k(   61) = (   0.0761460   0.0514076   0.0000000), wk =   0.0138889
        k(   62) = (   0.0761460  -0.1292087   0.0000000), wk =   0.0138889
        k(   63) = (   0.0761460  -0.1127891   0.0000000), wk =   0.0138889
        k(   64) = (   0.0761460  -0.0963694   0.0000000), wk =   0.0138889
        k(   65) = (   0.0761460  -0.0799497   0.0000000), wk =   0.0138889
        k(   66) = (   0.0761460  -0.0635301   0.0000000), wk =   0.0138889
        k(   67) = (   0.0761460  -0.0471104   0.0000000), wk =   0.0138889
        k(   68) = (  -0.0913752   0.0368289   0.0000000), wk =   0.0069444
        k(   69) = (  -0.0913752   0.0532485   0.0000000), wk =   0.0138889
        k(   70) = (  -0.0913752   0.0696682   0.0000000), wk =   0.0138889
        k(   71) = (  -0.0913752   0.0860879   0.0000000), wk =   0.0138889
        k(   72) = (  -0.0913752   0.1025075   0.0000000), wk =   0.0138889
        k(   73) = (  -0.0913752   0.1189272   0.0000000), wk =   0.0138889
        k(   74) = (  -0.0913752  -0.0616891   0.0000000), wk =   0.0069444

     Check: negative core charge=   -0.000003
     Generating pointlists ...
     new r_m :   1.0939 (alat units)  2.0671 (a.u.) for type    1
     new r_m :   1.0939 (alat units)  2.0671 (a.u.) for type    2

     Initial potential from superposition of free atoms

     starting charge  149.99358, renormalised to  150.00000

     %%%%%%%%%%%%%%%%%%%%%%%%%%%%%%%%%%%%%%%%%%%%%%%%%%%%%%%%%%%%%%%%%%%%%%%%
     %                                                                      %
     % You are using vdW-DF, which was implemented by the Thonhauser group. %
     % Please cite the following two papers that made this development      %
     % possible and the two reviews that describe the various versions:     %
     %                                                                      %
     %   T. Thonhauser et al., PRL 115, 136402 (2015).                      %
     %   T. Thonhauser et al., PRB 76, 125112 (2007).                       %
     %   K. Berland et al., Rep. Prog. Phys. 78, 066501 (2015).             %
     %   D.C. Langreth et al., J. Phys.: Condens. Matter 21, 084203 (2009). %
     %                                                                      %
     %                                                                      %
     % If you are calculating the stress with vdW-DF, please also cite:     %
     %                                                                      %
     %   R. Sabatini et al., J. Phys.: Condens. Matter 24, 424209 (2012).   %
     %                                                                      %
     %%%%%%%%%%%%%%%%%%%%%%%%%%%%%%%%%%%%%%%%%%%%%%%%%%%%%%%%%%%%%%%%%%%%%%%%

     Adding external electric field

     Computed dipole along edir(3) :
        Dipole               -0.0001 Ry au,         -0.0002 Debye
        Dipole field         -0.0000 Ry au,

        Potential amp.        0.0000 Ry
        Total length         45.1729 bohr

[...]

     Starting wfcs are  114 randomized atomic wfcs

     Self-consistent Calculation

     iteration #  1     ecut=    55.12 Ry     beta= 0.10
     Davidson diagonalization with overlap
     ethr =  1.00E-02,  avg # of iterations =  2.4

[...]

     total energy              =   -1698.05566105 Ry
     estimated scf accuracy    <       4.64367835 Ry

     total magnetization       =    29.88 Bohr mag/cell
     absolute magnetization    =    30.04 Bohr mag/cell

[...]

     iteration # 12     ecut=    55.12 Ry     beta= 0.10
     Davidson diagonalization with overlap
     c_bands:  1 eigenvalues not converged
     c_bands:  1 eigenvalues not converged
     c_bands:  1 eigenvalues not converged
     c_bands:  1 eigenvalues not converged
     ethr =  2.18E-06,  avg # of iterations =  9.5

[...]

     total energy              =   -1702.64144465 Ry
     estimated scf accuracy    <       0.00001683 Ry

[...]

     iteration # 19     ecut=    55.12 Ry     beta= 0.10
     Davidson diagonalization with overlap
     ethr =  1.12E-08,  avg # of iterations =  6.3

[...]

     Adding external electric field

     Computed dipole along edir(3) :
        Dipole                0.0083 Ry au,          0.0211 Debye
        Dipole field          0.0000 Ry au,

        Potential amp.       -0.0020 Ry
        Total length         45.1729 bohr

     Magnetic moment per site:
     atom:    1    charge:   13.3325    magn:    4.1386    constr:    0.0000
     atom:    2    charge:   13.3325    magn:    4.1386    constr:    0.0000
     atom:    3    charge:    8.2774    magn:    0.2636    constr:    0.0000
     atom:    4    charge:    8.2774    magn:    0.2636    constr:    0.0000
     atom:    5    charge:   13.4091    magn:    4.0001    constr:    0.0000
     atom:    6    charge:   13.4091    magn:    4.0001    constr:    0.0000
     atom:    7    charge:    8.2972    magn:    0.3315    constr:    0.0000
     atom:    8    charge:    8.2972    magn:    0.3315    constr:    0.0000
     atom:    9    charge:   13.3295    magn:    4.1378    constr:    0.0000
     atom:   10    charge:   13.3295    magn:    4.1378    constr:    0.0000
     atom:   11    charge:    8.2886    magn:    0.2748    constr:    0.0000
     atom:   12    charge:    8.2886    magn:    0.2748    constr:    0.0000

     End of self-consistent calculation

     Number of k-points >= 100: set verbosity='high' to print the bands.

     the Fermi energy is     0.4598 ev

!    total energy              =   -1700.16305111 Ry
     estimated scf accuracy    <       0.00000735 Ry
     smearing contrib. (-TS)   =      -0.02675946 Ry
     internal energy E=F+TS    =   -1700.13629164 Ry

     The total energy is F=E-TS. E is the sum of the following terms:
     one-electron contribution =  -12580.44029821 Ry
     hartree contribution      =    6327.70186384 Ry
     xc contribution           =    -309.42357664 Ry
     ewald contribution        =    4862.02571917 Ry
     electric field correction =       0.00000019 Ry

     total magnetization       =    27.49 Bohr mag/cell
     absolute magnetization    =    28.02 Bohr mag/cell

     convergence has been achieved in  19 iterations

     Forces acting on atoms (cartesian axes, Ry/au):

     atom    1 type  1   force =    -0.00201404   -0.00136101   -0.00277388
     atom    2 type  1   force =    -0.00200962   -0.00136863   -0.00276678
     atom    3 type  2   force =    -0.00252434   -0.00170525    0.01208391
     atom    4 type  2   force =    -0.00252584   -0.00170591    0.01208373
     atom    5 type  1   force =     0.00260390    0.00175865   -0.01200232
     atom    6 type  1   force =     0.00259764    0.00175688   -0.01200771
     atom    7 type  2   force =     0.00162629    0.00109819    0.00194762
     atom    8 type  2   force =     0.00162764    0.00109791    0.00194788
     atom    9 type  1   force =    -0.00007604   -0.00003300   -0.00191573
     atom   10 type  1   force =    -0.00006511   -0.00004749   -0.00191937
     atom   11 type  2   force =     0.00037984    0.00025611    0.00266095
     atom   12 type  2   force =     0.00037968    0.00025356    0.00266169

     Total force =     0.026134     Total SCF correction =     0.013570
     SCF correction compared to forces is large: reduce conv_thr to get better values

     Writing output data file ./Mn2Pd2/Mn2Pd2_beef.save/

     General routines

     Parallel routines

   This run was terminated on:   3:36:59  29Jun2022

   JOB DONE.