     Program PWSCF v.6.6 starts on 29Jun2022 at  3:38:12

     R & G space division:  proc/nbgrp/npool/nimage =      37
     Fft bands division:     nmany     =       1
     Reading input from Mn2Pt2.in
Warning: card &CELL ignored
Warning: card / ignored

     Current dimensions of program PWSCF are:
     Max number of different atomic species (ntypx) = 10
     Max number of k-points (npk) =  40000
     Max angular momentum in pseudopotentials (lmaxx) =  3
     Presently stress not available with electric field and gates

     Message from routine cell_base_init:
     DEPRECATED: use true lattice parameter, not A to a.u. conversion factor
     file Mn.pbe-spn-rrkjus_psl.0.3.1.UPF: wavefunction(s)  3D renormalized
     file Pt.pbe-n-rrkjus_psl.1.0.0.UPF: wavefunction(s)  6S renormalized

     IMPORTANT: XC functional enforced from input :
     Exchange-correlation= BEEF-VDW
                           (   1   4  43  14   2   0   0)
     Any further DFT definition will be discarded
     Please, verify this is what you really want

     Subspace diagonalization in iterative solution of the eigenvalue problem:
     a serial algorithm will be used

     Found symmetry operation: I + ( -0.5000 -0.5000  0.0000)
     This is a supercell, fractional translations are disabled

     bravais-lattice index     =            0
     lattice parameter (alat)  =       1.8897  a.u.
     unit-cell volume          =    4513.4113 (a.u.)^3
     number of atoms/cell      =           12
     number of atomic types    =            2
     number of electrons       =       150.00
     number of Kohn-Sham states=           90
     kinetic-energy cutoff     =      55.1240  Ry
     charge density cutoff     =     551.2396  Ry
     convergence threshold     =      1.0E-05
     mixing beta               =       0.1000
     number of iterations used =           10  plain     mixing
     Exchange-correlation= BEEF-VDW
                           (   1   4  43  14   2   0   0)

     celldm(1)=   1.889726  celldm(2)=   0.000000  celldm(3)=   0.000000
     celldm(4)=   0.000000  celldm(5)=   0.000000  celldm(6)=   0.000000

     crystal axes: (cart. coord. in units of alat)
               a(1) = (   5.469718   0.000000   0.000000 )
               a(2) = (   2.252162   4.984534   0.000000 )
               a(3) = (   0.000000   0.000000  24.531206 )

     reciprocal axes: (cart. coord. in units 2 pi/alat)
               b(1) = (  0.182825 -0.082606  0.000000 )
               b(2) = (  0.000000  0.200621  0.000000 )
               b(3) = (  0.000000  0.000000  0.040764 )

     PseudoPot. # 1 for Mn read from file:
     ../pseudo/Mn.pbe-spn-rrkjus_psl.0.3.1.UPF
     MD5 check sum: e1cac159bdd2ba70c18e85765a5d4279
     Pseudo is Ultrasoft + core correction, Zval = 15.0
     Generated using "atomic" code by A. Dal Corso v.6.2.2
     Using radial grid of 1187 points,  6 beta functions with:
                l(1) =   0
                l(2) =   0
                l(3) =   1
                l(4) =   1
                l(5) =   2
                l(6) =   2
     Q(r) pseudized with 0 coefficients

     PseudoPot. # 2 for Pt read from file:
     ../pseudo/Pt.pbe-n-rrkjus_psl.1.0.0.UPF
     MD5 check sum: 6bc887cfe28d63a5fc1f72d35a7d3ef7
     Pseudo is Ultrasoft + core correction, Zval = 10.0
     Generated using "atomic" code by A. Dal Corso v.6.3
     Using radial grid of 1277 points,  6 beta functions with:
                l(1) =   0
                l(2) =   0
                l(3) =   1
                l(4) =   1
                l(5) =   2
                l(6) =   2
     Q(r) pseudized with 0 coefficients

     atomic species   valence    mass     pseudopotential
        Mn            15.00    54.93804     Mn( 1.00)
        Pt            10.00   195.08400     Pt( 1.00)

     Starting magnetic structure
     atomic species   magnetization
        Mn           0.667
        Pt           0.000

     No symmetry found

   Cartesian axes

     site n.     atom                  positions (alat units)
         1           Mn  tau(   1) = (   0.0000000   0.0000000  10.0000000  )
         2           Mn  tau(   2) = (   3.8609401   2.4922672  10.0000000  )
         3           Pt  tau(   3) = (   2.7348591   0.0000000  10.0000000  )
         4           Pt  tau(   4) = (   1.1260810   2.4922672  10.0000000  )
         5           Mn  tau(   5) = (   5.4697181   3.5307460  12.2656031  )
         6           Mn  tau(   6) = (   1.6087780   1.0384789  12.2656031  )
         7           Pt  tau(   7) = (   2.7348591   3.5307460  12.2656031  )
         8           Pt  tau(   8) = (   4.3436371   1.0384789  12.2656031  )
         9           Mn  tau(   9) = (   3.5705092   2.3047930  14.5897259  )
        10           Mn  tau(  10) = (   7.4314487   4.7970586  14.5897361  )
        11           Pt  tau(  11) = (   6.3121118   2.3091469  14.4452432  )
        12           Pt  tau(  12) = (   4.7033366   4.8014131  14.4452444  )

     number of k points=    74  Fermi-Dirac smearing, width (Ry)=  0.0100
                       cart. coord. in units 2pi/alat
        k(    1) = (   0.0000000   0.0000000   0.0000000), wk =   0.0069444
        k(    2) = (   0.0000000   0.0167184   0.0000000), wk =   0.0138889
        k(    3) = (   0.0000000   0.0334368   0.0000000), wk =   0.0138889
        k(    4) = (   0.0000000   0.0501551   0.0000000), wk =   0.0138889
        k(    5) = (   0.0000000   0.0668735   0.0000000), wk =   0.0138889
        k(    6) = (   0.0000000   0.0835919   0.0000000), wk =   0.0138889
        k(    7) = (   0.0000000  -0.1003103   0.0000000), wk =   0.0069444
        k(    8) = (   0.0152354  -0.0068838   0.0000000), wk =   0.0138889
        k(    9) = (   0.0152354   0.0098346   0.0000000), wk =   0.0138889
        k(   10) = (   0.0152354   0.0265529   0.0000000), wk =   0.0138889
        k(   11) = (   0.0152354   0.0432713   0.0000000), wk =   0.0138889
        k(   12) = (   0.0152354   0.0599897   0.0000000), wk =   0.0138889
        k(   13) = (   0.0152354   0.0767081   0.0000000), wk =   0.0138889
        k(   14) = (   0.0152354  -0.1071941   0.0000000), wk =   0.0138889
        k(   15) = (   0.0152354  -0.0904757   0.0000000), wk =   0.0138889
        k(   16) = (   0.0152354  -0.0737573   0.0000000), wk =   0.0138889
        k(   17) = (   0.0152354  -0.0570389   0.0000000), wk =   0.0138889
        k(   18) = (   0.0152354  -0.0403206   0.0000000), wk =   0.0138889
        k(   19) = (   0.0152354  -0.0236022   0.0000000), wk =   0.0138889
        k(   20) = (   0.0304708  -0.0137676   0.0000000), wk =   0.0138889
        k(   21) = (   0.0304708   0.0029508   0.0000000), wk =   0.0138889
        k(   22) = (   0.0304708   0.0196691   0.0000000), wk =   0.0138889
        k(   23) = (   0.0304708   0.0363875   0.0000000), wk =   0.0138889
        k(   24) = (   0.0304708   0.0531059   0.0000000), wk =   0.0138889
        k(   25) = (   0.0304708   0.0698243   0.0000000), wk =   0.0138889
        k(   26) = (   0.0304708  -0.1140779   0.0000000), wk =   0.0138889
        k(   27) = (   0.0304708  -0.0973595   0.0000000), wk =   0.0138889
        k(   28) = (   0.0304708  -0.0806411   0.0000000), wk =   0.0138889
        k(   29) = (   0.0304708  -0.0639228   0.0000000), wk =   0.0138889
        k(   30) = (   0.0304708  -0.0472044   0.0000000), wk =   0.0138889
        k(   31) = (   0.0304708  -0.0304860   0.0000000), wk =   0.0138889
        k(   32) = (   0.0457062  -0.0206514   0.0000000), wk =   0.0138889
        k(   33) = (   0.0457062  -0.0039331   0.0000000), wk =   0.0138889
        k(   34) = (   0.0457062   0.0127853   0.0000000), wk =   0.0138889
        k(   35) = (   0.0457062   0.0295037   0.0000000), wk =   0.0138889
        k(   36) = (   0.0457062   0.0462221   0.0000000), wk =   0.0138889
        k(   37) = (   0.0457062   0.0629405   0.0000000), wk =   0.0138889
        k(   38) = (   0.0457062  -0.1209617   0.0000000), wk =   0.0138889
        k(   39) = (   0.0457062  -0.1042433   0.0000000), wk =   0.0138889
        k(   40) = (   0.0457062  -0.0875250   0.0000000), wk =   0.0138889
        k(   41) = (   0.0457062  -0.0708066   0.0000000), wk =   0.0138889
        k(   42) = (   0.0457062  -0.0540882   0.0000000), wk =   0.0138889
        k(   43) = (   0.0457062  -0.0373698   0.0000000), wk =   0.0138889
        k(   44) = (   0.0609416  -0.0275352   0.0000000), wk =   0.0138889
        k(   45) = (   0.0609416  -0.0108169   0.0000000), wk =   0.0138889
        k(   46) = (   0.0609416   0.0059015   0.0000000), wk =   0.0138889
        k(   47) = (   0.0609416   0.0226199   0.0000000), wk =   0.0138889
        k(   48) = (   0.0609416   0.0393383   0.0000000), wk =   0.0138889
        k(   49) = (   0.0609416   0.0560567   0.0000000), wk =   0.0138889
        k(   50) = (   0.0609416  -0.1278455   0.0000000), wk =   0.0138889
        k(   51) = (   0.0609416  -0.1111271   0.0000000), wk =   0.0138889
        k(   52) = (   0.0609416  -0.0944088   0.0000000), wk =   0.0138889
        k(   53) = (   0.0609416  -0.0776904   0.0000000), wk =   0.0138889
        k(   54) = (   0.0609416  -0.0609720   0.0000000), wk =   0.0138889
        k(   55) = (   0.0609416  -0.0442536   0.0000000), wk =   0.0138889
        k(   56) = (   0.0761770  -0.0344191   0.0000000), wk =   0.0138889
        k(   57) = (   0.0761770  -0.0177007   0.0000000), wk =   0.0138889
        k(   58) = (   0.0761770  -0.0009823   0.0000000), wk =   0.0138889
        k(   59) = (   0.0761770   0.0157361   0.0000000), wk =   0.0138889
        k(   60) = (   0.0761770   0.0324545   0.0000000), wk =   0.0138889
        k(   61) = (   0.0761770   0.0491728   0.0000000), wk =   0.0138889
        k(   62) = (   0.0761770  -0.1347293   0.0000000), wk =   0.0138889
        k(   63) = (   0.0761770  -0.1180110   0.0000000), wk =   0.0138889
        k(   64) = (   0.0761770  -0.1012926   0.0000000), wk =   0.0138889
        k(   65) = (   0.0761770  -0.0845742   0.0000000), wk =   0.0138889
        k(   66) = (   0.0761770  -0.0678558   0.0000000), wk =   0.0138889
        k(   67) = (   0.0761770  -0.0511374   0.0000000), wk =   0.0138889
        k(   68) = (  -0.0914124   0.0413029   0.0000000), wk =   0.0069444
        k(   69) = (  -0.0914124   0.0580212   0.0000000), wk =   0.0138889
        k(   70) = (  -0.0914124   0.0747396   0.0000000), wk =   0.0138889
        k(   71) = (  -0.0914124   0.0914580   0.0000000), wk =   0.0138889
        k(   72) = (  -0.0914124   0.1081764   0.0000000), wk =   0.0138889
        k(   73) = (  -0.0914124   0.1248948   0.0000000), wk =   0.0138889
        k(   74) = (  -0.0914124  -0.0590074   0.0000000), wk =   0.0069444

     Check: negative core charge=   -0.000002
     Generating pointlists ...
     new r_m :   1.0877 (alat units)  2.0554 (a.u.) for type    1
     new r_m :   1.0877 (alat units)  2.0554 (a.u.) for type    2

     Initial potential from superposition of free atoms

     starting charge  149.99599, renormalised to  150.00000

     %%%%%%%%%%%%%%%%%%%%%%%%%%%%%%%%%%%%%%%%%%%%%%%%%%%%%%%%%%%%%%%%%%%%%%%%
     %                                                                      %
     % You are using vdW-DF, which was implemented by the Thonhauser group. %
     % Please cite the following two papers that made this development      %
     % possible and the two reviews that describe the various versions:     %
     %                                                                      %
     %   T. Thonhauser et al., PRL 115, 136402 (2015).                      %
     %   T. Thonhauser et al., PRB 76, 125112 (2007).                       %
     %   K. Berland et al., Rep. Prog. Phys. 78, 066501 (2015).             %
     %   D.C. Langreth et al., J. Phys.: Condens. Matter 21, 084203 (2009). %
     %                                                                      %
     %                                                                      %
     % If you are calculating the stress with vdW-DF, please also cite:     %
     %                                                                      %
     %   R. Sabatini et al., J. Phys.: Condens. Matter 24, 424209 (2012).   %
     %                                                                      %
     %%%%%%%%%%%%%%%%%%%%%%%%%%%%%%%%%%%%%%%%%%%%%%%%%%%%%%%%%%%%%%%%%%%%%%%%

     Adding external electric field

     Computed dipole along edir(3) :
        Dipole                0.0001 Ry au,          0.0001 Debye
        Dipole field          0.0000 Ry au,

        Potential amp.       -0.0000 Ry
        Total length         45.1983 bohr

[...]

     Starting wfcs are  114 randomized atomic wfcs

     Self-consistent Calculation

     iteration #  1     ecut=    55.12 Ry     beta= 0.10
     Davidson diagonalization with overlap
     ethr =  1.00E-02,  avg # of iterations =  2.0

[...]

     total energy              =   -1684.22139848 Ry
     estimated scf accuracy    <       4.52714434 Ry

     total magnetization       =    29.75 Bohr mag/cell
     absolute magnetization    =    29.86 Bohr mag/cell

[...]

     iteration # 11     ecut=    55.12 Ry     beta= 0.10
     Davidson diagonalization with overlap
     c_bands:  1 eigenvalues not converged
     c_bands:  5 eigenvalues not converged
     c_bands:  1 eigenvalues not converged
     ethr =  9.00E-06,  avg # of iterations = 10.3

[...]

     iteration # 19     ecut=    55.12 Ry     beta= 0.10
     Davidson diagonalization with overlap
     ethr =  1.92E-07,  avg # of iterations =  2.8

[...]

     total energy              =   -1687.68452275 Ry
     estimated scf accuracy    <       0.00007798 Ry

[...]

     iteration # 21     ecut=    55.12 Ry     beta= 0.10
     Davidson diagonalization with overlap
     c_bands:  1 eigenvalues not converged
     ethr =  2.36E-08,  avg # of iterations =  5.3

[...]

     Adding external electric field

     Computed dipole along edir(3) :
        Dipole                0.0398 Ry au,          0.1012 Debye
        Dipole field          0.0001 Ry au,

        Potential amp.       -0.0100 Ry
        Total length         45.1983 bohr

     Magnetic moment per site:
     atom:    1    charge:   13.3416    magn:    4.0570    constr:    0.0000
     atom:    2    charge:   13.3416    magn:    4.0570    constr:    0.0000
     atom:    3    charge:    7.7058    magn:    0.2943    constr:    0.0000
     atom:    4    charge:    7.7058    magn:    0.2943    constr:    0.0000
     atom:    5    charge:   13.4300    magn:    3.9039    constr:    0.0000
     atom:    6    charge:   13.4300    magn:    3.9039    constr:    0.0000
     atom:    7    charge:    7.7243    magn:    0.3946    constr:    0.0000
     atom:    8    charge:    7.7243    magn:    0.3946    constr:    0.0000
     atom:    9    charge:   13.3296    magn:    4.0664    constr:    0.0000
     atom:   10    charge:   13.3296    magn:    4.0664    constr:    0.0000
     atom:   11    charge:    7.7135    magn:    0.3114    constr:    0.0000
     atom:   12    charge:    7.7136    magn:    0.3114    constr:    0.0000

     End of self-consistent calculation

     Number of k-points >= 100: set verbosity='high' to print the bands.

     the Fermi energy is     0.7224 ev

!    total energy              =   -1686.10253565 Ry
     estimated scf accuracy    <       0.00000510 Ry
     smearing contrib. (-TS)   =      -0.02635547 Ry
     internal energy E=F+TS    =   -1686.07618018 Ry

     The total energy is F=E-TS. E is the sum of the following terms:
     one-electron contribution =  -12675.81387341 Ry
     hartree contribution      =    6373.20037554 Ry
     xc contribution           =    -323.14780882 Ry
     ewald contribution        =    4939.68512210 Ry
     electric field correction =       0.00000441 Ry

     total magnetization       =    27.30 Bohr mag/cell
     absolute magnetization    =    27.68 Bohr mag/cell

     convergence has been achieved in  21 iterations

     Forces acting on atoms (cartesian axes, Ry/au):

     atom    1 type  1   force =    -0.00283278   -0.00182049   -0.00941800
     atom    2 type  1   force =    -0.00283364   -0.00183809   -0.00940614
     atom    3 type  2   force =    -0.00661051   -0.00427111    0.01212674
     atom    4 type  2   force =    -0.00661761   -0.00426710    0.01212739
     atom    5 type  1   force =     0.00402340    0.00258674   -0.01121899
     atom    6 type  1   force =     0.00401103    0.00259339   -0.01121272
     atom    7 type  2   force =     0.00549042    0.00354953    0.00708299
     atom    8 type  2   force =     0.00549786    0.00354652    0.00707928
     atom    9 type  1   force =     0.00052195    0.00033112   -0.00000829
     atom   10 type  1   force =     0.00052294    0.00034302   -0.00001339
     atom   11 type  2   force =    -0.00059309   -0.00037903    0.00143235
     atom   12 type  2   force =    -0.00057998   -0.00037452    0.00142878

     Total force =     0.033271     Total SCF correction =     0.006760
     SCF correction compared to forces is large: reduce conv_thr to get better values

     Writing output data file ./Mn2Pt2/Mn2Pt2_beef.save/

     General routines

     Parallel routines

   This run was terminated on:   6:12: 9  29Jun2022

   JOB DONE.