     Program PWSCF v.6.6 starts on  2Jul2022 at  6:57:36

     R & G space division:  proc/nbgrp/npool/nimage =      37
     Fft bands division:     nmany     =       1
     Reading input from Mn2Ru2.in
Warning: card &CELL ignored
Warning: card / ignored

     Current dimensions of program PWSCF are:
     Max number of different atomic species (ntypx) = 10
     Max number of k-points (npk) =  40000
     Max angular momentum in pseudopotentials (lmaxx) =  3
     Presently stress not available with electric field and gates

     Message from routine cell_base_init:
     DEPRECATED: use true lattice parameter, not A to a.u. conversion factor
     file Mn.pbe-spn-rrkjus_psl.0.3.1.UPF: wavefunction(s)  3D renormalized

     IMPORTANT: XC functional enforced from input :
     Exchange-correlation= BEEF-VDW
                           (   1   4  43  14   2   0   0)
     Any further DFT definition will be discarded
     Please, verify this is what you really want

     Subspace diagonalization in iterative solution of the eigenvalue problem:
     a serial algorithm will be used

     Found symmetry operation: I + ( -0.5000  0.5000  0.0000)
     This is a supercell, fractional translations are disabled

     bravais-lattice index     =            0
     lattice parameter (alat)  =       1.8897  a.u.
     unit-cell volume          =    4180.3322 (a.u.)^3
     number of atoms/cell      =           12
     number of atomic types    =            2
     number of electrons       =       186.00
     number of Kohn-Sham states=          112
     kinetic-energy cutoff     =      55.1240  Ry
     charge density cutoff     =     551.2396  Ry
     convergence threshold     =      1.0E-05
     mixing beta               =       0.1000
     number of iterations used =           10  plain     mixing
     Exchange-correlation= BEEF-VDW
                           (   1   4  43  14   2   0   0)

     celldm(1)=   1.889726  celldm(2)=   0.000000  celldm(3)=   0.000000
     celldm(4)=   0.000000  celldm(5)=   0.000000  celldm(6)=   0.000000

     crystal axes: (cart. coord. in units of alat)
               a(1) = (   5.204047   0.000000   0.000000 )
               a(2) = (   1.726393   4.909346   0.000000 )
               a(3) = (   0.000000   0.000000  24.246521 )

     reciprocal axes: (cart. coord. in units 2 pi/alat)
               b(1) = (  0.192158 -0.067573  0.000000 )
               b(2) = (  0.000000  0.203693  0.000000 )
               b(3) = (  0.000000  0.000000  0.041243 )

     PseudoPot. # 1 for Mn read from file:
     ../pseudo/Mn.pbe-spn-rrkjus_psl.0.3.1.UPF
     MD5 check sum: e1cac159bdd2ba70c18e85765a5d4279
     Pseudo is Ultrasoft + core correction, Zval = 15.0
     Generated using "atomic" code by A. Dal Corso v.6.2.2
     Using radial grid of 1187 points,  6 beta functions with:
                l(1) =   0
                l(2) =   0
                l(3) =   1
                l(4) =   1
                l(5) =   2
                l(6) =   2
     Q(r) pseudized with 0 coefficients

     PseudoPot. # 2 for Ru read from file:
     ../pseudo/Ru.pbe-spn-rrkjus_psl.1.0.0.UPF
     MD5 check sum: fbaca725316a1a65f98761fd4ac95971
     Pseudo is Ultrasoft + core correction, Zval = 16.0
     Generated using "atomic" code by A. Dal Corso v.6.2.2
     Using radial grid of 1233 points,  6 beta functions with:
                l(1) =   0
                l(2) =   0
                l(3) =   1
                l(4) =   1
                l(5) =   2
                l(6) =   2
     Q(r) pseudized with 0 coefficients

     atomic species   valence    mass     pseudopotential
        Mn            15.00    54.93804     Mn( 1.00)
        Ru            16.00   101.07000     Ru( 1.00)

     Starting magnetic structure
     atomic species   magnetization
        Mn           0.667
        Ru           0.000

     No symmetry found

   Cartesian axes

     site n.     atom                  positions (alat units)
         1           Mn  tau(   1) = (   0.0000000   0.0000000  10.0000000  )
         2           Mn  tau(   2) = (   3.4652201   2.4546730  10.0000000  )
         3           Ru  tau(   3) = (   2.6020237   0.0000000  10.0000000  )
         4           Ru  tau(   4) = (   0.8631964   2.4546730  10.0000000  )
         5           Mn  tau(   5) = (   5.2040475   3.6864137  12.1232603  )
         6           Mn  tau(   6) = (   1.7388274   1.2317407  12.1232603  )
         7           Ru  tau(   7) = (   2.6020237   3.6864137  12.1232603  )
         8           Ru  tau(   8) = (   4.3408511   1.2317407  12.1232603  )
         9           Mn  tau(   9) = (   3.4765452   2.4626954  14.3281684  )
        10           Mn  tau(  10) = (   0.0113645   0.0080503  14.3281635  )
        11           Ru  tau(  11) = (   0.8746946   2.4628448  14.0991141  )
        12           Ru  tau(  12) = (   2.6135472   0.0081363  14.0991142  )

     number of k points=    74  Fermi-Dirac smearing, width (Ry)=  0.0100
                       cart. coord. in units 2pi/alat
        k(    1) = (   0.0000000   0.0000000   0.0000000), wk =   0.0069444
        k(    2) = (   0.0000000   0.0169744   0.0000000), wk =   0.0138889
        k(    3) = (   0.0000000   0.0339489   0.0000000), wk =   0.0138889
        k(    4) = (   0.0000000   0.0509233   0.0000000), wk =   0.0138889
        k(    5) = (   0.0000000   0.0678977   0.0000000), wk =   0.0138889
        k(    6) = (   0.0000000   0.0848721   0.0000000), wk =   0.0138889
        k(    7) = (   0.0000000  -0.1018466   0.0000000), wk =   0.0069444
        k(    8) = (   0.0160132  -0.0056311   0.0000000), wk =   0.0138889
        k(    9) = (   0.0160132   0.0113433   0.0000000), wk =   0.0138889
        k(   10) = (   0.0160132   0.0283177   0.0000000), wk =   0.0138889
        k(   11) = (   0.0160132   0.0452922   0.0000000), wk =   0.0138889
        k(   12) = (   0.0160132   0.0622666   0.0000000), wk =   0.0138889
        k(   13) = (   0.0160132   0.0792410   0.0000000), wk =   0.0138889
        k(   14) = (   0.0160132  -0.1074777   0.0000000), wk =   0.0138889
        k(   15) = (   0.0160132  -0.0905032   0.0000000), wk =   0.0138889
        k(   16) = (   0.0160132  -0.0735288   0.0000000), wk =   0.0138889
        k(   17) = (   0.0160132  -0.0565544   0.0000000), wk =   0.0138889
        k(   18) = (   0.0160132  -0.0395800   0.0000000), wk =   0.0138889
        k(   19) = (   0.0160132  -0.0226055   0.0000000), wk =   0.0138889
        k(   20) = (   0.0320264  -0.0112622   0.0000000), wk =   0.0138889
        k(   21) = (   0.0320264   0.0057122   0.0000000), wk =   0.0138889
        k(   22) = (   0.0320264   0.0226866   0.0000000), wk =   0.0138889
        k(   23) = (   0.0320264   0.0396611   0.0000000), wk =   0.0138889
        k(   24) = (   0.0320264   0.0566355   0.0000000), wk =   0.0138889
        k(   25) = (   0.0320264   0.0736099   0.0000000), wk =   0.0138889
        k(   26) = (   0.0320264  -0.1131088   0.0000000), wk =   0.0138889
        k(   27) = (   0.0320264  -0.0961343   0.0000000), wk =   0.0138889
        k(   28) = (   0.0320264  -0.0791599   0.0000000), wk =   0.0138889
        k(   29) = (   0.0320264  -0.0621855   0.0000000), wk =   0.0138889
        k(   30) = (   0.0320264  -0.0452111   0.0000000), wk =   0.0138889
        k(   31) = (   0.0320264  -0.0282366   0.0000000), wk =   0.0138889
        k(   32) = (   0.0480395  -0.0168933   0.0000000), wk =   0.0138889
        k(   33) = (   0.0480395   0.0000811   0.0000000), wk =   0.0138889
        k(   34) = (   0.0480395   0.0170555   0.0000000), wk =   0.0138889
        k(   35) = (   0.0480395   0.0340300   0.0000000), wk =   0.0138889
        k(   36) = (   0.0480395   0.0510044   0.0000000), wk =   0.0138889
        k(   37) = (   0.0480395   0.0679788   0.0000000), wk =   0.0138889
        k(   38) = (   0.0480395  -0.1187399   0.0000000), wk =   0.0138889
        k(   39) = (   0.0480395  -0.1017654   0.0000000), wk =   0.0138889
        k(   40) = (   0.0480395  -0.0847910   0.0000000), wk =   0.0138889
        k(   41) = (   0.0480395  -0.0678166   0.0000000), wk =   0.0138889
        k(   42) = (   0.0480395  -0.0508422   0.0000000), wk =   0.0138889
        k(   43) = (   0.0480395  -0.0338677   0.0000000), wk =   0.0138889
        k(   44) = (   0.0640527  -0.0225244   0.0000000), wk =   0.0138889
        k(   45) = (   0.0640527  -0.0055500   0.0000000), wk =   0.0138889
        k(   46) = (   0.0640527   0.0114244   0.0000000), wk =   0.0138889
        k(   47) = (   0.0640527   0.0283989   0.0000000), wk =   0.0138889
        k(   48) = (   0.0640527   0.0453733   0.0000000), wk =   0.0138889
        k(   49) = (   0.0640527   0.0623477   0.0000000), wk =   0.0138889
        k(   50) = (   0.0640527  -0.1243710   0.0000000), wk =   0.0138889
        k(   51) = (   0.0640527  -0.1073966   0.0000000), wk =   0.0138889
        k(   52) = (   0.0640527  -0.0904221   0.0000000), wk =   0.0138889
        k(   53) = (   0.0640527  -0.0734477   0.0000000), wk =   0.0138889
        k(   54) = (   0.0640527  -0.0564733   0.0000000), wk =   0.0138889
        k(   55) = (   0.0640527  -0.0394988   0.0000000), wk =   0.0138889
        k(   56) = (   0.0800659  -0.0281555   0.0000000), wk =   0.0138889
        k(   57) = (   0.0800659  -0.0111811   0.0000000), wk =   0.0138889
        k(   58) = (   0.0800659   0.0057933   0.0000000), wk =   0.0138889
        k(   59) = (   0.0800659   0.0227678   0.0000000), wk =   0.0138889
        k(   60) = (   0.0800659   0.0397422   0.0000000), wk =   0.0138889
        k(   61) = (   0.0800659   0.0567166   0.0000000), wk =   0.0138889
        k(   62) = (   0.0800659  -0.1300021   0.0000000), wk =   0.0138889
        k(   63) = (   0.0800659  -0.1130277   0.0000000), wk =   0.0138889
        k(   64) = (   0.0800659  -0.0960532   0.0000000), wk =   0.0138889
        k(   65) = (   0.0800659  -0.0790788   0.0000000), wk =   0.0138889
        k(   66) = (   0.0800659  -0.0621044   0.0000000), wk =   0.0138889
        k(   67) = (   0.0800659  -0.0451299   0.0000000), wk =   0.0138889
        k(   68) = (  -0.0960791   0.0337866   0.0000000), wk =   0.0069444
        k(   69) = (  -0.0960791   0.0507611   0.0000000), wk =   0.0138889
        k(   70) = (  -0.0960791   0.0677355   0.0000000), wk =   0.0138889
        k(   71) = (  -0.0960791   0.0847099   0.0000000), wk =   0.0138889
        k(   72) = (  -0.0960791   0.1016843   0.0000000), wk =   0.0138889
        k(   73) = (  -0.0960791   0.1186588   0.0000000), wk =   0.0138889
        k(   74) = (  -0.0960791  -0.0680599   0.0000000), wk =   0.0069444

     Check: negative core charge=   -0.000004
     Generating pointlists ...
     new r_m :   1.0243 (alat units)  1.9357 (a.u.) for type    1
     new r_m :   1.0243 (alat units)  1.9357 (a.u.) for type    2

     Initial potential from superposition of free atoms

     starting charge  185.99318, renormalised to  186.00000

     %%%%%%%%%%%%%%%%%%%%%%%%%%%%%%%%%%%%%%%%%%%%%%%%%%%%%%%%%%%%%%%%%%%%%%%%
     %                                                                      %
     % You are using vdW-DF, which was implemented by the Thonhauser group. %
     % Please cite the following two papers that made this development      %
     % possible and the two reviews that describe the various versions:     %
     %                                                                      %
     %   T. Thonhauser et al., PRL 115, 136402 (2015).                      %
     %   T. Thonhauser et al., PRB 76, 125112 (2007).                       %
     %   K. Berland et al., Rep. Prog. Phys. 78, 066501 (2015).             %
     %   D.C. Langreth et al., J. Phys.: Condens. Matter 21, 084203 (2009). %
     %                                                                      %
     %                                                                      %
     % If you are calculating the stress with vdW-DF, please also cite:     %
     %                                                                      %
     %   R. Sabatini et al., J. Phys.: Condens. Matter 24, 424209 (2012).   %
     %                                                                      %
     %%%%%%%%%%%%%%%%%%%%%%%%%%%%%%%%%%%%%%%%%%%%%%%%%%%%%%%%%%%%%%%%%%%%%%%%

     Adding external electric field

     Computed dipole along edir(3) :
        Dipole               -0.0000 Ry au,         -0.0001 Debye
        Dipole field         -0.0000 Ry au,

        Potential amp.        0.0000 Ry
        Total length         44.6738 bohr

[...]

     Starting wfcs are  120 randomized atomic wfcs

     Self-consistent Calculation

     iteration #  1     ecut=    55.12 Ry     beta= 0.10
     Davidson diagonalization with overlap
     ethr =  1.00E-02,  avg # of iterations =  3.5

[...]

     total energy              =   -2474.46622252 Ry
     estimated scf accuracy    <       8.95365635 Ry

     total magnetization       =    28.29 Bohr mag/cell
     absolute magnetization    =    29.67 Bohr mag/cell

[...]

     total energy              =   -2478.05933298 Ry
     estimated scf accuracy    <       0.00001118 Ry

[...]

     iteration # 26     ecut=    55.12 Ry     beta= 0.10
     Davidson diagonalization with overlap
     ethr =  6.01E-09,  avg # of iterations =  3.7

[...]

     Adding external electric field

     Computed dipole along edir(3) :
        Dipole                0.0337 Ry au,          0.0857 Debye
        Dipole field          0.0001 Ry au,

        Potential amp.       -0.0091 Ry
        Total length         44.6738 bohr

     Magnetic moment per site:
     atom:    1    charge:   13.1922    magn:    3.3633    constr:    0.0000
     atom:    2    charge:   13.1920    magn:    3.3632    constr:    0.0000
     atom:    3    charge:   13.4204    magn:   -0.2094    constr:    0.0000
     atom:    4    charge:   13.4206    magn:   -0.2094    constr:    0.0000
     atom:    5    charge:   13.2932    magn:    2.9146    constr:    0.0000
     atom:    6    charge:   13.2933    magn:    2.9147    constr:    0.0000
     atom:    7    charge:   13.4145    magn:   -0.1352    constr:    0.0000
     atom:    8    charge:   13.4146    magn:   -0.1352    constr:    0.0000
     atom:    9    charge:   13.1711    magn:    3.4505    constr:    0.0000
     atom:   10    charge:   13.1711    magn:    3.4505    constr:    0.0000
     atom:   11    charge:   13.4433    magn:   -0.3112    constr:    0.0000
     atom:   12    charge:   13.4433    magn:   -0.3112    constr:    0.0000

     End of self-consistent calculation

     Number of k-points >= 100: set verbosity='high' to print the bands.

     the Fermi energy is     1.5882 ev

!    total energy              =   -2477.13995286 Ry
     estimated scf accuracy    <       0.00000830 Ry
     smearing contrib. (-TS)   =      -0.06424265 Ry
     internal energy E=F+TS    =   -2477.07571021 Ry

     The total energy is F=E-TS. E is the sum of the following terms:
     one-electron contribution =  -21220.15644873 Ry
     hartree contribution      =   10608.78447772 Ry
     xc contribution           =    -354.44010129 Ry
     ewald contribution        =    8488.73635869 Ry
     electric field correction =       0.00000341 Ry

     total magnetization       =    19.10 Bohr mag/cell
     absolute magnetization    =    22.86 Bohr mag/cell

     convergence has been achieved in  26 iterations

     Forces acting on atoms (cartesian axes, Ry/au):

     atom    1 type  1   force =     0.00027080    0.00018745   -0.01347124
     atom    2 type  1   force =     0.00025600    0.00018685   -0.01344499
     atom    3 type  2   force =    -0.00001729   -0.00001499    0.03039679
     atom    4 type  2   force =    -0.00002118   -0.00001399    0.03039646
     atom    5 type  1   force =    -0.00019670   -0.00006999   -0.02529908
     atom    6 type  1   force =    -0.00011358   -0.00014929   -0.02528484
     atom    7 type  2   force =     0.00015181    0.00010478    0.00019626
     atom    8 type  2   force =     0.00016160    0.00011722    0.00019628
     atom    9 type  1   force =    -0.00013390   -0.00009167    0.00495403
     atom   10 type  1   force =    -0.00014388   -0.00010527    0.00493251
     atom   11 type  2   force =    -0.00010909   -0.00007486    0.00321551
     atom   12 type  2   force =    -0.00010460   -0.00007623    0.00321230

     Total force =     0.059662     Total SCF correction =     0.005742

     Writing output data file ./Mn2Ru2/Mn2Ru2_beef.save/

     General routines

     Parallel routines

   This run was terminated on:  11:40:28   2Jul2022

   JOB DONE.