     Program PWSCF v.6.6 starts on  2Jul2022 at  2:29:55

     R & G space division:  proc/nbgrp/npool/nimage =      37
     Fft bands division:     nmany     =       1
     Reading input from Mn2Rh2.in
Warning: card &CELL ignored
Warning: card / ignored

     Current dimensions of program PWSCF are:
     Max number of different atomic species (ntypx) = 10
     Max number of k-points (npk) =  40000
     Max angular momentum in pseudopotentials (lmaxx) =  3
     Presently stress not available with electric field and gates

     Message from routine cell_base_init:
     DEPRECATED: use true lattice parameter, not A to a.u. conversion factor
     file Mn.pbe-spn-rrkjus_psl.0.3.1.UPF: wavefunction(s)  3D renormalized
     file Rh.pbe-spn-rrkjus_psl.1.0.0.UPF: wavefunction(s)  4S 5S renormalized

     IMPORTANT: XC functional enforced from input :
     Exchange-correlation= BEEF-VDW
                           (   1   4  43  14   2   0   0)
     Any further DFT definition will be discarded
     Please, verify this is what you really want

     Subspace diagonalization in iterative solution of the eigenvalue problem:
     a serial algorithm will be used

     Found symmetry operation: I + ( -0.5000  0.5000  0.0000)
     This is a supercell, fractional translations are disabled

     bravais-lattice index     =            0
     lattice parameter (alat)  =       1.8897  a.u.
     unit-cell volume          =    4320.8869 (a.u.)^3
     number of atoms/cell      =           12
     number of atomic types    =            2
     number of electrons       =       192.00
     number of Kohn-Sham states=          115
     kinetic-energy cutoff     =      55.1240  Ry
     charge density cutoff     =     551.2396  Ry
     convergence threshold     =      1.0E-05
     mixing beta               =       0.1000
     number of iterations used =           10  plain     mixing
     Exchange-correlation= BEEF-VDW
                           (   1   4  43  14   2   0   0)

     celldm(1)=   1.889726  celldm(2)=   0.000000  celldm(3)=   0.000000
     celldm(4)=   0.000000  celldm(5)=   0.000000  celldm(6)=   0.000000

     crystal axes: (cart. coord. in units of alat)
               a(1) = (   5.286112   0.000000   0.000000 )
               a(2) = (   1.770429   4.980820   0.000000 )
               a(3) = (   0.000000   0.000000  24.318634 )

     reciprocal axes: (cart. coord. in units 2 pi/alat)
               b(1) = (  0.189175 -0.067242  0.000000 )
               b(2) = (  0.000000  0.200770  0.000000 )
               b(3) = (  0.000000  0.000000  0.041121 )

     PseudoPot. # 1 for Mn read from file:
     ../pseudo/Mn.pbe-spn-rrkjus_psl.0.3.1.UPF
     MD5 check sum: e1cac159bdd2ba70c18e85765a5d4279
     Pseudo is Ultrasoft + core correction, Zval = 15.0
     Generated using "atomic" code by A. Dal Corso v.6.2.2
     Using radial grid of 1187 points,  6 beta functions with:
                l(1) =   0
                l(2) =   0
                l(3) =   1
                l(4) =   1
                l(5) =   2
                l(6) =   2
     Q(r) pseudized with 0 coefficients

     PseudoPot. # 2 for Rh read from file:
     ../pseudo/Rh.pbe-spn-rrkjus_psl.1.0.0.UPF
     MD5 check sum: 912a852783f0c9b7bd5e9eb06cc0cc10
     Pseudo is Ultrasoft + core correction, Zval = 17.0
     Generated using "atomic" code by A. Dal Corso v.6.3
     Using radial grid of 1233 points,  6 beta functions with:
                l(1) =   0
                l(2) =   0
                l(3) =   1
                l(4) =   1
                l(5) =   2
                l(6) =   2
     Q(r) pseudized with 0 coefficients

     atomic species   valence    mass     pseudopotential
        Mn            15.00    54.93804     Mn( 1.00)
        Rh            17.00   102.90550     Rh( 1.00)

     Starting magnetic structure
     atomic species   magnetization
        Mn           0.667
        Rh           0.000

     No symmetry found

   Cartesian axes

     site n.     atom                  positions (alat units)
         1           Mn  tau(   1) = (   0.0000000   0.0000000  10.0000000  )
         2           Mn  tau(   2) = (   3.5282705   2.4904099  10.0000000  )
         3           Rh  tau(   3) = (   2.6430562   0.0000000  10.0000000  )
         4           Rh  tau(   4) = (   0.8852143   2.4904099  10.0000000  )
         5           Mn  tau(   5) = (   5.2861124   3.7311727  12.1593169  )
         6           Mn  tau(   6) = (   1.7578418   1.2407628  12.1593169  )
         7           Rh  tau(   7) = (   2.6430562   3.7311727  12.1593169  )
         8           Rh  tau(   8) = (   4.4008980   1.2407628  12.1593169  )
         9           Mn  tau(   9) = (   3.5166917   2.4822373  14.3871602  )
        10           Mn  tau(  10) = (   7.0449602   4.9726454  14.3871648  )
        11           Rh  tau(  11) = (   6.1599716   2.4823918  14.2103011  )
        12           Rh  tau(  12) = (   4.4021270   4.9728060  14.2103015  )

     number of k points=    74  Fermi-Dirac smearing, width (Ry)=  0.0100
                       cart. coord. in units 2pi/alat
        k(    1) = (   0.0000000   0.0000000   0.0000000), wk =   0.0069444
        k(    2) = (   0.0000000   0.0167308   0.0000000), wk =   0.0138889
        k(    3) = (   0.0000000   0.0334617   0.0000000), wk =   0.0138889
        k(    4) = (   0.0000000   0.0501925   0.0000000), wk =   0.0138889
        k(    5) = (   0.0000000   0.0669234   0.0000000), wk =   0.0138889
        k(    6) = (   0.0000000   0.0836542   0.0000000), wk =   0.0138889
        k(    7) = (   0.0000000  -0.1003851   0.0000000), wk =   0.0069444
        k(    8) = (   0.0157646  -0.0056035   0.0000000), wk =   0.0138889
        k(    9) = (   0.0157646   0.0111273   0.0000000), wk =   0.0138889
        k(   10) = (   0.0157646   0.0278582   0.0000000), wk =   0.0138889
        k(   11) = (   0.0157646   0.0445890   0.0000000), wk =   0.0138889
        k(   12) = (   0.0157646   0.0613199   0.0000000), wk =   0.0138889
        k(   13) = (   0.0157646   0.0780507   0.0000000), wk =   0.0138889
        k(   14) = (   0.0157646  -0.1059886   0.0000000), wk =   0.0138889
        k(   15) = (   0.0157646  -0.0892577   0.0000000), wk =   0.0138889
        k(   16) = (   0.0157646  -0.0725269   0.0000000), wk =   0.0138889
        k(   17) = (   0.0157646  -0.0557960   0.0000000), wk =   0.0138889
        k(   18) = (   0.0157646  -0.0390652   0.0000000), wk =   0.0138889
        k(   19) = (   0.0157646  -0.0223344   0.0000000), wk =   0.0138889
        k(   20) = (   0.0315292  -0.0112070   0.0000000), wk =   0.0138889
        k(   21) = (   0.0315292   0.0055238   0.0000000), wk =   0.0138889
        k(   22) = (   0.0315292   0.0222547   0.0000000), wk =   0.0138889
        k(   23) = (   0.0315292   0.0389855   0.0000000), wk =   0.0138889
        k(   24) = (   0.0315292   0.0557164   0.0000000), wk =   0.0138889
        k(   25) = (   0.0315292   0.0724472   0.0000000), wk =   0.0138889
        k(   26) = (   0.0315292  -0.1115921   0.0000000), wk =   0.0138889
        k(   27) = (   0.0315292  -0.0948612   0.0000000), wk =   0.0138889
        k(   28) = (   0.0315292  -0.0781304   0.0000000), wk =   0.0138889
        k(   29) = (   0.0315292  -0.0613996   0.0000000), wk =   0.0138889
        k(   30) = (   0.0315292  -0.0446687   0.0000000), wk =   0.0138889
        k(   31) = (   0.0315292  -0.0279379   0.0000000), wk =   0.0138889
        k(   32) = (   0.0472937  -0.0168105   0.0000000), wk =   0.0138889
        k(   33) = (   0.0472937  -0.0000797   0.0000000), wk =   0.0138889
        k(   34) = (   0.0472937   0.0166512   0.0000000), wk =   0.0138889
        k(   35) = (   0.0472937   0.0333820   0.0000000), wk =   0.0138889
        k(   36) = (   0.0472937   0.0501129   0.0000000), wk =   0.0138889
        k(   37) = (   0.0472937   0.0668437   0.0000000), wk =   0.0138889
        k(   38) = (   0.0472937  -0.1171956   0.0000000), wk =   0.0138889
        k(   39) = (   0.0472937  -0.1004648   0.0000000), wk =   0.0138889
        k(   40) = (   0.0472937  -0.0837339   0.0000000), wk =   0.0138889
        k(   41) = (   0.0472937  -0.0670031   0.0000000), wk =   0.0138889
        k(   42) = (   0.0472937  -0.0502722   0.0000000), wk =   0.0138889
        k(   43) = (   0.0472937  -0.0335414   0.0000000), wk =   0.0138889
        k(   44) = (   0.0630583  -0.0224140   0.0000000), wk =   0.0138889
        k(   45) = (   0.0630583  -0.0056832   0.0000000), wk =   0.0138889
        k(   46) = (   0.0630583   0.0110477   0.0000000), wk =   0.0138889
        k(   47) = (   0.0630583   0.0277785   0.0000000), wk =   0.0138889
        k(   48) = (   0.0630583   0.0445093   0.0000000), wk =   0.0138889
        k(   49) = (   0.0630583   0.0612402   0.0000000), wk =   0.0138889
        k(   50) = (   0.0630583  -0.1227991   0.0000000), wk =   0.0138889
        k(   51) = (   0.0630583  -0.1060683   0.0000000), wk =   0.0138889
        k(   52) = (   0.0630583  -0.0893374   0.0000000), wk =   0.0138889
        k(   53) = (   0.0630583  -0.0726066   0.0000000), wk =   0.0138889
        k(   54) = (   0.0630583  -0.0558757   0.0000000), wk =   0.0138889
        k(   55) = (   0.0630583  -0.0391449   0.0000000), wk =   0.0138889
        k(   56) = (   0.0788229  -0.0280175   0.0000000), wk =   0.0138889
        k(   57) = (   0.0788229  -0.0112867   0.0000000), wk =   0.0138889
        k(   58) = (   0.0788229   0.0054441   0.0000000), wk =   0.0138889
        k(   59) = (   0.0788229   0.0221750   0.0000000), wk =   0.0138889
        k(   60) = (   0.0788229   0.0389058   0.0000000), wk =   0.0138889
        k(   61) = (   0.0788229   0.0556367   0.0000000), wk =   0.0138889
        k(   62) = (   0.0788229  -0.1284026   0.0000000), wk =   0.0138889
        k(   63) = (   0.0788229  -0.1116718   0.0000000), wk =   0.0138889
        k(   64) = (   0.0788229  -0.0949409   0.0000000), wk =   0.0138889
        k(   65) = (   0.0788229  -0.0782101   0.0000000), wk =   0.0138889
        k(   66) = (   0.0788229  -0.0614792   0.0000000), wk =   0.0138889
        k(   67) = (   0.0788229  -0.0447484   0.0000000), wk =   0.0138889
        k(   68) = (  -0.0945875   0.0336211   0.0000000), wk =   0.0069444
        k(   69) = (  -0.0945875   0.0503519   0.0000000), wk =   0.0138889
        k(   70) = (  -0.0945875   0.0670827   0.0000000), wk =   0.0138889
        k(   71) = (  -0.0945875   0.0838136   0.0000000), wk =   0.0138889
        k(   72) = (  -0.0945875   0.1005444   0.0000000), wk =   0.0138889
        k(   73) = (  -0.0945875   0.1172753   0.0000000), wk =   0.0138889
        k(   74) = (  -0.0945875  -0.0667640   0.0000000), wk =   0.0069444

     Check: negative core charge=   -0.000004
     Generating pointlists ...
     new r_m :   1.0541 (alat units)  1.9919 (a.u.) for type    1
     new r_m :   1.0541 (alat units)  1.9919 (a.u.) for type    2

     Initial potential from superposition of free atoms

     starting charge  191.99407, renormalised to  192.00000

     %%%%%%%%%%%%%%%%%%%%%%%%%%%%%%%%%%%%%%%%%%%%%%%%%%%%%%%%%%%%%%%%%%%%%%%%
     %                                                                      %
     % You are using vdW-DF, which was implemented by the Thonhauser group. %
     % Please cite the following two papers that made this development      %
     % possible and the two reviews that describe the various versions:     %
     %                                                                      %
     %   T. Thonhauser et al., PRL 115, 136402 (2015).                      %
     %   T. Thonhauser et al., PRB 76, 125112 (2007).                       %
     %   K. Berland et al., Rep. Prog. Phys. 78, 066501 (2015).             %
     %   D.C. Langreth et al., J. Phys.: Condens. Matter 21, 084203 (2009). %
     %                                                                      %
     %                                                                      %
     % If you are calculating the stress with vdW-DF, please also cite:     %
     %                                                                      %
     %   R. Sabatini et al., J. Phys.: Condens. Matter 24, 424209 (2012).   %
     %                                                                      %
     %%%%%%%%%%%%%%%%%%%%%%%%%%%%%%%%%%%%%%%%%%%%%%%%%%%%%%%%%%%%%%%%%%%%%%%%

     Adding external electric field

     Computed dipole along edir(3) :
        Dipole                0.0000 Ry au,          0.0001 Debye
        Dipole field          0.0000 Ry au,

        Potential amp.       -0.0000 Ry
        Total length         44.8067 bohr

[...]

     Starting wfcs are  120 randomized atomic wfcs

     Self-consistent Calculation

     iteration #  1     ecut=    55.12 Ry     beta= 0.10
     Davidson diagonalization with overlap
     ethr =  1.00E-02,  avg # of iterations =  4.1

[...]

     total energy              =   -2651.61262561 Ry
     estimated scf accuracy    <       9.43294946 Ry

     total magnetization       =    30.44 Bohr mag/cell
     absolute magnetization    =    30.49 Bohr mag/cell

[...]

     iteration #  8     ecut=    55.12 Ry     beta= 0.10
     Davidson diagonalization with overlap
     c_bands:  1 eigenvalues not converged
     ethr =  1.83E-04,  avg # of iterations =  5.9

[...]

     iteration # 16     ecut=    55.12 Ry     beta= 0.10
     Davidson diagonalization with overlap
     c_bands:  1 eigenvalues not converged
     c_bands:  1 eigenvalues not converged
     c_bands:  2 eigenvalues not converged
     c_bands:  1 eigenvalues not converged
     ethr =  1.77E-06,  avg # of iterations =  4.8

[...]

     total energy              =   -2655.31207672 Ry
     estimated scf accuracy    <       0.00002090 Ry

[...]

     iteration # 23     ecut=    55.12 Ry     beta= 0.10
     Davidson diagonalization with overlap
     ethr =  1.09E-08,  avg # of iterations =  4.9

[...]

     Adding external electric field

     Computed dipole along edir(3) :
        Dipole                0.0350 Ry au,          0.0891 Debye
        Dipole field          0.0001 Ry au,

        Potential amp.       -0.0091 Ry
        Total length         44.8067 bohr

     Magnetic moment per site:
     atom:    1    charge:   13.2620    magn:    3.8344    constr:    0.0000
     atom:    2    charge:   13.2620    magn:    3.8343    constr:    0.0000
     atom:    3    charge:   14.8446    magn:    0.3536    constr:    0.0000
     atom:    4    charge:   14.8446    magn:    0.3536    constr:    0.0000
     atom:    5    charge:   13.3429    magn:    3.4412    constr:    0.0000
     atom:    6    charge:   13.3429    magn:    3.4412    constr:    0.0000
     atom:    7    charge:   14.8531    magn:    0.5540    constr:    0.0000
     atom:    8    charge:   14.8531    magn:    0.5540    constr:    0.0000
     atom:    9    charge:   13.2446    magn:    3.8651    constr:    0.0000
     atom:   10    charge:   13.2447    magn:    3.8651    constr:    0.0000
     atom:   11    charge:   14.8598    magn:    0.2908    constr:    0.0000
     atom:   12    charge:   14.8598    magn:    0.2908    constr:    0.0000

     End of self-consistent calculation

     Number of k-points >= 100: set verbosity='high' to print the bands.

     the Fermi energy is     1.3406 ev

!    total energy              =   -2653.73039997 Ry
     estimated scf accuracy    <       0.00000959 Ry
     smearing contrib. (-TS)   =      -0.06126785 Ry
     internal energy E=F+TS    =   -2653.66913213 Ry

     The total energy is F=E-TS. E is the sum of the following terms:
     one-electron contribution =  -21918.09621676 Ry
     hartree contribution      =   10959.74968811 Ry
     xc contribution           =    -359.11963118 Ry
     ewald contribution        =    8663.79702414 Ry
     electric field correction =       0.00000357 Ry

     total magnetization       =    26.11 Bohr mag/cell
     absolute magnetization    =    26.53 Bohr mag/cell

     convergence has been achieved in  23 iterations

     Forces acting on atoms (cartesian axes, Ry/au):

     atom    1 type  1   force =    -0.00017366   -0.00011299   -0.01201216
     atom    2 type  1   force =    -0.00017209   -0.00012870   -0.01201410
     atom    3 type  2   force =    -0.00010853   -0.00007909    0.01719989
     atom    4 type  2   force =    -0.00010498   -0.00007253    0.01719824
     atom    5 type  1   force =     0.00008708    0.00004679   -0.01255073
     atom    6 type  1   force =     0.00016893    0.00013507   -0.01257081
     atom    7 type  2   force =    -0.00008370   -0.00004965    0.00125202
     atom    8 type  2   force =    -0.00008227   -0.00006683    0.00125595
     atom    9 type  1   force =     0.00013033    0.00009617    0.00503266
     atom   10 type  1   force =     0.00018941    0.00012424    0.00502121
     atom   11 type  2   force =     0.00007331    0.00004880    0.00109594
     atom   12 type  2   force =     0.00007617    0.00005872    0.00109188

     Total force =     0.035386     Total SCF correction =     0.014463
     SCF correction compared to forces is large: reduce conv_thr to get better values

     Writing output data file ./Mn2Rh2/Mn2Rh2_beef.save/

     General routines

     Parallel routines

   This run was terminated on:   6:57:33   2Jul2022

   JOB DONE.