     Program PWSCF v.6.6 starts on  2Jul2022 at 11:40:31

     R & G space division:  proc/nbgrp/npool/nimage =      37
     Fft bands division:     nmany     =       1
     Reading input from Mn2Ta2.in
Warning: card &CELL ignored
Warning: card / ignored

     Current dimensions of program PWSCF are:
     Max number of different atomic species (ntypx) = 10
     Max number of k-points (npk) =  40000
     Max angular momentum in pseudopotentials (lmaxx) =  3
     Presently stress not available with electric field and gates

     Message from routine cell_base_init:
     DEPRECATED: use true lattice parameter, not A to a.u. conversion factor
     file Mn.pbe-spn-rrkjus_psl.0.3.1.UPF: wavefunction(s)  3D renormalized
     file Ta.pbe-spfn-rrkjus_psl.1.0.0.UPF: wavefunction(s)  5S 5P renormalized

     IMPORTANT: XC functional enforced from input :
     Exchange-correlation= BEEF-VDW
                           (   1   4  43  14   2   0   0)
     Any further DFT definition will be discarded
     Please, verify this is what you really want

     Subspace diagonalization in iterative solution of the eigenvalue problem:
     a serial algorithm will be used

     bravais-lattice index     =            0
     lattice parameter (alat)  =       1.8897  a.u.
     unit-cell volume          =    4356.4413 (a.u.)^3
     number of atoms/cell      =           12
     number of atomic types    =            2
     number of electrons       =       252.00
     number of Kohn-Sham states=          151
     kinetic-energy cutoff     =      55.1240  Ry
     charge density cutoff     =     551.2396  Ry
     convergence threshold     =      1.0E-05
     mixing beta               =       0.1000
     number of iterations used =           10  plain     mixing
     Exchange-correlation= BEEF-VDW
                           (   1   4  43  14   2   0   0)

     celldm(1)=   1.889726  celldm(2)=   0.000000  celldm(3)=   0.000000
     celldm(4)=   0.000000  celldm(5)=   0.000000  celldm(6)=   0.000000

     crystal axes: (cart. coord. in units of alat)
               a(1) = (   5.305001   0.000000   0.000000 )
               a(2) = (   1.769462   5.001204   0.000000 )
               a(3) = (   0.000000   0.000000  24.331860 )

     reciprocal axes: (cart. coord. in units 2 pi/alat)
               b(1) = (  0.188501 -0.066693  0.000000 )
               b(2) = (  0.000000  0.199952  0.000000 )
               b(3) = (  0.000000  0.000000  0.041098 )

     PseudoPot. # 1 for Mn read from file:
     ../pseudo/Mn.pbe-spn-rrkjus_psl.0.3.1.UPF
     MD5 check sum: e1cac159bdd2ba70c18e85765a5d4279
     Pseudo is Ultrasoft + core correction, Zval = 15.0
     Generated using "atomic" code by A. Dal Corso v.6.2.2
     Using radial grid of 1187 points,  6 beta functions with:
                l(1) =   0
                l(2) =   0
                l(3) =   1
                l(4) =   1
                l(5) =   2
                l(6) =   2
     Q(r) pseudized with 0 coefficients

     PseudoPot. # 2 for Ta read from file:
     ../pseudo/Ta.pbe-spfn-rrkjus_psl.1.0.0.UPF
     MD5 check sum: 39d7d349fe394e56adf8454eb9315fbb
     Pseudo is Ultrasoft + core correction, Zval = 27.0
     Generated using "atomic" code by A. Dal Corso v.6.3
     Using radial grid of 1273 points,  8 beta functions with:
                l(1) =   0
                l(2) =   0
                l(3) =   1
                l(4) =   1
                l(5) =   2
                l(6) =   2
                l(7) =   3
                l(8) =   3
     Q(r) pseudized with 0 coefficients

     atomic species   valence    mass     pseudopotential
        Mn            15.00    54.93804     Mn( 1.00)
        Ta            27.00   180.94788     Ta( 1.00)

     Starting magnetic structure
     atomic species   magnetization
        Mn           0.667
        Ta           0.000

     No symmetry found

   Cartesian axes

     site n.     atom                  positions (alat units)
         1           Mn  tau(   1) = (   0.0000000   0.0000000  10.0000000  )
         2           Mn  tau(   2) = (   3.5372315   2.5006020  10.0000000  )
         3           Ta  tau(   3) = (   2.6525005   0.0000000  10.0000000  )
         4           Ta  tau(   4) = (   0.8847309   2.5006020  10.0000000  )
         5           Mn  tau(   5) = (   5.3050010   3.7503048  12.1659301  )
         6           Mn  tau(   6) = (   1.7677696   1.2497028  12.1659301  )
         7           Ta  tau(   7) = (   2.6525005   3.7503048  12.1659301  )
         8           Ta  tau(   8) = (   4.4202701   1.2497028  12.1659301  )
         9           Mn  tau(   9) = (   3.5360214   2.4997462  14.2083174  )
        10           Mn  tau(  10) = (   7.0732128   5.0003197  14.2083184  )
        11           Ta  tau(  11) = (   6.1886736   2.4998153  14.3603906  )
        12           Ta  tau(  12) = (   4.4208682   5.0004680  14.3603893  )

     number of k points=    74  Fermi-Dirac smearing, width (Ry)=  0.0100
                       cart. coord. in units 2pi/alat
        k(    1) = (   0.0000000   0.0000000   0.0000000), wk =   0.0069444
        k(    2) = (   0.0000000   0.0166627   0.0000000), wk =   0.0138889
        k(    3) = (   0.0000000   0.0333253   0.0000000), wk =   0.0138889
        k(    4) = (   0.0000000   0.0499880   0.0000000), wk =   0.0138889
        k(    5) = (   0.0000000   0.0666506   0.0000000), wk =   0.0138889
        k(    6) = (   0.0000000   0.0833133   0.0000000), wk =   0.0138889
        k(    7) = (   0.0000000  -0.0999759   0.0000000), wk =   0.0069444
        k(    8) = (   0.0157084  -0.0055578   0.0000000), wk =   0.0138889
        k(    9) = (   0.0157084   0.0111049   0.0000000), wk =   0.0138889
        k(   10) = (   0.0157084   0.0277675   0.0000000), wk =   0.0138889
        k(   11) = (   0.0157084   0.0444302   0.0000000), wk =   0.0138889
        k(   12) = (   0.0157084   0.0610929   0.0000000), wk =   0.0138889
        k(   13) = (   0.0157084   0.0777555   0.0000000), wk =   0.0138889
        k(   14) = (   0.0157084  -0.1055337   0.0000000), wk =   0.0138889
        k(   15) = (   0.0157084  -0.0888710   0.0000000), wk =   0.0138889
        k(   16) = (   0.0157084  -0.0722084   0.0000000), wk =   0.0138889
        k(   17) = (   0.0157084  -0.0555457   0.0000000), wk =   0.0138889
        k(   18) = (   0.0157084  -0.0388831   0.0000000), wk =   0.0138889
        k(   19) = (   0.0157084  -0.0222204   0.0000000), wk =   0.0138889
        k(   20) = (   0.0314169  -0.0111155   0.0000000), wk =   0.0138889
        k(   21) = (   0.0314169   0.0055471   0.0000000), wk =   0.0138889
        k(   22) = (   0.0314169   0.0222098   0.0000000), wk =   0.0138889
        k(   23) = (   0.0314169   0.0388724   0.0000000), wk =   0.0138889
        k(   24) = (   0.0314169   0.0555351   0.0000000), wk =   0.0138889
        k(   25) = (   0.0314169   0.0721977   0.0000000), wk =   0.0138889
        k(   26) = (   0.0314169  -0.1110915   0.0000000), wk =   0.0138889
        k(   27) = (   0.0314169  -0.0944288   0.0000000), wk =   0.0138889
        k(   28) = (   0.0314169  -0.0777661   0.0000000), wk =   0.0138889
        k(   29) = (   0.0314169  -0.0611035   0.0000000), wk =   0.0138889
        k(   30) = (   0.0314169  -0.0444408   0.0000000), wk =   0.0138889
        k(   31) = (   0.0314169  -0.0277782   0.0000000), wk =   0.0138889
        k(   32) = (   0.0471253  -0.0166733   0.0000000), wk =   0.0138889
        k(   33) = (   0.0471253  -0.0000106   0.0000000), wk =   0.0138889
        k(   34) = (   0.0471253   0.0166520   0.0000000), wk =   0.0138889
        k(   35) = (   0.0471253   0.0333147   0.0000000), wk =   0.0138889
        k(   36) = (   0.0471253   0.0499773   0.0000000), wk =   0.0138889
        k(   37) = (   0.0471253   0.0666400   0.0000000), wk =   0.0138889
        k(   38) = (   0.0471253  -0.1166492   0.0000000), wk =   0.0138889
        k(   39) = (   0.0471253  -0.0999866   0.0000000), wk =   0.0138889
        k(   40) = (   0.0471253  -0.0833239   0.0000000), wk =   0.0138889
        k(   41) = (   0.0471253  -0.0666612   0.0000000), wk =   0.0138889
        k(   42) = (   0.0471253  -0.0499986   0.0000000), wk =   0.0138889
        k(   43) = (   0.0471253  -0.0333359   0.0000000), wk =   0.0138889
        k(   44) = (   0.0628338  -0.0222310   0.0000000), wk =   0.0138889
        k(   45) = (   0.0628338  -0.0055684   0.0000000), wk =   0.0138889
        k(   46) = (   0.0628338   0.0110943   0.0000000), wk =   0.0138889
        k(   47) = (   0.0628338   0.0277569   0.0000000), wk =   0.0138889
        k(   48) = (   0.0628338   0.0444196   0.0000000), wk =   0.0138889
        k(   49) = (   0.0628338   0.0610822   0.0000000), wk =   0.0138889
        k(   50) = (   0.0628338  -0.1222070   0.0000000), wk =   0.0138889
        k(   51) = (   0.0628338  -0.1055443   0.0000000), wk =   0.0138889
        k(   52) = (   0.0628338  -0.0888817   0.0000000), wk =   0.0138889
        k(   53) = (   0.0628338  -0.0722190   0.0000000), wk =   0.0138889
        k(   54) = (   0.0628338  -0.0555564   0.0000000), wk =   0.0138889
        k(   55) = (   0.0628338  -0.0388937   0.0000000), wk =   0.0138889
        k(   56) = (   0.0785422  -0.0277888   0.0000000), wk =   0.0138889
        k(   57) = (   0.0785422  -0.0111262   0.0000000), wk =   0.0138889
        k(   58) = (   0.0785422   0.0055365   0.0000000), wk =   0.0138889
        k(   59) = (   0.0785422   0.0221992   0.0000000), wk =   0.0138889
        k(   60) = (   0.0785422   0.0388618   0.0000000), wk =   0.0138889
        k(   61) = (   0.0785422   0.0555245   0.0000000), wk =   0.0138889
        k(   62) = (   0.0785422  -0.1277647   0.0000000), wk =   0.0138889
        k(   63) = (   0.0785422  -0.1111021   0.0000000), wk =   0.0138889
        k(   64) = (   0.0785422  -0.0944394   0.0000000), wk =   0.0138889
        k(   65) = (   0.0785422  -0.0777768   0.0000000), wk =   0.0138889
        k(   66) = (   0.0785422  -0.0611141   0.0000000), wk =   0.0138889
        k(   67) = (   0.0785422  -0.0444515   0.0000000), wk =   0.0138889
        k(   68) = (  -0.0942507   0.0333466   0.0000000), wk =   0.0069444
        k(   69) = (  -0.0942507   0.0500092   0.0000000), wk =   0.0138889
        k(   70) = (  -0.0942507   0.0666719   0.0000000), wk =   0.0138889
        k(   71) = (  -0.0942507   0.0833345   0.0000000), wk =   0.0138889
        k(   72) = (  -0.0942507   0.0999972   0.0000000), wk =   0.0138889
        k(   73) = (  -0.0942507   0.1166598   0.0000000), wk =   0.0138889
        k(   74) = (  -0.0942507  -0.0666294   0.0000000), wk =   0.0069444

     Check: negative core charge=   -0.000004
     Generating pointlists ...
     new r_m :   1.0530 (alat units)  1.9898 (a.u.) for type    1
     new r_m :   1.0530 (alat units)  1.9898 (a.u.) for type    2

     Initial potential from superposition of free atoms

     starting charge  251.99195, renormalised to  252.00000

     %%%%%%%%%%%%%%%%%%%%%%%%%%%%%%%%%%%%%%%%%%%%%%%%%%%%%%%%%%%%%%%%%%%%%%%%
     %                                                                      %
     % You are using vdW-DF, which was implemented by the Thonhauser group. %
     % Please cite the following two papers that made this development      %
     % possible and the two reviews that describe the various versions:     %
     %                                                                      %
     %   T. Thonhauser et al., PRL 115, 136402 (2015).                      %
     %   T. Thonhauser et al., PRB 76, 125112 (2007).                       %
     %   K. Berland et al., Rep. Prog. Phys. 78, 066501 (2015).             %
     %   D.C. Langreth et al., J. Phys.: Condens. Matter 21, 084203 (2009). %
     %                                                                      %
     %                                                                      %
     % If you are calculating the stress with vdW-DF, please also cite:     %
     %                                                                      %
     %   R. Sabatini et al., J. Phys.: Condens. Matter 24, 424209 (2012).   %
     %                                                                      %
     %%%%%%%%%%%%%%%%%%%%%%%%%%%%%%%%%%%%%%%%%%%%%%%%%%%%%%%%%%%%%%%%%%%%%%%%

     Adding external electric field

     Computed dipole along edir(3) :
        Dipole               -0.0000 Ry au,         -0.0000 Debye
        Dipole field         -0.0000 Ry au,

        Potential amp.        0.0000 Ry
        Total length         44.8310 bohr

[...]

     Starting wfcs are  162 randomized atomic wfcs

     Self-consistent Calculation

     iteration #  1     ecut=    55.12 Ry     beta= 0.10
     Davidson diagonalization with overlap
     ethr =  1.00E-02,  avg # of iterations =  3.7

[...]

     total energy              =   -5376.63576040 Ry
     estimated scf accuracy    <      10.68318734 Ry

     total magnetization       =    25.28 Bohr mag/cell
     absolute magnetization    =    27.93 Bohr mag/cell

[...]

     iteration # 11     ecut=    55.12 Ry     beta= 0.10
     Davidson diagonalization with overlap
     c_bands:  1 eigenvalues not converged
     c_bands:  1 eigenvalues not converged
     ethr =  3.94E-05,  avg # of iterations =  7.1

[...]

     iteration # 25     ecut=    55.12 Ry     beta= 0.10
     Davidson diagonalization with overlap
     c_bands:  1 eigenvalues not converged
     ethr =  1.21E-07,  avg # of iterations =  5.1

[...]

     total energy              =   -5381.94577368 Ry
     estimated scf accuracy    <       0.00001069 Ry

[...]

     iteration # 34     ecut=    55.12 Ry     beta= 0.10
     Davidson diagonalization with overlap
     ethr =  4.24E-09,  avg # of iterations =  4.8

[...]

     Adding external electric field

     Computed dipole along edir(3) :
        Dipole                0.0228 Ry au,          0.0578 Debye
        Dipole field          0.0001 Ry au,

        Potential amp.       -0.0059 Ry
        Total length         44.8310 bohr

     Magnetic moment per site:
     atom:    1    charge:   13.4905    magn:    1.9593    constr:    0.0000
     atom:    2    charge:   13.4911    magn:    1.9590    constr:    0.0000
     atom:    3    charge:   23.8084    magn:   -0.3356    constr:    0.0000
     atom:    4    charge:   23.8084    magn:   -0.3356    constr:    0.0000
     atom:    5    charge:   13.5935    magn:    0.4545    constr:    0.0000
     atom:    6    charge:   13.5937    magn:    0.4546    constr:    0.0000
     atom:    7    charge:   23.8698    magn:   -0.2422    constr:    0.0000
     atom:    8    charge:   23.8698    magn:   -0.2422    constr:    0.0000
     atom:    9    charge:   13.5406    magn:    1.4648    constr:    0.0000
     atom:   10    charge:   13.5407    magn:    1.4650    constr:    0.0000
     atom:   11    charge:   23.7924    magn:   -0.2622    constr:    0.0000
     atom:   12    charge:   23.7924    magn:   -0.2622    constr:    0.0000

     End of self-consistent calculation

     Number of k-points >= 100: set verbosity='high' to print the bands.

     the Fermi energy is     2.2917 ev

!    total energy              =   -5381.06930778 Ry
     estimated scf accuracy    <       0.00000863 Ry
     smearing contrib. (-TS)   =      -0.05575835 Ry
     internal energy E=F+TS    =   -5381.01354942 Ry

     The total energy is F=E-TS. E is the sum of the following terms:
     one-electron contribution =  -39073.40273608 Ry
     hartree contribution      =   19637.83622208 Ry
     xc contribution           =    -587.75467600 Ry
     ewald contribution        =   14642.30763908 Ry
     electric field correction =       0.00000149 Ry

     total magnetization       =     5.29 Bohr mag/cell
     absolute magnetization    =    11.13 Bohr mag/cell

     convergence has been achieved in  34 iterations

     Forces acting on atoms (cartesian axes, Ry/au):

     atom    1 type  1   force =    -0.00005537   -0.00003859    0.02075675
     atom    2 type  1   force =    -0.00000923   -0.00000594    0.02095266
     atom    3 type  2   force =    -0.00007209   -0.00017425   -0.01133175
     atom    4 type  2   force =    -0.00018901   -0.00001049   -0.01133226
     atom    5 type  1   force =     0.00010311    0.00007192   -0.00237455
     atom    6 type  1   force =    -0.00003730   -0.00002526   -0.00237628
     atom    7 type  2   force =     0.00003453    0.00011046   -0.00545113
     atom    8 type  2   force =     0.00011667   -0.00000239   -0.00545014
     atom    9 type  1   force =     0.00006074    0.00004228    0.00167456
     atom   10 type  1   force =     0.00001232    0.00000850    0.00158044
     atom   11 type  2   force =    -0.00004292    0.00009802   -0.00332463
     atom   12 type  2   force =     0.00007855   -0.00007427   -0.00332367

     Total force =     0.034999     Total SCF correction =     0.005463
     SCF correction compared to forces is large: reduce conv_thr to get better values

     Writing output data file ./Mn2Ta2/Mn2Ta2_beef.save/

     General routines

     Parallel routines

   This run was terminated on:  22:20:34   2Jul2022

   JOB DONE.