     Program PWSCF v.6.6 starts on  2Jul2022 at 17:53: 8

     R & G space division:  proc/nbgrp/npool/nimage =      37
     Fft bands division:     nmany     =       1
     Reading input from Mn2W2.in
Warning: card &CELL ignored
Warning: card / ignored

     Current dimensions of program PWSCF are:
     Max number of different atomic species (ntypx) = 10
     Max number of k-points (npk) =  40000
     Max angular momentum in pseudopotentials (lmaxx) =  3
     Presently stress not available with electric field and gates

     Message from routine cell_base_init:
     DEPRECATED: use true lattice parameter, not A to a.u. conversion factor
     Message from routine emend_upf/check:
     BEWARE !!! Possible out of bounds while fixing pseudo
     Message from routine emend_upf/check:
     BEWARE !!! Possible out of bounds while fixing pseudo
     Message from routine read_upf:
     Pseudo file W.pbe-spn-rrkjus_psl.0.2.3.UPF has been fixed on the fly.
     To avoid this message in the future, permanently fix
     your pseudo files following these instructions:
     file Mn.pbe-spn-rrkjus_psl.0.3.1.UPF: wavefunction(s)  3D renormalized

     IMPORTANT: XC functional enforced from input :
     Exchange-correlation= BEEF-VDW
                           (   1   4  43  14   2   0   0)
     Any further DFT definition will be discarded
     Please, verify this is what you really want

     Subspace diagonalization in iterative solution of the eigenvalue problem:
     a serial algorithm will be used

     bravais-lattice index     =            0
     lattice parameter (alat)  =       1.8897  a.u.
     unit-cell volume          =    4197.3305 (a.u.)^3
     number of atoms/cell      =           12
     number of atomic types    =            2
     number of electrons       =       174.00
     number of Kohn-Sham states=          104
     kinetic-energy cutoff     =      55.1240  Ry
     charge density cutoff     =     551.2396  Ry
     convergence threshold     =      1.0E-05
     mixing beta               =       0.1000
     number of iterations used =           10  plain     mixing
     Exchange-correlation= BEEF-VDW
                           (   1   4  43  14   2   0   0)

     celldm(1)=   1.889726  celldm(2)=   0.000000  celldm(3)=   0.000000
     celldm(4)=   0.000000  celldm(5)=   0.000000  celldm(6)=   0.000000

     crystal axes: (cart. coord. in units of alat)
               a(1) = (   5.210064   0.000000   0.000000 )
               a(2) = (   1.701522   4.924387   0.000000 )
               a(3) = (   0.000000   0.000000  24.242724 )

     reciprocal axes: (cart. coord. in units 2 pi/alat)
               b(1) = (  0.191936 -0.066320  0.000000 )
               b(2) = (  0.000000  0.203071  0.000000 )
               b(3) = (  0.000000  0.000000  0.041249 )

     PseudoPot. # 1 for Mn read from file:
     ../pseudo/Mn.pbe-spn-rrkjus_psl.0.3.1.UPF
     MD5 check sum: e1cac159bdd2ba70c18e85765a5d4279
     Pseudo is Ultrasoft + core correction, Zval = 15.0
     Generated using "atomic" code by A. Dal Corso v.6.2.2
     Using radial grid of 1187 points,  6 beta functions with:
                l(1) =   0
                l(2) =   0
                l(3) =   1
                l(4) =   1
                l(5) =   2
                l(6) =   2
     Q(r) pseudized with 0 coefficients

     PseudoPot. # 2 for W  read from file:
     ../pseudo/W.pbe-spn-rrkjus_psl.0.2.3.UPF
     MD5 check sum: 25b665cf2bbae626ad8d9f1bc024df95
     Pseudo is Ultrasoft + core correction, Zval = 14.0
     Generated using "atomic" code by A. Dal Corso v.5.0.2 svn rev. 10551
     Using radial grid of 1273 points,  6 beta functions with:
                l(1) =   0
                l(2) =   0
                l(3) =   1
                l(4) =   1
                l(5) =   2
                l(6) =   2
     Q(r) pseudized with 0 coefficients

     atomic species   valence    mass     pseudopotential
        Mn            15.00    54.93804     Mn( 1.00)
        W             14.00   183.84000     W ( 1.00)

     Starting magnetic structure
     atomic species   magnetization
        Mn           0.667
        W            0.000

     No symmetry found

   Cartesian axes

     site n.     atom                  positions (alat units)
         1           Mn  tau(   1) = (   0.0000000   0.0000000  10.0000000  )
         2           Mn  tau(   2) = (   3.4557927   2.4621936  10.0000000  )
         3           W   tau(   3) = (   2.6050319   0.0000000  10.0000000  )
         4           W   tau(   4) = (   0.8507608   2.4621936  10.0000000  )
         5           Mn  tau(   5) = (   5.2100638   3.7120820  12.1213619  )
         6           Mn  tau(   6) = (   1.7542711   1.2498884  12.1213619  )
         7           W   tau(   7) = (   2.6050319   3.7120820  12.1213619  )
         8           W   tau(   8) = (   4.3593030   1.2498884  12.1213619  )
         9           Mn  tau(   9) = (   3.4879469   2.4850997  14.0777895  )
        10           Mn  tau(  10) = (   0.0322859   0.0230064  14.0777813  )
        11           W   tau(  11) = (   0.8823390   2.4847147  14.2350172  )
        12           W   tau(  12) = (   2.6366254   0.0224877  14.2350181  )

     number of k points=    74  Fermi-Dirac smearing, width (Ry)=  0.0100
                       cart. coord. in units 2pi/alat
        k(    1) = (   0.0000000   0.0000000   0.0000000), wk =   0.0069444
        k(    2) = (   0.0000000   0.0169226   0.0000000), wk =   0.0138889
        k(    3) = (   0.0000000   0.0338452   0.0000000), wk =   0.0138889
        k(    4) = (   0.0000000   0.0507677   0.0000000), wk =   0.0138889
        k(    5) = (   0.0000000   0.0676903   0.0000000), wk =   0.0138889
        k(    6) = (   0.0000000   0.0846129   0.0000000), wk =   0.0138889
        k(    7) = (   0.0000000  -0.1015355   0.0000000), wk =   0.0069444
        k(    8) = (   0.0159947  -0.0055266   0.0000000), wk =   0.0138889
        k(    9) = (   0.0159947   0.0113959   0.0000000), wk =   0.0138889
        k(   10) = (   0.0159947   0.0283185   0.0000000), wk =   0.0138889
        k(   11) = (   0.0159947   0.0452411   0.0000000), wk =   0.0138889
        k(   12) = (   0.0159947   0.0621637   0.0000000), wk =   0.0138889
        k(   13) = (   0.0159947   0.0790863   0.0000000), wk =   0.0138889
        k(   14) = (   0.0159947  -0.1070621   0.0000000), wk =   0.0138889
        k(   15) = (   0.0159947  -0.0901395   0.0000000), wk =   0.0138889
        k(   16) = (   0.0159947  -0.0732170   0.0000000), wk =   0.0138889
        k(   17) = (   0.0159947  -0.0562944   0.0000000), wk =   0.0138889
        k(   18) = (   0.0159947  -0.0393718   0.0000000), wk =   0.0138889
        k(   19) = (   0.0159947  -0.0224492   0.0000000), wk =   0.0138889
        k(   20) = (   0.0319894  -0.0110533   0.0000000), wk =   0.0138889
        k(   21) = (   0.0319894   0.0058693   0.0000000), wk =   0.0138889
        k(   22) = (   0.0319894   0.0227919   0.0000000), wk =   0.0138889
        k(   23) = (   0.0319894   0.0397145   0.0000000), wk =   0.0138889
        k(   24) = (   0.0319894   0.0566370   0.0000000), wk =   0.0138889
        k(   25) = (   0.0319894   0.0735596   0.0000000), wk =   0.0138889
        k(   26) = (   0.0319894  -0.1125888   0.0000000), wk =   0.0138889
        k(   27) = (   0.0319894  -0.0956662   0.0000000), wk =   0.0138889
        k(   28) = (   0.0319894  -0.0787436   0.0000000), wk =   0.0138889
        k(   29) = (   0.0319894  -0.0618210   0.0000000), wk =   0.0138889
        k(   30) = (   0.0319894  -0.0448984   0.0000000), wk =   0.0138889
        k(   31) = (   0.0319894  -0.0279759   0.0000000), wk =   0.0138889
        k(   32) = (   0.0479841  -0.0165799   0.0000000), wk =   0.0138889
        k(   33) = (   0.0479841   0.0003427   0.0000000), wk =   0.0138889
        k(   34) = (   0.0479841   0.0172652   0.0000000), wk =   0.0138889
        k(   35) = (   0.0479841   0.0341878   0.0000000), wk =   0.0138889
        k(   36) = (   0.0479841   0.0511104   0.0000000), wk =   0.0138889
        k(   37) = (   0.0479841   0.0680330   0.0000000), wk =   0.0138889
        k(   38) = (   0.0479841  -0.1181154   0.0000000), wk =   0.0138889
        k(   39) = (   0.0479841  -0.1011928   0.0000000), wk =   0.0138889
        k(   40) = (   0.0479841  -0.0842702   0.0000000), wk =   0.0138889
        k(   41) = (   0.0479841  -0.0673477   0.0000000), wk =   0.0138889
        k(   42) = (   0.0479841  -0.0504251   0.0000000), wk =   0.0138889
        k(   43) = (   0.0479841  -0.0335025   0.0000000), wk =   0.0138889
        k(   44) = (   0.0639787  -0.0221066   0.0000000), wk =   0.0138889
        k(   45) = (   0.0639787  -0.0051840   0.0000000), wk =   0.0138889
        k(   46) = (   0.0639787   0.0117386   0.0000000), wk =   0.0138889
        k(   47) = (   0.0639787   0.0286612   0.0000000), wk =   0.0138889
        k(   48) = (   0.0639787   0.0455838   0.0000000), wk =   0.0138889
        k(   49) = (   0.0639787   0.0625063   0.0000000), wk =   0.0138889
        k(   50) = (   0.0639787  -0.1236420   0.0000000), wk =   0.0138889
        k(   51) = (   0.0639787  -0.1067195   0.0000000), wk =   0.0138889
        k(   52) = (   0.0639787  -0.0897969   0.0000000), wk =   0.0138889
        k(   53) = (   0.0639787  -0.0728743   0.0000000), wk =   0.0138889
        k(   54) = (   0.0639787  -0.0559517   0.0000000), wk =   0.0138889
        k(   55) = (   0.0639787  -0.0390291   0.0000000), wk =   0.0138889
        k(   56) = (   0.0799734  -0.0276332   0.0000000), wk =   0.0138889
        k(   57) = (   0.0799734  -0.0107106   0.0000000), wk =   0.0138889
        k(   58) = (   0.0799734   0.0062120   0.0000000), wk =   0.0138889
        k(   59) = (   0.0799734   0.0231345   0.0000000), wk =   0.0138889
        k(   60) = (   0.0799734   0.0400571   0.0000000), wk =   0.0138889
        k(   61) = (   0.0799734   0.0569797   0.0000000), wk =   0.0138889
        k(   62) = (   0.0799734  -0.1291687   0.0000000), wk =   0.0138889
        k(   63) = (   0.0799734  -0.1122461   0.0000000), wk =   0.0138889
        k(   64) = (   0.0799734  -0.0953235   0.0000000), wk =   0.0138889
        k(   65) = (   0.0799734  -0.0784009   0.0000000), wk =   0.0138889
        k(   66) = (   0.0799734  -0.0614784   0.0000000), wk =   0.0138889
        k(   67) = (   0.0799734  -0.0445558   0.0000000), wk =   0.0138889
        k(   68) = (  -0.0959681   0.0331598   0.0000000), wk =   0.0069444
        k(   69) = (  -0.0959681   0.0500824   0.0000000), wk =   0.0138889
        k(   70) = (  -0.0959681   0.0670050   0.0000000), wk =   0.0138889
        k(   71) = (  -0.0959681   0.0839276   0.0000000), wk =   0.0138889
        k(   72) = (  -0.0959681   0.1008502   0.0000000), wk =   0.0138889
        k(   73) = (  -0.0959681   0.1177727   0.0000000), wk =   0.0138889
        k(   74) = (  -0.0959681  -0.0683756   0.0000000), wk =   0.0069444

     Check: negative core charge=   -0.000003
     Generating pointlists ...
     new r_m :   1.0199 (alat units)  1.9272 (a.u.) for type    1
     new r_m :   1.0199 (alat units)  1.9272 (a.u.) for type    2

     Initial potential from superposition of free atoms

     starting charge  173.99367, renormalised to  174.00000

     %%%%%%%%%%%%%%%%%%%%%%%%%%%%%%%%%%%%%%%%%%%%%%%%%%%%%%%%%%%%%%%%%%%%%%%%
     %                                                                      %
     % You are using vdW-DF, which was implemented by the Thonhauser group. %
     % Please cite the following two papers that made this development      %
     % possible and the two reviews that describe the various versions:     %
     %                                                                      %
     %   T. Thonhauser et al., PRL 115, 136402 (2015).                      %
     %   T. Thonhauser et al., PRB 76, 125112 (2007).                       %
     %   K. Berland et al., Rep. Prog. Phys. 78, 066501 (2015).             %
     %   D.C. Langreth et al., J. Phys.: Condens. Matter 21, 084203 (2009). %
     %                                                                      %
     %                                                                      %
     % If you are calculating the stress with vdW-DF, please also cite:     %
     %                                                                      %
     %   R. Sabatini et al., J. Phys.: Condens. Matter 24, 424209 (2012).   %
     %                                                                      %
     %%%%%%%%%%%%%%%%%%%%%%%%%%%%%%%%%%%%%%%%%%%%%%%%%%%%%%%%%%%%%%%%%%%%%%%%

     Adding external electric field

     Computed dipole along edir(3) :
        Dipole                0.0000 Ry au,          0.0001 Debye
        Dipole field          0.0000 Ry au,

        Potential amp.       -0.0000 Ry
        Total length         44.6668 bohr

[...]

     Starting wfcs are  138 randomized atomic wfcs

     Self-consistent Calculation

     iteration #  1     ecut=    55.12 Ry     beta= 0.10
     Davidson diagonalization with overlap
     ethr =  1.00E-02,  avg # of iterations =  2.2

[...]

     total energy              =   -2239.97963292 Ry
     estimated scf accuracy    <       9.51444646 Ry

     total magnetization       =    25.32 Bohr mag/cell
     absolute magnetization    =    28.13 Bohr mag/cell

[...]

     iteration #  8     ecut=    55.12 Ry     beta= 0.10
     Davidson diagonalization with overlap
     c_bands:  1 eigenvalues not converged
     c_bands:  1 eigenvalues not converged
     c_bands:  1 eigenvalues not converged
     ethr =  1.37E-04,  avg # of iterations =  8.0

[...]

     iteration # 30     ecut=    55.12 Ry     beta= 0.10
     Davidson diagonalization with overlap
     c_bands:  1 eigenvalues not converged
     ethr =  7.12E-08,  avg # of iterations =  5.6

[...]

     total energy              =   -2244.91208407 Ry
     estimated scf accuracy    <       0.00001756 Ry

[...]

     iteration # 62     ecut=    55.12 Ry     beta= 0.10
     Davidson diagonalization with overlap
     ethr =  5.95E-09,  avg # of iterations =  9.0

[...]

     Adding external electric field

     Computed dipole along edir(3) :
        Dipole                0.0268 Ry au,          0.0681 Debye
        Dipole field          0.0001 Ry au,

        Potential amp.       -0.0072 Ry
        Total length         44.6668 bohr

     Magnetic moment per site:
     atom:    1    charge:   13.3191    magn:    1.8686    constr:    0.0000
     atom:    2    charge:   13.3181    magn:    1.8684    constr:    0.0000
     atom:    3    charge:   10.5877    magn:   -0.4486    constr:    0.0000
     atom:    4    charge:   10.5877    magn:   -0.4486    constr:    0.0000
     atom:    5    charge:   13.4244    magn:    1.1918    constr:    0.0000
     atom:    6    charge:   13.4240    magn:    1.1920    constr:    0.0000
     atom:    7    charge:   10.6453    magn:   -0.2228    constr:    0.0000
     atom:    8    charge:   10.6453    magn:   -0.2228    constr:    0.0000
     atom:    9    charge:   13.3884    magn:    0.8208    constr:    0.0000
     atom:   10    charge:   13.3889    magn:    0.8207    constr:    0.0000
     atom:   11    charge:   10.5734    magn:   -0.2561    constr:    0.0000
     atom:   12    charge:   10.5734    magn:   -0.2561    constr:    0.0000

     End of self-consistent calculation

     Number of k-points >= 100: set verbosity='high' to print the bands.

     the Fermi energy is     1.8965 ev

!    total energy              =   -2244.13672320 Ry
     estimated scf accuracy    <       0.00000890 Ry
     smearing contrib. (-TS)   =      -0.07003363 Ry
     internal energy E=F+TS    =   -2244.06668956 Ry

     The total energy is F=E-TS. E is the sum of the following terms:
     one-electron contribution =  -18551.49168539 Ry
     hartree contribution      =    9264.96557636 Ry
     xc contribution           =    -421.70551097 Ry
     ewald contribution        =    7464.16492830 Ry
     electric field correction =       0.00000215 Ry

     total magnetization       =     5.09 Bohr mag/cell
     absolute magnetization    =    11.26 Bohr mag/cell

     convergence has been achieved in  62 iterations

     Forces acting on atoms (cartesian axes, Ry/au):

     atom    1 type  1   force =     0.00064301    0.00046022    0.00782076
     atom    2 type  1   force =     0.00057256    0.00040650    0.00771749
     atom    3 type  2   force =     0.00225223    0.00155803    0.00404395
     atom    4 type  2   force =     0.00220853    0.00162131    0.00404484
     atom    5 type  1   force =    -0.00029224   -0.00020723   -0.00709887
     atom    6 type  1   force =    -0.00005563   -0.00004092   -0.00711414
     atom    7 type  2   force =    -0.00193402   -0.00122004   -0.01177438
     atom    8 type  2   force =    -0.00178343   -0.00142882   -0.01177296
     atom    9 type  1   force =    -0.00045369   -0.00032105    0.00637034
     atom   10 type  1   force =    -0.00030926   -0.00022437    0.00624429
     atom   11 type  2   force =    -0.00044957   -0.00026820    0.00075990
     atom   12 type  2   force =    -0.00039849   -0.00033543    0.00075877

     Total force =     0.025301     Total SCF correction =     0.002175

     Writing output data file ./Mn2W2/Mn2W2_beef.save/

     General routines

     Parallel routines

   This run was terminated on:   1:13:13   3Jul2022

   JOB DONE.