     Program PWSCF v.6.6 starts on  2Jul2022 at 11:16:29

     R & G space division:  proc/nbgrp/npool/nimage =      37
     Fft bands division:     nmany     =       1
     Reading input from Mn2Y2.in
Warning: card &CELL ignored
Warning: card / ignored

     Current dimensions of program PWSCF are:
     Max number of different atomic species (ntypx) = 10
     Max number of k-points (npk) =  40000
     Max angular momentum in pseudopotentials (lmaxx) =  3
     Presently stress not available with electric field and gates

     Message from routine cell_base_init:
     DEPRECATED: use true lattice parameter, not A to a.u. conversion factor
     file Mn.pbe-spn-rrkjus_psl.0.3.1.UPF: wavefunction(s)  3D renormalized
     file Y.pbe-spn-rrkjus_psl.1.0.0.UPF: wavefunction(s)  4S renormalized

     IMPORTANT: XC functional enforced from input :
     Exchange-correlation= BEEF-VDW
                           (   1   4  43  14   2   0   0)
     Any further DFT definition will be discarded
     Please, verify this is what you really want

     Subspace diagonalization in iterative solution of the eigenvalue problem:
     a serial algorithm will be used

     bravais-lattice index     =            0
     lattice parameter (alat)  =       1.8897  a.u.
     unit-cell volume          =    6111.8794 (a.u.)^3
     number of atoms/cell      =           12
     number of atomic types    =            2
     number of electrons       =       156.00
     number of Kohn-Sham states=           94
     kinetic-energy cutoff     =      55.1240  Ry
     charge density cutoff     =     551.2396  Ry
     convergence threshold     =      1.0E-05
     mixing beta               =       0.1000
     number of iterations used =           10  plain     mixing
     Exchange-correlation= BEEF-VDW
                           (   1   4  43  14   2   0   0)

     celldm(1)=   1.889726  celldm(2)=   0.000000  celldm(3)=   0.000000
     celldm(4)=   0.000000  celldm(5)=   0.000000  celldm(6)=   0.000000

     crystal axes: (cart. coord. in units of alat)
               a(1) = (   6.185729   0.000000   0.000000 )
               a(2) = (   2.015056   5.848315   0.000000 )
               a(3) = (   0.000000   0.000000  25.035520 )

     reciprocal axes: (cart. coord. in units 2 pi/alat)
               b(1) = (  0.161662 -0.055701  0.000000 )
               b(2) = (  0.000000  0.170989  0.000000 )
               b(3) = (  0.000000  0.000000  0.039943 )

     PseudoPot. # 1 for Mn read from file:
     ../pseudo/Mn.pbe-spn-rrkjus_psl.0.3.1.UPF
     MD5 check sum: e1cac159bdd2ba70c18e85765a5d4279
     Pseudo is Ultrasoft + core correction, Zval = 15.0
     Generated using "atomic" code by A. Dal Corso v.6.2.2
     Using radial grid of 1187 points,  6 beta functions with:
                l(1) =   0
                l(2) =   0
                l(3) =   1
                l(4) =   1
                l(5) =   2
                l(6) =   2
     Q(r) pseudized with 0 coefficients

     PseudoPot. # 2 for Y  read from file:
     ../pseudo/Y.pbe-spn-rrkjus_psl.1.0.0.UPF
     MD5 check sum: 5fe32e6a006803c2ec2edff47948a3c8
     Pseudo is Ultrasoft + core correction, Zval = 11.0
     Generated using "atomic" code by A. Dal Corso v.6.2.2
     Using radial grid of 1223 points,  6 beta functions with:
                l(1) =   0
                l(2) =   0
                l(3) =   1
                l(4) =   1
                l(5) =   2
                l(6) =   2
     Q(r) pseudized with 0 coefficients

     atomic species   valence    mass     pseudopotential
        Mn            15.00    54.93804     Mn( 1.00)
        Y             11.00    88.90584     Y ( 1.00)

     Starting magnetic structure
     atomic species   magnetization
        Mn           0.667
        Y            0.000

     No symmetry found

   Cartesian axes

     site n.     atom                  positions (alat units)
         1           Mn  tau(   1) = (   0.0000000   0.0000000  10.0000000  )
         2           Mn  tau(   2) = (   4.1003922   2.9241577  10.0000000  )
         3           Y   tau(   3) = (   3.0928644   0.0000000  10.0000000  )
         4           Y   tau(   4) = (   1.0075278   2.9241577  10.0000000  )
         5           Mn  tau(   5) = (   6.1857288   4.4112966  12.5177601  )
         6           Mn  tau(   6) = (   2.0853366   1.4871390  12.5177601  )
         7           Y   tau(   7) = (   3.0928644   4.4112966  12.5177601  )
         8           Y   tau(   8) = (   5.1782010   1.4871390  12.5177601  )
         9           Mn  tau(   9) = (   4.1672434   2.9718064  14.8400513  )
        10           Mn  tau(  10) = (   0.0662977   0.0473092  14.8399940  )
        11           Y   tau(  11) = (   1.0664081   2.9660190  14.9831046  )
        12           Y   tau(  12) = (   3.1515914   0.0420122  14.9831050  )

     number of k points=    74  Fermi-Dirac smearing, width (Ry)=  0.0100
                       cart. coord. in units 2pi/alat
        k(    1) = (   0.0000000   0.0000000   0.0000000), wk =   0.0069444
        k(    2) = (   0.0000000   0.0142491   0.0000000), wk =   0.0138889
        k(    3) = (   0.0000000   0.0284982   0.0000000), wk =   0.0138889
        k(    4) = (   0.0000000   0.0427474   0.0000000), wk =   0.0138889
        k(    5) = (   0.0000000   0.0569965   0.0000000), wk =   0.0138889
        k(    6) = (   0.0000000   0.0712456   0.0000000), wk =   0.0138889
        k(    7) = (   0.0000000  -0.0854947   0.0000000), wk =   0.0069444
        k(    8) = (   0.0134719  -0.0046418   0.0000000), wk =   0.0138889
        k(    9) = (   0.0134719   0.0096073   0.0000000), wk =   0.0138889
        k(   10) = (   0.0134719   0.0238565   0.0000000), wk =   0.0138889
        k(   11) = (   0.0134719   0.0381056   0.0000000), wk =   0.0138889
        k(   12) = (   0.0134719   0.0523547   0.0000000), wk =   0.0138889
        k(   13) = (   0.0134719   0.0666038   0.0000000), wk =   0.0138889
        k(   14) = (   0.0134719  -0.0901365   0.0000000), wk =   0.0138889
        k(   15) = (   0.0134719  -0.0758874   0.0000000), wk =   0.0138889
        k(   16) = (   0.0134719  -0.0616383   0.0000000), wk =   0.0138889
        k(   17) = (   0.0134719  -0.0473891   0.0000000), wk =   0.0138889
        k(   18) = (   0.0134719  -0.0331400   0.0000000), wk =   0.0138889
        k(   19) = (   0.0134719  -0.0188909   0.0000000), wk =   0.0138889
        k(   20) = (   0.0269437  -0.0092836   0.0000000), wk =   0.0138889
        k(   21) = (   0.0269437   0.0049656   0.0000000), wk =   0.0138889
        k(   22) = (   0.0269437   0.0192147   0.0000000), wk =   0.0138889
        k(   23) = (   0.0269437   0.0334638   0.0000000), wk =   0.0138889
        k(   24) = (   0.0269437   0.0477129   0.0000000), wk =   0.0138889
        k(   25) = (   0.0269437   0.0619620   0.0000000), wk =   0.0138889
        k(   26) = (   0.0269437  -0.0947783   0.0000000), wk =   0.0138889
        k(   27) = (   0.0269437  -0.0805291   0.0000000), wk =   0.0138889
        k(   28) = (   0.0269437  -0.0662800   0.0000000), wk =   0.0138889
        k(   29) = (   0.0269437  -0.0520309   0.0000000), wk =   0.0138889
        k(   30) = (   0.0269437  -0.0377818   0.0000000), wk =   0.0138889
        k(   31) = (   0.0269437  -0.0235327   0.0000000), wk =   0.0138889
        k(   32) = (   0.0404156  -0.0139253   0.0000000), wk =   0.0138889
        k(   33) = (   0.0404156   0.0003238   0.0000000), wk =   0.0138889
        k(   34) = (   0.0404156   0.0145729   0.0000000), wk =   0.0138889
        k(   35) = (   0.0404156   0.0288220   0.0000000), wk =   0.0138889
        k(   36) = (   0.0404156   0.0430711   0.0000000), wk =   0.0138889
        k(   37) = (   0.0404156   0.0573203   0.0000000), wk =   0.0138889
        k(   38) = (   0.0404156  -0.0994200   0.0000000), wk =   0.0138889
        k(   39) = (   0.0404156  -0.0851709   0.0000000), wk =   0.0138889
        k(   40) = (   0.0404156  -0.0709218   0.0000000), wk =   0.0138889
        k(   41) = (   0.0404156  -0.0566727   0.0000000), wk =   0.0138889
        k(   42) = (   0.0404156  -0.0424236   0.0000000), wk =   0.0138889
        k(   43) = (   0.0404156  -0.0281744   0.0000000), wk =   0.0138889
        k(   44) = (   0.0538875  -0.0185671   0.0000000), wk =   0.0138889
        k(   45) = (   0.0538875  -0.0043180   0.0000000), wk =   0.0138889
        k(   46) = (   0.0538875   0.0099311   0.0000000), wk =   0.0138889
        k(   47) = (   0.0538875   0.0241802   0.0000000), wk =   0.0138889
        k(   48) = (   0.0538875   0.0384294   0.0000000), wk =   0.0138889
        k(   49) = (   0.0538875   0.0526785   0.0000000), wk =   0.0138889
        k(   50) = (   0.0538875  -0.1040618   0.0000000), wk =   0.0138889
        k(   51) = (   0.0538875  -0.0898127   0.0000000), wk =   0.0138889
        k(   52) = (   0.0538875  -0.0755636   0.0000000), wk =   0.0138889
        k(   53) = (   0.0538875  -0.0613145   0.0000000), wk =   0.0138889
        k(   54) = (   0.0538875  -0.0470653   0.0000000), wk =   0.0138889
        k(   55) = (   0.0538875  -0.0328162   0.0000000), wk =   0.0138889
        k(   56) = (   0.0673593  -0.0232089   0.0000000), wk =   0.0138889
        k(   57) = (   0.0673593  -0.0089598   0.0000000), wk =   0.0138889
        k(   58) = (   0.0673593   0.0052894   0.0000000), wk =   0.0138889
        k(   59) = (   0.0673593   0.0195385   0.0000000), wk =   0.0138889
        k(   60) = (   0.0673593   0.0337876   0.0000000), wk =   0.0138889
        k(   61) = (   0.0673593   0.0480367   0.0000000), wk =   0.0138889
        k(   62) = (   0.0673593  -0.1087036   0.0000000), wk =   0.0138889
        k(   63) = (   0.0673593  -0.0944545   0.0000000), wk =   0.0138889
        k(   64) = (   0.0673593  -0.0802054   0.0000000), wk =   0.0138889
        k(   65) = (   0.0673593  -0.0659562   0.0000000), wk =   0.0138889
        k(   66) = (   0.0673593  -0.0517071   0.0000000), wk =   0.0138889
        k(   67) = (   0.0673593  -0.0374580   0.0000000), wk =   0.0138889
        k(   68) = (  -0.0808312   0.0278507   0.0000000), wk =   0.0069444
        k(   69) = (  -0.0808312   0.0420998   0.0000000), wk =   0.0138889
        k(   70) = (  -0.0808312   0.0563489   0.0000000), wk =   0.0138889
        k(   71) = (  -0.0808312   0.0705980   0.0000000), wk =   0.0138889
        k(   72) = (  -0.0808312   0.0848471   0.0000000), wk =   0.0138889
        k(   73) = (  -0.0808312   0.0990963   0.0000000), wk =   0.0138889
        k(   74) = (  -0.0808312  -0.0576441   0.0000000), wk =   0.0069444

     Check: negative core charge=   -0.000003
     Generating pointlists ...
     new r_m :   1.2110 (alat units)  2.2885 (a.u.) for type    1
     new r_m :   1.2110 (alat units)  2.2885 (a.u.) for type    2

     Initial potential from superposition of free atoms

     starting charge  155.97250, renormalised to  156.00000

     %%%%%%%%%%%%%%%%%%%%%%%%%%%%%%%%%%%%%%%%%%%%%%%%%%%%%%%%%%%%%%%%%%%%%%%%
     %                                                                      %
     % You are using vdW-DF, which was implemented by the Thonhauser group. %
     % Please cite the following two papers that made this development      %
     % possible and the two reviews that describe the various versions:     %
     %                                                                      %
     %   T. Thonhauser et al., PRL 115, 136402 (2015).                      %
     %   T. Thonhauser et al., PRB 76, 125112 (2007).                       %
     %   K. Berland et al., Rep. Prog. Phys. 78, 066501 (2015).             %
     %   D.C. Langreth et al., J. Phys.: Condens. Matter 21, 084203 (2009). %
     %                                                                      %
     %                                                                      %
     % If you are calculating the stress with vdW-DF, please also cite:     %
     %                                                                      %
     %   R. Sabatini et al., J. Phys.: Condens. Matter 24, 424209 (2012).   %
     %                                                                      %
     %%%%%%%%%%%%%%%%%%%%%%%%%%%%%%%%%%%%%%%%%%%%%%%%%%%%%%%%%%%%%%%%%%%%%%%%

     Adding external electric field

     Computed dipole along edir(3) :
        Dipole                0.0012 Ry au,          0.0029 Debye
        Dipole field          0.0000 Ry au,

        Potential amp.       -0.0002 Ry
        Total length         46.1275 bohr

[...]

     Starting wfcs are  138 randomized atomic wfcs

     Self-consistent Calculation

     iteration #  1     ecut=    55.12 Ry     beta= 0.10
     Davidson diagonalization with overlap
     ethr =  1.00E-02,  avg # of iterations =  2.4

[...]

     total energy              =   -1790.18235482 Ry
     estimated scf accuracy    <       7.58094414 Ry

     total magnetization       =    29.17 Bohr mag/cell
     absolute magnetization    =    30.16 Bohr mag/cell

[...]

     iteration # 15     ecut=    55.12 Ry     beta= 0.10
     Davidson diagonalization with overlap
     c_bands:  1 eigenvalues not converged
     c_bands:  1 eigenvalues not converged
     c_bands:  3 eigenvalues not converged
     c_bands:  1 eigenvalues not converged
     c_bands:  1 eigenvalues not converged
     c_bands:  2 eigenvalues not converged
     c_bands:  1 eigenvalues not converged
     ethr =  7.05E-05,  avg # of iterations =  6.4

[...]

     iteration # 25     ecut=    55.12 Ry     beta= 0.10
     Davidson diagonalization with overlap
     c_bands:  1 eigenvalues not converged
     c_bands:  1 eigenvalues not converged
     c_bands:  1 eigenvalues not converged
     ethr =  5.64E-08,  avg # of iterations =  6.7

[...]

     total energy              =   -1795.19031539 Ry
     estimated scf accuracy    <       0.00003280 Ry

[...]

     iteration # 31     ecut=    55.12 Ry     beta= 0.10
     Davidson diagonalization with overlap
     ethr =  6.46E-09,  avg # of iterations =  6.8

[...]

     Adding external electric field

     Computed dipole along edir(3) :
        Dipole                0.0241 Ry au,          0.0613 Debye
        Dipole field          0.0000 Ry au,

        Potential amp.       -0.0046 Ry
        Total length         46.1275 bohr

     Magnetic moment per site:
     atom:    1    charge:   13.8221    magn:    3.8344    constr:    0.0000
     atom:    2    charge:   13.8219    magn:    3.8345    constr:    0.0000
     atom:    3    charge:    8.6647    magn:   -0.2816    constr:    0.0000
     atom:    4    charge:    8.6647    magn:   -0.2816    constr:    0.0000
     atom:    5    charge:   13.9090    magn:    3.5355    constr:    0.0000
     atom:    6    charge:   13.9088    magn:    3.5356    constr:    0.0000
     atom:    7    charge:    8.7345    magn:   -0.2567    constr:    0.0000
     atom:    8    charge:    8.7345    magn:   -0.2567    constr:    0.0000
     atom:    9    charge:   13.8752    magn:    3.7219    constr:    0.0000
     atom:   10    charge:   13.8754    magn:    3.7217    constr:    0.0000
     atom:   11    charge:    8.6745    magn:   -0.2689    constr:    0.0000
     atom:   12    charge:    8.6745    magn:   -0.2689    constr:    0.0000

     End of self-consistent calculation

     Number of k-points >= 100: set verbosity='high' to print the bands.

     the Fermi energy is     0.9815 ev

!    total energy              =   -1794.67391156 Ry
     estimated scf accuracy    <       0.00000420 Ry
     smearing contrib. (-TS)   =      -0.08762407 Ry
     internal energy E=F+TS    =   -1794.58628749 Ry

     The total energy is F=E-TS. E is the sum of the following terms:
     one-electron contribution =  -10518.89032346 Ry
     hartree contribution      =    5253.39674073 Ry
     xc contribution           =    -286.64362176 Ry
     ewald contribution        =    3757.55091581 Ry
     electric field correction =       0.00000119 Ry

     total magnetization       =    19.14 Bohr mag/cell
     absolute magnetization    =    26.62 Bohr mag/cell

     convergence has been achieved in  31 iterations

     Forces acting on atoms (cartesian axes, Ry/au):

     atom    1 type  1   force =    -0.00044852   -0.00032418    0.00647689
     atom    2 type  1   force =    -0.00049814   -0.00034976    0.00650923
     atom    3 type  2   force =     0.00131798    0.00092177    0.00391629
     atom    4 type  2   force =     0.00129928    0.00094526    0.00391510
     atom    5 type  1   force =    -0.00039610   -0.00028283    0.00176762
     atom    6 type  1   force =    -0.00023490   -0.00016821    0.00172193
     atom    7 type  2   force =    -0.00039513   -0.00021576   -0.01488954
     atom    8 type  2   force =    -0.00033229   -0.00030234   -0.01489139
     atom    9 type  1   force =    -0.00004208   -0.00003130    0.00134981
     atom   10 type  1   force =     0.00006075    0.00004377    0.00137409
     atom   11 type  2   force =    -0.00017779   -0.00010134    0.00137486
     atom   12 type  2   force =    -0.00015306   -0.00013507    0.00137512

     Total force =     0.024056     Total SCF correction =     0.005417
     SCF correction compared to forces is large: reduce conv_thr to get better values

     Writing output data file ./Mn2Y2/Mn2Y2_beef.save/

     General routines

     Parallel routines

   This run was terminated on:  17:53: 2   2Jul2022

   JOB DONE.