     Program PWSCF v.6.6 starts on 10Jul2022 at  4:37: 2

     R & G space division:  proc/nbgrp/npool/nimage =      37
     Fft bands division:     nmany     =       1
     Reading input from Mn2Zn2.in
Warning: card &CELL ignored
Warning: card / ignored

     Current dimensions of program PWSCF are:
     Max number of different atomic species (ntypx) = 10
     Max number of k-points (npk) =  40000
     Max angular momentum in pseudopotentials (lmaxx) =  3
     Presently stress not available with electric field and gates

     Message from routine cell_base_init:
     DEPRECATED: use true lattice parameter, not A to a.u. conversion factor
     file Mn.pbe-spn-rrkjus_psl.0.3.1.UPF: wavefunction(s)  3D renormalized
     file Zn.pbe-dnl-rrkjus_psl.1.0.0.UPF: wavefunction(s)  3D renormalized

     IMPORTANT: XC functional enforced from input :
     Exchange-correlation= BEEF-VDW
                           (   1   4  43  14   2   0   0)
     Any further DFT definition will be discarded
     Please, verify this is what you really want

     Subspace diagonalization in iterative solution of the eigenvalue problem:
     a serial algorithm will be used

     bravais-lattice index     =            0
     lattice parameter (alat)  =       1.8897  a.u.
     unit-cell volume          =    4177.2535 (a.u.)^3
     number of atoms/cell      =           12
     number of atomic types    =            2
     number of electrons       =       162.00
     number of Kohn-Sham states=           97
     kinetic-energy cutoff     =      55.1240  Ry
     charge density cutoff     =     551.2396  Ry
     convergence threshold     =      1.0E-05
     mixing beta               =       0.1000
     number of iterations used =           10  plain     mixing
     Exchange-correlation= BEEF-VDW
                           (   1   4  43  14   2   0   0)

     celldm(1)=   1.889726  celldm(2)=   0.000000  celldm(3)=   0.000000
     celldm(4)=   0.000000  celldm(5)=   0.000000  celldm(6)=   0.000000

     crystal axes: (cart. coord. in units of alat)
               a(1) = (   5.368604   0.000000   0.000000 )
               a(2) = (   2.553081   4.722678   0.000000 )
               a(3) = (   0.000000   0.000000  24.414319 )

     reciprocal axes: (cart. coord. in units 2 pi/alat)
               b(1) = (  0.186268 -0.100697  0.000000 )
               b(2) = (  0.000000  0.211744  0.000000 )
               b(3) = (  0.000000  0.000000  0.040960 )

     PseudoPot. # 1 for Mn read from file:
     ../pseudo/Mn.pbe-spn-rrkjus_psl.0.3.1.UPF
     MD5 check sum: e1cac159bdd2ba70c18e85765a5d4279
     Pseudo is Ultrasoft + core correction, Zval = 15.0
     Generated using "atomic" code by A. Dal Corso v.6.2.2
     Using radial grid of 1187 points,  6 beta functions with:
                l(1) =   0
                l(2) =   0
                l(3) =   1
                l(4) =   1
                l(5) =   2
                l(6) =   2
     Q(r) pseudized with 0 coefficients

     PseudoPot. # 2 for Zn read from file:
     ../pseudo/Zn.pbe-dnl-rrkjus_psl.1.0.0.UPF
     MD5 check sum: 7f56cabf9682ed8c977c2f7d0c5985c5
     Pseudo is Ultrasoft + core correction, Zval = 12.0
     Generated using "atomic" code by A. Dal Corso v.6.2.2
     Using radial grid of 1201 points,  6 beta functions with:
                l(1) =   0
                l(2) =   0
                l(3) =   1
                l(4) =   1
                l(5) =   2
                l(6) =   2
     Q(r) pseudized with 0 coefficients

     atomic species   valence    mass     pseudopotential
        Mn            15.00    54.93804     Mn( 1.00)
        Zn            12.00    65.38000     Zn( 1.00)

     Starting magnetic structure
     atomic species   magnetization
        Mn           0.667
        Zn           0.000

     No symmetry found

   Cartesian axes

     site n.     atom                  positions (alat units)
         1           Mn  tau(   1) = (   0.0000000   0.0000000  10.0000000  )
         2           Mn  tau(   2) = (   3.9608426   2.3613391  10.0000000  )
         3           Zn  tau(   3) = (   2.6843021   0.0000000  10.0000000  )
         4           Zn  tau(   4) = (   1.2765405   2.3613391  10.0000000  )
         5           Mn  tau(   5) = (   5.3686043   3.2006056  12.2071597  )
         6           Mn  tau(   6) = (   1.4077617   0.8392665  12.2071597  )
         7           Zn  tau(   7) = (   2.6843021   3.2006056  12.2071597  )
         8           Zn  tau(   8) = (   4.0920638   0.8392665  12.2071597  )
         9           Mn  tau(   9) = (   2.8206311   1.6815791  14.4169226  )
        10           Mn  tau(  10) = (   6.7817460   4.0430799  14.4168553  )
        11           Zn  tau(  11) = (   5.4969613   1.6773072  14.5026553  )
        12           Zn  tau(  12) = (   4.0896223   4.0379387  14.5026556  )

     number of k points=    74  Fermi-Dirac smearing, width (Ry)=  0.0100
                       cart. coord. in units 2pi/alat
        k(    1) = (   0.0000000   0.0000000   0.0000000), wk =   0.0069444
        k(    2) = (   0.0000000   0.0176454   0.0000000), wk =   0.0138889
        k(    3) = (   0.0000000   0.0352907   0.0000000), wk =   0.0138889
        k(    4) = (   0.0000000   0.0529361   0.0000000), wk =   0.0138889
        k(    5) = (   0.0000000   0.0705814   0.0000000), wk =   0.0138889
        k(    6) = (   0.0000000   0.0882268   0.0000000), wk =   0.0138889
        k(    7) = (   0.0000000  -0.1058721   0.0000000), wk =   0.0069444
        k(    8) = (   0.0155223  -0.0083914   0.0000000), wk =   0.0138889
        k(    9) = (   0.0155223   0.0092540   0.0000000), wk =   0.0138889
        k(   10) = (   0.0155223   0.0268993   0.0000000), wk =   0.0138889
        k(   11) = (   0.0155223   0.0445447   0.0000000), wk =   0.0138889
        k(   12) = (   0.0155223   0.0621900   0.0000000), wk =   0.0138889
        k(   13) = (   0.0155223   0.0798354   0.0000000), wk =   0.0138889
        k(   14) = (   0.0155223  -0.1142635   0.0000000), wk =   0.0138889
        k(   15) = (   0.0155223  -0.0966182   0.0000000), wk =   0.0138889
        k(   16) = (   0.0155223  -0.0789728   0.0000000), wk =   0.0138889
        k(   17) = (   0.0155223  -0.0613275   0.0000000), wk =   0.0138889
        k(   18) = (   0.0155223  -0.0436821   0.0000000), wk =   0.0138889
        k(   19) = (   0.0155223  -0.0260367   0.0000000), wk =   0.0138889
        k(   20) = (   0.0310447  -0.0167828   0.0000000), wk =   0.0138889
        k(   21) = (   0.0310447   0.0008626   0.0000000), wk =   0.0138889
        k(   22) = (   0.0310447   0.0185079   0.0000000), wk =   0.0138889
        k(   23) = (   0.0310447   0.0361533   0.0000000), wk =   0.0138889
        k(   24) = (   0.0310447   0.0537987   0.0000000), wk =   0.0138889
        k(   25) = (   0.0310447   0.0714440   0.0000000), wk =   0.0138889
        k(   26) = (   0.0310447  -0.1226549   0.0000000), wk =   0.0138889
        k(   27) = (   0.0310447  -0.1050095   0.0000000), wk =   0.0138889
        k(   28) = (   0.0310447  -0.0873642   0.0000000), wk =   0.0138889
        k(   29) = (   0.0310447  -0.0697188   0.0000000), wk =   0.0138889
        k(   30) = (   0.0310447  -0.0520735   0.0000000), wk =   0.0138889
        k(   31) = (   0.0310447  -0.0344281   0.0000000), wk =   0.0138889
        k(   32) = (   0.0465670  -0.0251742   0.0000000), wk =   0.0138889
        k(   33) = (   0.0465670  -0.0075288   0.0000000), wk =   0.0138889
        k(   34) = (   0.0465670   0.0101166   0.0000000), wk =   0.0138889
        k(   35) = (   0.0465670   0.0277619   0.0000000), wk =   0.0138889
        k(   36) = (   0.0465670   0.0454073   0.0000000), wk =   0.0138889
        k(   37) = (   0.0465670   0.0630526   0.0000000), wk =   0.0138889
        k(   38) = (   0.0465670  -0.1310463   0.0000000), wk =   0.0138889
        k(   39) = (   0.0465670  -0.1134009   0.0000000), wk =   0.0138889
        k(   40) = (   0.0465670  -0.0957556   0.0000000), wk =   0.0138889
        k(   41) = (   0.0465670  -0.0781102   0.0000000), wk =   0.0138889
        k(   42) = (   0.0465670  -0.0604649   0.0000000), wk =   0.0138889
        k(   43) = (   0.0465670  -0.0428195   0.0000000), wk =   0.0138889
        k(   44) = (   0.0620894  -0.0335655   0.0000000), wk =   0.0138889
        k(   45) = (   0.0620894  -0.0159202   0.0000000), wk =   0.0138889
        k(   46) = (   0.0620894   0.0017252   0.0000000), wk =   0.0138889
        k(   47) = (   0.0620894   0.0193705   0.0000000), wk =   0.0138889
        k(   48) = (   0.0620894   0.0370159   0.0000000), wk =   0.0138889
        k(   49) = (   0.0620894   0.0546612   0.0000000), wk =   0.0138889
        k(   50) = (   0.0620894  -0.1394377   0.0000000), wk =   0.0138889
        k(   51) = (   0.0620894  -0.1217923   0.0000000), wk =   0.0138889
        k(   52) = (   0.0620894  -0.1041470   0.0000000), wk =   0.0138889
        k(   53) = (   0.0620894  -0.0865016   0.0000000), wk =   0.0138889
        k(   54) = (   0.0620894  -0.0688563   0.0000000), wk =   0.0138889
        k(   55) = (   0.0620894  -0.0512109   0.0000000), wk =   0.0138889
        k(   56) = (   0.0776117  -0.0419569   0.0000000), wk =   0.0138889
        k(   57) = (   0.0776117  -0.0243116   0.0000000), wk =   0.0138889
        k(   58) = (   0.0776117  -0.0066662   0.0000000), wk =   0.0138889
        k(   59) = (   0.0776117   0.0109791   0.0000000), wk =   0.0138889
        k(   60) = (   0.0776117   0.0286245   0.0000000), wk =   0.0138889
        k(   61) = (   0.0776117   0.0462699   0.0000000), wk =   0.0138889
        k(   62) = (   0.0776117  -0.1478291   0.0000000), wk =   0.0138889
        k(   63) = (   0.0776117  -0.1301837   0.0000000), wk =   0.0138889
        k(   64) = (   0.0776117  -0.1125383   0.0000000), wk =   0.0138889
        k(   65) = (   0.0776117  -0.0948930   0.0000000), wk =   0.0138889
        k(   66) = (   0.0776117  -0.0772476   0.0000000), wk =   0.0138889
        k(   67) = (   0.0776117  -0.0596023   0.0000000), wk =   0.0138889
        k(   68) = (  -0.0931341   0.0503483   0.0000000), wk =   0.0069444
        k(   69) = (  -0.0931341   0.0679937   0.0000000), wk =   0.0138889
        k(   70) = (  -0.0931341   0.0856390   0.0000000), wk =   0.0138889
        k(   71) = (  -0.0931341   0.1032844   0.0000000), wk =   0.0138889
        k(   72) = (  -0.0931341   0.1209297   0.0000000), wk =   0.0138889
        k(   73) = (  -0.0931341   0.1385751   0.0000000), wk =   0.0138889
        k(   74) = (  -0.0931341  -0.0555238   0.0000000), wk =   0.0069444

     Check: negative core charge=   -0.000003
     Generating pointlists ...
     new r_m :   1.1046 (alat units)  2.0873 (a.u.) for type    1
     new r_m :   1.1046 (alat units)  2.0873 (a.u.) for type    2

     Initial potential from superposition of free atoms

     starting charge  161.97466, renormalised to  162.00000

     %%%%%%%%%%%%%%%%%%%%%%%%%%%%%%%%%%%%%%%%%%%%%%%%%%%%%%%%%%%%%%%%%%%%%%%%
     %                                                                      %
     % You are using vdW-DF, which was implemented by the Thonhauser group. %
     % Please cite the following two papers that made this development      %
     % possible and the two reviews that describe the various versions:     %
     %                                                                      %
     %   T. Thonhauser et al., PRL 115, 136402 (2015).                      %
     %   T. Thonhauser et al., PRB 76, 125112 (2007).                       %
     %   K. Berland et al., Rep. Prog. Phys. 78, 066501 (2015).             %
     %   D.C. Langreth et al., J. Phys.: Condens. Matter 21, 084203 (2009). %
     %                                                                      %
     %                                                                      %
     % If you are calculating the stress with vdW-DF, please also cite:     %
     %                                                                      %
     %   R. Sabatini et al., J. Phys.: Condens. Matter 24, 424209 (2012).   %
     %                                                                      %
     %%%%%%%%%%%%%%%%%%%%%%%%%%%%%%%%%%%%%%%%%%%%%%%%%%%%%%%%%%%%%%%%%%%%%%%%

     Adding external electric field

     Computed dipole along edir(3) :
        Dipole                0.0006 Ry au,          0.0015 Debye
        Dipole field          0.0000 Ry au,

        Potential amp.       -0.0002 Ry
        Total length         44.9830 bohr

[...]

     Starting wfcs are  114 randomized atomic wfcs

     Self-consistent Calculation

     iteration #  1     ecut=    55.12 Ry     beta= 0.10
     Davidson diagonalization with overlap
     ethr =  1.00E-02,  avg # of iterations =  3.1

[...]

     total energy              =   -2183.56209271 Ry
     estimated scf accuracy    <       4.80640812 Ry

     total magnetization       =    29.33 Bohr mag/cell
     absolute magnetization    =    29.73 Bohr mag/cell

[...]

     total energy              =   -2188.16354323 Ry
     estimated scf accuracy    <       0.00002955 Ry

[...]

     iteration # 21     ecut=    55.12 Ry     beta= 0.10
     Davidson diagonalization with overlap
     ethr =  1.82E-08,  avg # of iterations =  4.2

[...]

     Adding external electric field

     Computed dipole along edir(3) :
        Dipole               -0.0077 Ry au,         -0.0196 Debye
        Dipole field         -0.0000 Ry au,

        Potential amp.        0.0021 Ry
        Total length         44.9830 bohr

     Magnetic moment per site:
     atom:    1    charge:   13.4982    magn:    3.6112    constr:    0.0000
     atom:    2    charge:   13.4985    magn:    3.6111    constr:    0.0000
     atom:    3    charge:   10.7743    magn:   -0.0501    constr:    0.0000
     atom:    4    charge:   10.7743    magn:   -0.0501    constr:    0.0000
     atom:    5    charge:   13.5824    magn:    3.2398    constr:    0.0000
     atom:    6    charge:   13.5814    magn:    3.2404    constr:    0.0000
     atom:    7    charge:   10.8481    magn:   -0.0886    constr:    0.0000
     atom:    8    charge:   10.8481    magn:   -0.0886    constr:    0.0000
     atom:    9    charge:   13.4956    magn:    3.6092    constr:    0.0000
     atom:   10    charge:   13.4958    magn:    3.6090    constr:    0.0000
     atom:   11    charge:   10.7547    magn:   -0.0502    constr:    0.0000
     atom:   12    charge:   10.7547    magn:   -0.0502    constr:    0.0000

     End of self-consistent calculation

     Number of k-points >= 100: set verbosity='high' to print the bands.

     the Fermi energy is     0.3693 ev

!    total energy              =   -2186.62575340 Ry
     estimated scf accuracy    <       0.00000724 Ry
     smearing contrib. (-TS)   =      -0.04492924 Ry
     internal energy E=F+TS    =   -2186.58082416 Ry

     The total energy is F=E-TS. E is the sum of the following terms:
     one-electron contribution =  -16195.98318649 Ry
     hartree contribution      =    8168.05357639 Ry
     xc contribution           =    -465.46107837 Ry
     ewald contribution        =    6306.80986414 Ry
     electric field correction =       0.00000018 Ry

     total magnetization       =    21.33 Bohr mag/cell
     absolute magnetization    =    23.19 Bohr mag/cell

     convergence has been achieved in  21 iterations

     Forces acting on atoms (cartesian axes, Ry/au):

     atom    1 type  1   force =     0.00005312    0.00003092   -0.00140115
     atom    2 type  1   force =    -0.00006747   -0.00004262   -0.00148558
     atom    3 type  2   force =     0.00042323    0.00041774   -0.00774878
     atom    4 type  2   force =     0.00055500    0.00016226   -0.00774813
     atom    5 type  1   force =    -0.00149213   -0.00087933    0.00568794
     atom    6 type  1   force =    -0.00148544   -0.00089719    0.00578811
     atom    7 type  2   force =     0.00112771    0.00068612    0.00209476
     atom    8 type  2   force =     0.00112907    0.00066167    0.00209867
     atom    9 type  1   force =    -0.00137905   -0.00082462    0.00196538
     atom   10 type  1   force =    -0.00116919   -0.00069142    0.00204214
     atom   11 type  2   force =     0.00126510    0.00050427   -0.00064686
     atom   12 type  2   force =     0.00104005    0.00087219   -0.00064650

     Total force =     0.015035     Total SCF correction =     0.009861
     SCF correction compared to forces is large: reduce conv_thr to get better values

     Writing output data file ./Mn2Zn2/Mn2Zn2_beef.save/

     General routines

     Parallel routines

   This run was terminated on:   6:23:21  10Jul2022

   JOB DONE.