     Program PWSCF v.6.6 starts on  2Jul2022 at  0:46:16

     R & G space division:  proc/nbgrp/npool/nimage =      37
     Fft bands division:     nmany     =       1
     Reading input from Mn2Zr2.in
Warning: card &CELL ignored
Warning: card / ignored

     Current dimensions of program PWSCF are:
     Max number of different atomic species (ntypx) = 10
     Max number of k-points (npk) =  40000
     Max angular momentum in pseudopotentials (lmaxx) =  3
     Presently stress not available with electric field and gates

     Message from routine cell_base_init:
     DEPRECATED: use true lattice parameter, not A to a.u. conversion factor
     file Mn.pbe-spn-rrkjus_psl.0.3.1.UPF: wavefunction(s)  3D renormalized
     file Zr.pbe-spn-rrkjus_psl.1.0.0.UPF: wavefunction(s)  4S renormalized

     IMPORTANT: XC functional enforced from input :
     Exchange-correlation= BEEF-VDW
                           (   1   4  43  14   2   0   0)
     Any further DFT definition will be discarded
     Please, verify this is what you really want

     Subspace diagonalization in iterative solution of the eigenvalue problem:
     a serial algorithm will be used

     bravais-lattice index     =            0
     lattice parameter (alat)  =       1.8897  a.u.
     unit-cell volume          =    4809.3267 (a.u.)^3
     number of atoms/cell      =           12
     number of atomic types    =            2
     number of electrons       =       162.00
     number of Kohn-Sham states=           97
     kinetic-energy cutoff     =      55.1240  Ry
     charge density cutoff     =     551.2396  Ry
     convergence threshold     =      1.0E-05
     mixing beta               =       0.1000
     number of iterations used =           10  plain     mixing
     Exchange-correlation= BEEF-VDW
                           (   1   4  43  14   2   0   0)

     celldm(1)=   1.889726  celldm(2)=   0.000000  celldm(3)=   0.000000
     celldm(4)=   0.000000  celldm(5)=   0.000000  celldm(6)=   0.000000

     crystal axes: (cart. coord. in units of alat)
               a(1) = (   5.550768   0.000000   0.000000 )
               a(2) = (   1.849347   5.233635   0.000000 )
               a(3) = (   0.000000   0.000000  24.531904 )

     reciprocal axes: (cart. coord. in units 2 pi/alat)
               b(1) = (  0.180155 -0.063659  0.000000 )
               b(2) = (  0.000000  0.191072  0.000000 )
               b(3) = (  0.000000  0.000000  0.040763 )

     PseudoPot. # 1 for Mn read from file:
     ../pseudo/Mn.pbe-spn-rrkjus_psl.0.3.1.UPF
     MD5 check sum: e1cac159bdd2ba70c18e85765a5d4279
     Pseudo is Ultrasoft + core correction, Zval = 15.0
     Generated using "atomic" code by A. Dal Corso v.6.2.2
     Using radial grid of 1187 points,  6 beta functions with:
                l(1) =   0
                l(2) =   0
                l(3) =   1
                l(4) =   1
                l(5) =   2
                l(6) =   2
     Q(r) pseudized with 0 coefficients

     PseudoPot. # 2 for Zr read from file:
     ../pseudo/Zr.pbe-spn-rrkjus_psl.1.0.0.UPF
     MD5 check sum: 3d17ee99aa1707c2ccb6b09ed65e51a1
     Pseudo is Ultrasoft + core correction, Zval = 12.0
     Generated using "atomic" code by A. Dal Corso v.6.2.2
     Using radial grid of 1225 points,  6 beta functions with:
                l(1) =   0
                l(2) =   0
                l(3) =   1
                l(4) =   1
                l(5) =   2
                l(6) =   2
     Q(r) pseudized with 0 coefficients

     atomic species   valence    mass     pseudopotential
        Mn            15.00    54.93804     Mn( 1.00)
        Zr            12.00    91.22400     Zr( 1.00)

     Starting magnetic structure
     atomic species   magnetization
        Mn           0.667
        Zr           0.000

     No symmetry found

   Cartesian axes

     site n.     atom                  positions (alat units)
         1           Mn  tau(   1) = (   0.0000000   0.0000000  10.0000000  )
         2           Mn  tau(   2) = (   3.7000571   2.6168176  10.0000000  )
         3           Zr  tau(   3) = (   2.7753838   0.0000000  10.0000000  )
         4           Zr  tau(   4) = (   0.9246734   2.6168176  10.0000000  )
         5           Mn  tau(   5) = (   5.5507675   3.9257086  12.2659520  )
         6           Mn  tau(   6) = (   1.8507104   1.3088910  12.2659520  )
         7           Zr  tau(   7) = (   2.7753838   3.9257086  12.2659520  )
         8           Zr  tau(   8) = (   4.6260942   1.3088910  12.2659520  )
         9           Mn  tau(   9) = (   3.7013918   2.6177688  14.4545334  )
        10           Mn  tau(  10) = (   0.0014047   0.0009863  14.4545633  )
        11           Zr  tau(  11) = (   0.9254983   2.6174576  14.6126623  )
        12           Zr  tau(  12) = (   2.7762740   0.0005733  14.6126695  )

     number of k points=    74  Fermi-Dirac smearing, width (Ry)=  0.0100
                       cart. coord. in units 2pi/alat
        k(    1) = (   0.0000000   0.0000000   0.0000000), wk =   0.0069444
        k(    2) = (   0.0000000   0.0159226   0.0000000), wk =   0.0138889
        k(    3) = (   0.0000000   0.0318453   0.0000000), wk =   0.0138889
        k(    4) = (   0.0000000   0.0477679   0.0000000), wk =   0.0138889
        k(    5) = (   0.0000000   0.0636906   0.0000000), wk =   0.0138889
        k(    6) = (   0.0000000   0.0796132   0.0000000), wk =   0.0138889
        k(    7) = (   0.0000000  -0.0955359   0.0000000), wk =   0.0069444
        k(    8) = (   0.0150129  -0.0053049   0.0000000), wk =   0.0138889
        k(    9) = (   0.0150129   0.0106177   0.0000000), wk =   0.0138889
        k(   10) = (   0.0150129   0.0265404   0.0000000), wk =   0.0138889
        k(   11) = (   0.0150129   0.0424630   0.0000000), wk =   0.0138889
        k(   12) = (   0.0150129   0.0583857   0.0000000), wk =   0.0138889
        k(   13) = (   0.0150129   0.0743083   0.0000000), wk =   0.0138889
        k(   14) = (   0.0150129  -0.1008408   0.0000000), wk =   0.0138889
        k(   15) = (   0.0150129  -0.0849182   0.0000000), wk =   0.0138889
        k(   16) = (   0.0150129  -0.0689955   0.0000000), wk =   0.0138889
        k(   17) = (   0.0150129  -0.0530729   0.0000000), wk =   0.0138889
        k(   18) = (   0.0150129  -0.0371502   0.0000000), wk =   0.0138889
        k(   19) = (   0.0150129  -0.0212276   0.0000000), wk =   0.0138889
        k(   20) = (   0.0300259  -0.0106099   0.0000000), wk =   0.0138889
        k(   21) = (   0.0300259   0.0053128   0.0000000), wk =   0.0138889
        k(   22) = (   0.0300259   0.0212354   0.0000000), wk =   0.0138889
        k(   23) = (   0.0300259   0.0371581   0.0000000), wk =   0.0138889
        k(   24) = (   0.0300259   0.0530807   0.0000000), wk =   0.0138889
        k(   25) = (   0.0300259   0.0690034   0.0000000), wk =   0.0138889
        k(   26) = (   0.0300259  -0.1061458   0.0000000), wk =   0.0138889
        k(   27) = (   0.0300259  -0.0902231   0.0000000), wk =   0.0138889
        k(   28) = (   0.0300259  -0.0743005   0.0000000), wk =   0.0138889
        k(   29) = (   0.0300259  -0.0583778   0.0000000), wk =   0.0138889
        k(   30) = (   0.0300259  -0.0424552   0.0000000), wk =   0.0138889
        k(   31) = (   0.0300259  -0.0265325   0.0000000), wk =   0.0138889
        k(   32) = (   0.0450388  -0.0159148   0.0000000), wk =   0.0138889
        k(   33) = (   0.0450388   0.0000078   0.0000000), wk =   0.0138889
        k(   34) = (   0.0450388   0.0159305   0.0000000), wk =   0.0138889
        k(   35) = (   0.0450388   0.0318531   0.0000000), wk =   0.0138889
        k(   36) = (   0.0450388   0.0477758   0.0000000), wk =   0.0138889
        k(   37) = (   0.0450388   0.0636984   0.0000000), wk =   0.0138889
        k(   38) = (   0.0450388  -0.1114507   0.0000000), wk =   0.0138889
        k(   39) = (   0.0450388  -0.0955281   0.0000000), wk =   0.0138889
        k(   40) = (   0.0450388  -0.0796054   0.0000000), wk =   0.0138889
        k(   41) = (   0.0450388  -0.0636828   0.0000000), wk =   0.0138889
        k(   42) = (   0.0450388  -0.0477601   0.0000000), wk =   0.0138889
        k(   43) = (   0.0450388  -0.0318375   0.0000000), wk =   0.0138889
        k(   44) = (   0.0600518  -0.0212198   0.0000000), wk =   0.0138889
        k(   45) = (   0.0600518  -0.0052971   0.0000000), wk =   0.0138889
        k(   46) = (   0.0600518   0.0106255   0.0000000), wk =   0.0138889
        k(   47) = (   0.0600518   0.0265482   0.0000000), wk =   0.0138889
        k(   48) = (   0.0600518   0.0424708   0.0000000), wk =   0.0138889
        k(   49) = (   0.0600518   0.0583935   0.0000000), wk =   0.0138889
        k(   50) = (   0.0600518  -0.1167557   0.0000000), wk =   0.0138889
        k(   51) = (   0.0600518  -0.1008330   0.0000000), wk =   0.0138889
        k(   52) = (   0.0600518  -0.0849104   0.0000000), wk =   0.0138889
        k(   53) = (   0.0600518  -0.0689877   0.0000000), wk =   0.0138889
        k(   54) = (   0.0600518  -0.0530651   0.0000000), wk =   0.0138889
        k(   55) = (   0.0600518  -0.0371424   0.0000000), wk =   0.0138889
        k(   56) = (   0.0750647  -0.0265247   0.0000000), wk =   0.0138889
        k(   57) = (   0.0750647  -0.0106021   0.0000000), wk =   0.0138889
        k(   58) = (   0.0750647   0.0053206   0.0000000), wk =   0.0138889
        k(   59) = (   0.0750647   0.0212432   0.0000000), wk =   0.0138889
        k(   60) = (   0.0750647   0.0371659   0.0000000), wk =   0.0138889
        k(   61) = (   0.0750647   0.0530885   0.0000000), wk =   0.0138889
        k(   62) = (   0.0750647  -0.1220606   0.0000000), wk =   0.0138889
        k(   63) = (   0.0750647  -0.1061380   0.0000000), wk =   0.0138889
        k(   64) = (   0.0750647  -0.0902153   0.0000000), wk =   0.0138889
        k(   65) = (   0.0750647  -0.0742927   0.0000000), wk =   0.0138889
        k(   66) = (   0.0750647  -0.0583700   0.0000000), wk =   0.0138889
        k(   67) = (   0.0750647  -0.0424474   0.0000000), wk =   0.0138889
        k(   68) = (  -0.0900776   0.0318297   0.0000000), wk =   0.0069444
        k(   69) = (  -0.0900776   0.0477523   0.0000000), wk =   0.0138889
        k(   70) = (  -0.0900776   0.0636750   0.0000000), wk =   0.0138889
        k(   71) = (  -0.0900776   0.0795976   0.0000000), wk =   0.0138889
        k(   72) = (  -0.0900776   0.0955202   0.0000000), wk =   0.0138889
        k(   73) = (  -0.0900776   0.1114429   0.0000000), wk =   0.0138889
        k(   74) = (  -0.0900776  -0.0637062   0.0000000), wk =   0.0069444

     Check: negative core charge=   -0.000004
     Generating pointlists ...
     new r_m :   1.1189 (alat units)  2.1145 (a.u.) for type    1
     new r_m :   1.1189 (alat units)  2.1145 (a.u.) for type    2

     Initial potential from superposition of free atoms

     starting charge  161.98411, renormalised to  162.00000

     %%%%%%%%%%%%%%%%%%%%%%%%%%%%%%%%%%%%%%%%%%%%%%%%%%%%%%%%%%%%%%%%%%%%%%%%
     %                                                                      %
     % You are using vdW-DF, which was implemented by the Thonhauser group. %
     % Please cite the following two papers that made this development      %
     % possible and the two reviews that describe the various versions:     %
     %                                                                      %
     %   T. Thonhauser et al., PRL 115, 136402 (2015).                      %
     %   T. Thonhauser et al., PRB 76, 125112 (2007).                       %
     %   K. Berland et al., Rep. Prog. Phys. 78, 066501 (2015).             %
     %   D.C. Langreth et al., J. Phys.: Condens. Matter 21, 084203 (2009). %
     %                                                                      %
     %                                                                      %
     % If you are calculating the stress with vdW-DF, please also cite:     %
     %                                                                      %
     %   R. Sabatini et al., J. Phys.: Condens. Matter 24, 424209 (2012).   %
     %                                                                      %
     %%%%%%%%%%%%%%%%%%%%%%%%%%%%%%%%%%%%%%%%%%%%%%%%%%%%%%%%%%%%%%%%%%%%%%%%

     Adding external electric field

     Computed dipole along edir(3) :
        Dipole                0.0006 Ry au,          0.0015 Debye
        Dipole field          0.0000 Ry au,

        Potential amp.       -0.0001 Ry
        Total length         45.1996 bohr

[...]

     Starting wfcs are  138 randomized atomic wfcs

     Self-consistent Calculation

     iteration #  1     ecut=    55.12 Ry     beta= 0.10
     Davidson diagonalization with overlap
     ethr =  1.00E-02,  avg # of iterations =  2.2

[...]

     total energy              =   -1884.90454380 Ry
     estimated scf accuracy    <      10.14251461 Ry

     total magnetization       =    27.54 Bohr mag/cell
     absolute magnetization    =    28.75 Bohr mag/cell

[...]

     iteration #  9     ecut=    55.12 Ry     beta= 0.10
     Davidson diagonalization with overlap
     c_bands:  1 eigenvalues not converged
     ethr =  2.36E-04,  avg # of iterations =  9.1

[...]

     iteration # 37     ecut=    55.12 Ry     beta= 0.10
     Davidson diagonalization with overlap
     c_bands:  1 eigenvalues not converged
     ethr =  7.11E-09,  avg # of iterations =  6.4

[...]

     total energy              =   -1890.16712796 Ry
     estimated scf accuracy    <       0.00002197 Ry

[...]

     iteration # 38     ecut=    55.12 Ry     beta= 0.10
     Davidson diagonalization with overlap
     ethr =  7.11E-09,  avg # of iterations =  2.9

[...]

     Adding external electric field

     Computed dipole along edir(3) :
        Dipole                0.0350 Ry au,          0.0889 Debye
        Dipole field          0.0001 Ry au,

        Potential amp.       -0.0083 Ry
        Total length         45.1996 bohr

     Magnetic moment per site:
     atom:    1    charge:   13.7119    magn:    2.9166    constr:    0.0000
     atom:    2    charge:   13.7123    magn:    2.9164    constr:    0.0000
     atom:    3    charge:    9.3688    magn:   -0.4989    constr:    0.0000
     atom:    4    charge:    9.3688    magn:   -0.4989    constr:    0.0000
     atom:    5    charge:   13.8113    magn:    1.8673    constr:    0.0000
     atom:    6    charge:   13.8102    magn:    1.8682    constr:    0.0000
     atom:    7    charge:    9.4053    magn:   -0.4016    constr:    0.0000
     atom:    8    charge:    9.4053    magn:   -0.4016    constr:    0.0000
     atom:    9    charge:   13.7346    magn:    2.7992    constr:    0.0000
     atom:   10    charge:   13.7347    magn:    2.7990    constr:    0.0000
     atom:   11    charge:    9.3451    magn:   -0.4953    constr:    0.0000
     atom:   12    charge:    9.3451    magn:   -0.4953    constr:    0.0000

     End of self-consistent calculation

     Number of k-points >= 100: set verbosity='high' to print the bands.

     the Fermi energy is     1.5284 ev

!    total energy              =   -1889.87388768 Ry
     estimated scf accuracy    <       0.00000837 Ry
     smearing contrib. (-TS)   =      -0.06755879 Ry
     internal energy E=F+TS    =   -1889.80632888 Ry

     The total energy is F=E-TS. E is the sum of the following terms:
     one-electron contribution =  -13954.96581546 Ry
     hartree contribution      =    6974.54952658 Ry
     xc contribution           =    -286.99718390 Ry
     ewald contribution        =    5377.60714071 Ry
     electric field correction =       0.00000320 Ry

     total magnetization       =    10.87 Bohr mag/cell
     absolute magnetization    =    20.66 Bohr mag/cell

     convergence has been achieved in  38 iterations

     Forces acting on atoms (cartesian axes, Ry/au):

     atom    1 type  1   force =     0.00010134    0.00005906    0.01104602
     atom    2 type  1   force =    -0.00011330   -0.00006643    0.01113775
     atom    3 type  2   force =     0.00011113    0.00000763   -0.01631713
     atom    4 type  2   force =     0.00004270    0.00009427   -0.01631305
     atom    5 type  1   force =     0.00001821    0.00001522    0.00690313
     atom    6 type  1   force =    -0.00006122   -0.00003774    0.00691713
     atom    7 type  2   force =    -0.00002283   -0.00005070   -0.00293749
     atom    8 type  2   force =    -0.00005559   -0.00000399   -0.00294257
     atom    9 type  1   force =    -0.00017038   -0.00011509    0.00204653
     atom   10 type  1   force =     0.00006367    0.00003711    0.00197841
     atom   11 type  2   force =     0.00001944    0.00006575   -0.00076349
     atom   12 type  2   force =     0.00006683   -0.00000509   -0.00075523

     Total force =     0.030010     Total SCF correction =     0.013723
     SCF correction compared to forces is large: reduce conv_thr to get better values

     Writing output data file ./Mn2Zr2/Mn2Zr2_beef.save/

     General routines

     Parallel routines

   This run was terminated on:   7:32:10   2Jul2022

   JOB DONE.