     Program PWSCF v.6.6 starts on 10Jul2022 at 13:57:19

     R & G space division:  proc/nbgrp/npool/nimage =      37
     Fft bands division:     nmany     =       1
     Reading input from Mo2Ag2.in
Warning: card &CELL ignored
Warning: card / ignored

     Current dimensions of program PWSCF are:
     Max number of different atomic species (ntypx) = 10
     Max number of k-points (npk) =  40000
     Max angular momentum in pseudopotentials (lmaxx) =  3
     Presently stress not available with electric field and gates

     Message from routine cell_base_init:
     DEPRECATED: use true lattice parameter, not A to a.u. conversion factor
     file Mo.pbe-spn-rrkjus_psl.1.0.0.UPF: wavefunction(s)  4S renormalized

     IMPORTANT: XC functional enforced from input :
     Exchange-correlation= BEEF-VDW
                           (   1   4  43  14   2   0   0)
     Any further DFT definition will be discarded
     Please, verify this is what you really want

     Subspace diagonalization in iterative solution of the eigenvalue problem:
     a serial algorithm will be used

     bravais-lattice index     =            0
     lattice parameter (alat)  =       1.8897  a.u.
     unit-cell volume          =    4788.5588 (a.u.)^3
     number of atoms/cell      =           12
     number of atomic types    =            2
     number of electrons       =       150.00
     number of Kohn-Sham states=           90
     kinetic-energy cutoff     =      55.1240  Ry
     charge density cutoff     =     551.2396  Ry
     convergence threshold     =      1.0E-05
     mixing beta               =       0.1000
     number of iterations used =           10  plain     mixing
     Exchange-correlation= BEEF-VDW
                           (   1   4  43  14   2   0   0)

     celldm(1)=   1.889726  celldm(2)=   0.000000  celldm(3)=   0.000000
     celldm(4)=   0.000000  celldm(5)=   0.000000  celldm(6)=   0.000000

     crystal axes: (cart. coord. in units of alat)
               a(1) = (   5.363906   0.000000   0.000000 )
               a(2) = (  -2.681953   5.367536   0.000000 )
               a(3) = (   0.000000   0.000000  24.646326 )

     reciprocal axes: (cart. coord. in units 2 pi/alat)
               b(1) = (  0.186431  0.093153 -0.000000 )
               b(2) = (  0.000000  0.186305  0.000000 )
               b(3) = (  0.000000 -0.000000  0.040574 )

     PseudoPot. # 1 for Mo read from file:
     ../pseudo/Mo.pbe-spn-rrkjus_psl.1.0.0.UPF
     MD5 check sum: 03f09b12e49601d1a456a78ce8b2d514
     Pseudo is Ultrasoft + core correction, Zval = 14.0
     Generated using "atomic" code by A. Dal Corso v.6.3
     Using radial grid of 1229 points,  6 beta functions with:
                l(1) =   0
                l(2) =   0
                l(3) =   1
                l(4) =   1
                l(5) =   2
                l(6) =   2
     Q(r) pseudized with 0 coefficients

     PseudoPot. # 2 for Ag read from file:
     ../pseudo/Ag.pbe-n-rrkjus_psl.1.0.0.UPF
     MD5 check sum: d841cbfac2b0861aec33b46768a516bf
     Pseudo is Ultrasoft + core correction, Zval = 11.0
     Generated using "atomic" code by A. Dal Corso v.6.2.2
     Using radial grid of 1237 points,  6 beta functions with:
                l(1) =   0
                l(2) =   0
                l(3) =   1
                l(4) =   1
                l(5) =   2
                l(6) =   2
     Q(r) pseudized with 0 coefficients

     atomic species   valence    mass     pseudopotential
        Mo            14.00    95.95000     Mo( 1.00)
        Ag            11.00   107.86820     Ag( 1.00)

     No symmetry found

   Cartesian axes

     site n.     atom                  positions (alat units)
         1           Mo  tau(   1) = (   0.0000000   0.0000000  10.0000000  )
         2           Mo  tau(   2) = (   2.6819529   0.0000000  10.0000000  )
         3           Ag  tau(   3) = (   1.3409764   2.6837681  10.0000000  )
         4           Ag  tau(   4) = (  -1.3409764   2.6837681  10.0000000  )
         5           Mo  tau(   5) = (   2.6819529   1.3400694  12.3231628  )
         6           Mo  tau(   6) = (  -0.0000000   1.3400694  12.3231628  )
         7           Ag  tau(   7) = (  -1.3409764   4.0238376  12.3231628  )
         8           Ag  tau(   8) = (   1.3409764   4.0238376  12.3231628  )
         9           Mo  tau(   9) = (   0.0002767   2.4822058  14.4595903  )
        10           Mo  tau(  10) = (   2.6821701   2.4817775  14.4595566  )
        11           Ag  tau(  11) = (   1.3398488   5.2421863  14.8672207  )
        12           Ag  tau(  12) = (  -1.3386730   5.2421750  14.8672220  )

     number of k points=    74  Fermi-Dirac smearing, width (Ry)=  0.0100
                       cart. coord. in units 2pi/alat
        k(    1) = (   0.0000000   0.0000000   0.0000000), wk =   0.0138889
        k(    2) = (   0.0000000   0.0155254   0.0000000), wk =   0.0277778
        k(    3) = (   0.0000000   0.0310509   0.0000000), wk =   0.0277778
        k(    4) = (   0.0000000   0.0465763   0.0000000), wk =   0.0277778
        k(    5) = (   0.0000000   0.0621017   0.0000000), wk =   0.0277778
        k(    6) = (   0.0000000   0.0776272   0.0000000), wk =   0.0277778
        k(    7) = (   0.0000000  -0.0931526   0.0000000), wk =   0.0138889
        k(    8) = (   0.0155359   0.0077627   0.0000000), wk =   0.0277778
        k(    9) = (   0.0155359   0.0232882   0.0000000), wk =   0.0277778
        k(   10) = (   0.0155359   0.0388136   0.0000000), wk =   0.0277778
        k(   11) = (   0.0155359   0.0543390   0.0000000), wk =   0.0277778
        k(   12) = (   0.0155359   0.0698645   0.0000000), wk =   0.0277778
        k(   13) = (   0.0155359   0.0853899   0.0000000), wk =   0.0277778
        k(   14) = (   0.0155359  -0.0853899   0.0000000), wk =   0.0277778
        k(   15) = (   0.0155359  -0.0698645   0.0000000), wk =   0.0277778
        k(   16) = (   0.0155359  -0.0543390   0.0000000), wk =   0.0277778
        k(   17) = (   0.0155359  -0.0388136   0.0000000), wk =   0.0277778
        k(   18) = (   0.0155359  -0.0232882   0.0000000), wk =   0.0277778
        k(   19) = (   0.0155359  -0.0077627   0.0000000), wk =   0.0277778
        k(   20) = (   0.0310719   0.0155254   0.0000000), wk =   0.0277778
        k(   21) = (   0.0310719   0.0310509   0.0000000), wk =   0.0277778
        k(   22) = (   0.0310719   0.0465763   0.0000000), wk =   0.0277778
        k(   23) = (   0.0310719   0.0621017   0.0000000), wk =   0.0277778
        k(   24) = (   0.0310719   0.0776272   0.0000000), wk =   0.0277778
        k(   25) = (   0.0310719   0.0931526   0.0000000), wk =   0.0277778
        k(   26) = (   0.0310719  -0.0776272   0.0000000), wk =   0.0277778
        k(   27) = (   0.0310719  -0.0621017   0.0000000), wk =   0.0277778
        k(   28) = (   0.0310719  -0.0465763   0.0000000), wk =   0.0277778
        k(   29) = (   0.0310719  -0.0310509   0.0000000), wk =   0.0277778
        k(   30) = (   0.0310719  -0.0155254   0.0000000), wk =   0.0277778
        k(   31) = (   0.0310719  -0.0000000   0.0000000), wk =   0.0277778
        k(   32) = (   0.0466078   0.0232882   0.0000000), wk =   0.0277778
        k(   33) = (   0.0466078   0.0388136   0.0000000), wk =   0.0277778
        k(   34) = (   0.0466078   0.0543390   0.0000000), wk =   0.0277778
        k(   35) = (   0.0466078   0.0698645   0.0000000), wk =   0.0277778
        k(   36) = (   0.0466078   0.0853899   0.0000000), wk =   0.0277778
        k(   37) = (   0.0466078   0.1009153   0.0000000), wk =   0.0277778
        k(   38) = (   0.0466078  -0.0698645   0.0000000), wk =   0.0277778
        k(   39) = (   0.0466078  -0.0543390   0.0000000), wk =   0.0277778
        k(   40) = (   0.0466078  -0.0388136   0.0000000), wk =   0.0277778
        k(   41) = (   0.0466078  -0.0232882   0.0000000), wk =   0.0277778
        k(   42) = (   0.0466078  -0.0077627   0.0000000), wk =   0.0277778
        k(   43) = (   0.0466078   0.0077627   0.0000000), wk =   0.0277778
        k(   44) = (   0.0621438   0.0310509   0.0000000), wk =   0.0277778
        k(   45) = (   0.0621438   0.0465763   0.0000000), wk =   0.0277778
        k(   46) = (   0.0621438   0.0621017   0.0000000), wk =   0.0277778
        k(   47) = (   0.0621438   0.0776272   0.0000000), wk =   0.0277778
        k(   48) = (   0.0621438   0.0931526   0.0000000), wk =   0.0277778
        k(   49) = (   0.0621438   0.1086780   0.0000000), wk =   0.0277778
        k(   50) = (   0.0621438  -0.0621017   0.0000000), wk =   0.0277778
        k(   51) = (   0.0621438  -0.0465763   0.0000000), wk =   0.0277778
        k(   52) = (   0.0621438  -0.0310509   0.0000000), wk =   0.0277778
        k(   53) = (   0.0621438  -0.0155254   0.0000000), wk =   0.0277778
        k(   54) = (   0.0621438   0.0000000   0.0000000), wk =   0.0277778
        k(   55) = (   0.0621438   0.0155254   0.0000000), wk =   0.0277778
        k(   56) = (   0.0776797   0.0388136   0.0000000), wk =   0.0277778
        k(   57) = (   0.0776797   0.0543390   0.0000000), wk =   0.0277778
        k(   58) = (   0.0776797   0.0698645   0.0000000), wk =   0.0277778
        k(   59) = (   0.0776797   0.0853899   0.0000000), wk =   0.0277778
        k(   60) = (   0.0776797   0.1009153   0.0000000), wk =   0.0277778
        k(   61) = (   0.0776797   0.1164408   0.0000000), wk =   0.0277778
        k(   62) = (   0.0776797  -0.0543390   0.0000000), wk =   0.0277778
        k(   63) = (   0.0776797  -0.0388136   0.0000000), wk =   0.0277778
        k(   64) = (   0.0776797  -0.0232882   0.0000000), wk =   0.0277778
        k(   65) = (   0.0776797  -0.0077627   0.0000000), wk =   0.0277778
        k(   66) = (   0.0776797   0.0077627   0.0000000), wk =   0.0277778
        k(   67) = (   0.0776797   0.0232882   0.0000000), wk =   0.0277778
        k(   68) = (  -0.0932157  -0.0465763   0.0000000), wk =   0.0138889
        k(   69) = (  -0.0932157  -0.0310509   0.0000000), wk =   0.0277778
        k(   70) = (  -0.0932157  -0.0155254   0.0000000), wk =   0.0277778
        k(   71) = (  -0.0932157   0.0000000   0.0000000), wk =   0.0277778
        k(   72) = (  -0.0932157   0.0155254   0.0000000), wk =   0.0277778
        k(   73) = (  -0.0932157   0.0310509   0.0000000), wk =   0.0277778
        k(   74) = (  -0.0932157  -0.1397289   0.0000000), wk =   0.0138889

     Initial potential from superposition of free atoms

     starting charge  149.99232, renormalised to  150.00000

     negative rho (up, down):  4.358E-04 0.000E+00

     %%%%%%%%%%%%%%%%%%%%%%%%%%%%%%%%%%%%%%%%%%%%%%%%%%%%%%%%%%%%%%%%%%%%%%%%
     %                                                                      %
     % You are using vdW-DF, which was implemented by the Thonhauser group. %
     % Please cite the following two papers that made this development      %
     % possible and the two reviews that describe the various versions:     %
     %                                                                      %
     %   T. Thonhauser et al., PRL 115, 136402 (2015).                      %
     %   T. Thonhauser et al., PRB 76, 125112 (2007).                       %
     %   K. Berland et al., Rep. Prog. Phys. 78, 066501 (2015).             %
     %   D.C. Langreth et al., J. Phys.: Condens. Matter 21, 084203 (2009). %
     %                                                                      %
     %                                                                      %
     % If you are calculating the stress with vdW-DF, please also cite:     %
     %                                                                      %
     %   R. Sabatini et al., J. Phys.: Condens. Matter 24, 424209 (2012).   %
     %                                                                      %
     %%%%%%%%%%%%%%%%%%%%%%%%%%%%%%%%%%%%%%%%%%%%%%%%%%%%%%%%%%%%%%%%%%%%%%%%

     Adding external electric field

     Computed dipole along edir(3) :
        Dipole               -0.0003 Ry au,         -0.0006 Debye
        Dipole field         -0.0000 Ry au,

        Potential amp.        0.0001 Ry
        Total length         45.4104 bohr

     Starting wfcs are  114 randomized atomic wfcs

     Self-consistent Calculation

     iteration #  1     ecut=    55.12 Ry     beta= 0.10
     Davidson diagonalization with overlap
     ethr =  1.00E-02,  avg # of iterations =  2.3

[...]

     total energy              =   -1350.33961452 Ry
     estimated scf accuracy    <       2.94812147 Ry

[...]

     iteration #  6     ecut=    55.12 Ry     beta= 0.10
     Davidson diagonalization with overlap
     c_bands:  1 eigenvalues not converged
     ethr =  4.77E-05,  avg # of iterations =  2.7

[...]

     iteration #  8     ecut=    55.12 Ry     beta= 0.10
     Davidson diagonalization with overlap
     c_bands:  1 eigenvalues not converged
     c_bands:  1 eigenvalues not converged
     ethr =  6.44E-06,  avg # of iterations =  7.2

[...]

     total energy              =   -1350.63394760 Ry
     estimated scf accuracy    <       0.00004356 Ry

     iteration # 15     ecut=    55.12 Ry     beta= 0.10
     Davidson diagonalization with overlap
     ethr =  2.19E-08,  avg # of iterations =  2.9

[...]

     Adding external electric field

     Computed dipole along edir(3) :
        Dipole               -0.0372 Ry au,         -0.0944 Debye
        Dipole field         -0.0001 Ry au,

        Potential amp.        0.0089 Ry
        Total length         45.4104 bohr

     End of self-consistent calculation

          k = 0.0000 0.0000 0.0000 ( 33071 PWs)   bands (ev):

   -60.2705 -60.1371 -60.1281 -59.9983 -59.9900 -59.8603 -34.8972 -34.7807
   -34.7548 -34.5612 -34.4733 -34.3151 -34.2284 -34.1891 -34.1601 -34.1080
   -34.0387 -34.0377 -33.9170 -33.7130 -33.5574 -33.5210 -33.4565 -33.4383
    -5.6672  -5.1115  -5.0875  -4.9846  -4.9102  -4.7432  -4.6661  -4.6051
    -4.5354  -4.4374  -4.2784  -4.2692  -4.2460  -4.1239  -3.9682  -3.8870
    -3.7874  -3.6104  -3.4629  -3.4431  -3.1278  -3.0142  -2.9937  -2.9433
    -2.9371  -2.7393  -2.5881  -2.5843  -2.3824  -2.3173  -2.1129  -2.0778
    -1.7049  -1.6056  -1.4413  -1.3931  -1.3126  -1.0395  -0.9735  -0.8893
    -0.5110  -0.2932  -0.0702   0.3316   0.4932   0.5413   0.6319   0.6674
     1.0227   1.4446   1.4474   1.7930   1.8205   1.8689   2.2689   2.3387
     2.4534   2.6101   2.9600   2.9998   3.0043   3.0437   3.0603   3.0978
     3.3079   3.4640

[...]

          k = 0.0777 0.0233 0.0000 ( 33117 PWs)   bands (ev):

[...]

          k =-0.0932-0.0466 0.0000 ( 33126 PWs)   bands (ev):

[...]

          k =-0.0932-0.1397 0.0000 ( 33126 PWs)   bands (ev):

   -60.2044 -60.2043 -60.0637 -60.0636 -59.9257 -59.9255 -34.8272 -34.8267
   -34.2633 -34.2632 -34.2533 -34.2532 -34.1676 -34.1675 -34.1004 -34.1003
   -34.0558 -34.0557 -33.9782 -33.9780 -33.9708 -33.9706 -33.5073 -33.5069
    -4.5190  -4.5187  -4.3990  -4.3987  -4.2709  -4.2707  -4.2294  -4.2288
    -4.0320  -4.0318  -3.8597  -3.8585  -3.7423  -3.7404  -3.5550  -3.5549
    -3.4878  -3.4842  -3.3795  -3.3750  -3.3119  -3.3100  -3.2682  -3.2648
    -3.1029  -3.0987  -2.9433  -2.9415  -2.8837  -2.8815  -2.7639  -2.7578
    -2.0112  -2.0087  -1.4737  -1.4735  -1.1708  -1.1706  -0.7891  -0.7888
    -0.3355  -0.3347   0.0744   0.0745   0.4719   0.4725   0.5940   0.5944
     0.7001   0.7008   0.8564   0.8566   0.9012   0.9020   1.1827   1.1830
     1.3126   1.3128   2.1554   2.1557   2.5557   2.5563   2.9649   2.9652
     3.4909   3.4917

     the Fermi energy is     1.0239 ev

!    total energy              =   -1350.63395446 Ry
     estimated scf accuracy    <       0.00000948 Ry
     smearing contrib. (-TS)   =      -0.06288922 Ry
     internal energy E=F+TS    =   -1350.57106525 Ry

     The total energy is F=E-TS. E is the sum of the following terms:
     one-electron contribution =  -11484.77761015 Ry
     hartree contribution      =    5781.81155360 Ry
     xc contribution           =    -259.60208149 Ry
     ewald contribution        =    4611.99706917 Ry
     electric field correction =       0.00000362 Ry

     convergence has been achieved in  15 iterations

     negative rho (up, down):  4.991E-04 0.000E+00

     Forces acting on atoms (cartesian axes, Ry/au):

     atom    1 type  1   force =     0.00000529    0.01123175    0.02886053
     atom    2 type  1   force =     0.00000337    0.01120845    0.02881777
     atom    3 type  2   force =    -0.00000007   -0.01397620   -0.03245461
     atom    4 type  2   force =     0.00000211   -0.01397658   -0.03245736
     atom    5 type  1   force =    -0.00001422   -0.01269540   -0.00633696
     atom    6 type  1   force =    -0.00003221   -0.01270284   -0.00625599
     atom    7 type  2   force =    -0.00002513    0.01611820    0.01037173
     atom    8 type  2   force =     0.00003315    0.01612090    0.01036935
     atom    9 type  1   force =     0.00003112    0.00012414   -0.00033434
     atom   10 type  1   force =     0.00002888    0.00042256   -0.00032690
     atom   11 type  2   force =     0.00127245   -0.00093850   -0.00012780
     atom   12 type  2   force =    -0.00130473   -0.00093649   -0.00012544

     Total force =     0.074530     Total SCF correction =     0.007387

     Writing output data file ./Mo2Ag2/Mo2Ag2_beef.save/

     General routines

     Parallel routines

   This run was terminated on:  14:46:56  10Jul2022

   JOB DONE.