     Program PWSCF v.6.6 starts on 10Jul2022 at 21:49:16

     R & G space division:  proc/nbgrp/npool/nimage =      37
     Fft bands division:     nmany     =       1
     Reading input from Mo2Cd2.in
Warning: card &CELL ignored
Warning: card / ignored

     Current dimensions of program PWSCF are:
     Max number of different atomic species (ntypx) = 10
     Max number of k-points (npk) =  40000
     Max angular momentum in pseudopotentials (lmaxx) =  3
     Presently stress not available with electric field and gates

     Message from routine cell_base_init:
     DEPRECATED: use true lattice parameter, not A to a.u. conversion factor
     file Mo.pbe-spn-rrkjus_psl.1.0.0.UPF: wavefunction(s)  4S renormalized
     file Cd.pbe-n-rrkjus_psl.1.0.0.UPF: wavefunction(s)  4D renormalized

     IMPORTANT: XC functional enforced from input :
     Exchange-correlation= BEEF-VDW
                           (   1   4  43  14   2   0   0)
     Any further DFT definition will be discarded
     Please, verify this is what you really want

     Subspace diagonalization in iterative solution of the eigenvalue problem:
     a serial algorithm will be used

     bravais-lattice index     =            0
     lattice parameter (alat)  =       1.8897  a.u.
     unit-cell volume          =    5034.0768 (a.u.)^3
     number of atoms/cell      =           12
     number of atomic types    =            2
     number of electrons       =       156.00
     number of Kohn-Sham states=           94
     kinetic-energy cutoff     =      55.1240  Ry
     charge density cutoff     =     551.2396  Ry
     convergence threshold     =      1.0E-05
     mixing beta               =       0.1000
     number of iterations used =           10  plain     mixing
     Exchange-correlation= BEEF-VDW
                           (   1   4  43  14   2   0   0)

     celldm(1)=   1.889726  celldm(2)=   0.000000  celldm(3)=   0.000000
     celldm(4)=   0.000000  celldm(5)=   0.000000  celldm(6)=   0.000000

     crystal axes: (cart. coord. in units of alat)
               a(1) = (   5.547346   0.000000   0.000000 )
               a(2) = (  -2.773673   5.429171   0.000000 )
               a(3) = (   0.000000   0.000000  24.768776 )

     reciprocal axes: (cart. coord. in units 2 pi/alat)
               b(1) = (  0.180266  0.092095 -0.000000 )
               b(2) = (  0.000000  0.184190  0.000000 )
               b(3) = (  0.000000 -0.000000  0.040373 )

     PseudoPot. # 1 for Mo read from file:
     ../pseudo/Mo.pbe-spn-rrkjus_psl.1.0.0.UPF
     MD5 check sum: 03f09b12e49601d1a456a78ce8b2d514
     Pseudo is Ultrasoft + core correction, Zval = 14.0
     Generated using "atomic" code by A. Dal Corso v.6.3
     Using radial grid of 1229 points,  6 beta functions with:
                l(1) =   0
                l(2) =   0
                l(3) =   1
                l(4) =   1
                l(5) =   2
                l(6) =   2
     Q(r) pseudized with 0 coefficients

     PseudoPot. # 2 for Cd read from file:
     ../pseudo/Cd.pbe-n-rrkjus_psl.1.0.0.UPF
     MD5 check sum: a744746c89d2344a134ead0d8ab94e7a
     Pseudo is Ultrasoft + core correction, Zval = 12.0
     Generated using "atomic" code by A. Dal Corso v.6.3
     Using radial grid of 1239 points,  6 beta functions with:
                l(1) =   0
                l(2) =   0
                l(3) =   1
                l(4) =   1
                l(5) =   2
                l(6) =   2
     Q(r) pseudized with 0 coefficients

     atomic species   valence    mass     pseudopotential
        Mo            14.00    95.95000     Mo( 1.00)
        Cd            12.00   112.41400     Cd( 1.00)

     No symmetry found

   Cartesian axes

     site n.     atom                  positions (alat units)
         1           Mo  tau(   1) = (   0.0000000   0.0000000  10.0000000  )
         2           Mo  tau(   2) = (   2.7736731   0.0000000  10.0000000  )
         3           Cd  tau(   3) = (   1.3868366   2.7145855  10.0000000  )
         4           Cd  tau(   4) = (  -1.3868366   2.7145855  10.0000000  )
         5           Mo  tau(   5) = (   2.7736731   1.4170234  12.3843882  )
         6           Mo  tau(   6) = (  -0.0000000   1.4170234  12.3843882  )
         7           Cd  tau(   7) = (  -1.3868366   4.1316089  12.3843882  )
         8           Cd  tau(   8) = (   1.3868366   4.1316089  12.3843882  )
         9           Mo  tau(   9) = (  -0.0003052   2.5273474  14.5327928  )
        10           Mo  tau(  10) = (   2.7733290   2.5271829  14.5327411  )
        11           Cd  tau(  11) = (   1.3860338   5.3257902  15.1405986  )
        12           Cd  tau(  12) = (  -1.3866942   5.3257476  15.1406804  )

     number of k points=    74  Fermi-Dirac smearing, width (Ry)=  0.0100
                       cart. coord. in units 2pi/alat
        k(    1) = (   0.0000000   0.0000000   0.0000000), wk =   0.0138889
        k(    2) = (   0.0000000   0.0153492   0.0000000), wk =   0.0277778
        k(    3) = (   0.0000000   0.0306984   0.0000000), wk =   0.0277778
        k(    4) = (   0.0000000   0.0460475   0.0000000), wk =   0.0277778
        k(    5) = (   0.0000000   0.0613967   0.0000000), wk =   0.0277778
        k(    6) = (   0.0000000   0.0767459   0.0000000), wk =   0.0277778
        k(    7) = (   0.0000000  -0.0920951   0.0000000), wk =   0.0138889
        k(    8) = (   0.0150222   0.0076746   0.0000000), wk =   0.0277778
        k(    9) = (   0.0150222   0.0230238   0.0000000), wk =   0.0277778
        k(   10) = (   0.0150222   0.0383730   0.0000000), wk =   0.0277778
        k(   11) = (   0.0150222   0.0537221   0.0000000), wk =   0.0277778
        k(   12) = (   0.0150222   0.0690713   0.0000000), wk =   0.0277778
        k(   13) = (   0.0150222   0.0844205   0.0000000), wk =   0.0277778
        k(   14) = (   0.0150222  -0.0844205   0.0000000), wk =   0.0277778
        k(   15) = (   0.0150222  -0.0690713   0.0000000), wk =   0.0277778
        k(   16) = (   0.0150222  -0.0537221   0.0000000), wk =   0.0277778
        k(   17) = (   0.0150222  -0.0383730   0.0000000), wk =   0.0277778
        k(   18) = (   0.0150222  -0.0230238   0.0000000), wk =   0.0277778
        k(   19) = (   0.0150222  -0.0076746   0.0000000), wk =   0.0277778
        k(   20) = (   0.0300444   0.0153492   0.0000000), wk =   0.0277778
        k(   21) = (   0.0300444   0.0306984   0.0000000), wk =   0.0277778
        k(   22) = (   0.0300444   0.0460475   0.0000000), wk =   0.0277778
        k(   23) = (   0.0300444   0.0613967   0.0000000), wk =   0.0277778
        k(   24) = (   0.0300444   0.0767459   0.0000000), wk =   0.0277778
        k(   25) = (   0.0300444   0.0920951   0.0000000), wk =   0.0277778
        k(   26) = (   0.0300444  -0.0767459   0.0000000), wk =   0.0277778
        k(   27) = (   0.0300444  -0.0613967   0.0000000), wk =   0.0277778
        k(   28) = (   0.0300444  -0.0460475   0.0000000), wk =   0.0277778
        k(   29) = (   0.0300444  -0.0306984   0.0000000), wk =   0.0277778
        k(   30) = (   0.0300444  -0.0153492   0.0000000), wk =   0.0277778
        k(   31) = (   0.0300444  -0.0000000   0.0000000), wk =   0.0277778
        k(   32) = (   0.0450666   0.0230238   0.0000000), wk =   0.0277778
        k(   33) = (   0.0450666   0.0383730   0.0000000), wk =   0.0277778
        k(   34) = (   0.0450666   0.0537221   0.0000000), wk =   0.0277778
        k(   35) = (   0.0450666   0.0690713   0.0000000), wk =   0.0277778
        k(   36) = (   0.0450666   0.0844205   0.0000000), wk =   0.0277778
        k(   37) = (   0.0450666   0.0997697   0.0000000), wk =   0.0277778
        k(   38) = (   0.0450666  -0.0690713   0.0000000), wk =   0.0277778
        k(   39) = (   0.0450666  -0.0537221   0.0000000), wk =   0.0277778
        k(   40) = (   0.0450666  -0.0383730   0.0000000), wk =   0.0277778
        k(   41) = (   0.0450666  -0.0230238   0.0000000), wk =   0.0277778
        k(   42) = (   0.0450666  -0.0076746   0.0000000), wk =   0.0277778
        k(   43) = (   0.0450666   0.0076746   0.0000000), wk =   0.0277778
        k(   44) = (   0.0600888   0.0306984   0.0000000), wk =   0.0277778
        k(   45) = (   0.0600888   0.0460475   0.0000000), wk =   0.0277778
        k(   46) = (   0.0600888   0.0613967   0.0000000), wk =   0.0277778
        k(   47) = (   0.0600888   0.0767459   0.0000000), wk =   0.0277778
        k(   48) = (   0.0600888   0.0920951   0.0000000), wk =   0.0277778
        k(   49) = (   0.0600888   0.1074443   0.0000000), wk =   0.0277778
        k(   50) = (   0.0600888  -0.0613967   0.0000000), wk =   0.0277778
        k(   51) = (   0.0600888  -0.0460475   0.0000000), wk =   0.0277778
        k(   52) = (   0.0600888  -0.0306984   0.0000000), wk =   0.0277778
        k(   53) = (   0.0600888  -0.0153492   0.0000000), wk =   0.0277778
        k(   54) = (   0.0600888   0.0000000   0.0000000), wk =   0.0277778
        k(   55) = (   0.0600888   0.0153492   0.0000000), wk =   0.0277778
        k(   56) = (   0.0751110   0.0383730   0.0000000), wk =   0.0277778
        k(   57) = (   0.0751110   0.0537221   0.0000000), wk =   0.0277778
        k(   58) = (   0.0751110   0.0690713   0.0000000), wk =   0.0277778
        k(   59) = (   0.0751110   0.0844205   0.0000000), wk =   0.0277778
        k(   60) = (   0.0751110   0.0997697   0.0000000), wk =   0.0277778
        k(   61) = (   0.0751110   0.1151189   0.0000000), wk =   0.0277778
        k(   62) = (   0.0751110  -0.0537221   0.0000000), wk =   0.0277778
        k(   63) = (   0.0751110  -0.0383730   0.0000000), wk =   0.0277778
        k(   64) = (   0.0751110  -0.0230238   0.0000000), wk =   0.0277778
        k(   65) = (   0.0751110  -0.0076746   0.0000000), wk =   0.0277778
        k(   66) = (   0.0751110   0.0076746   0.0000000), wk =   0.0277778
        k(   67) = (   0.0751110   0.0230238   0.0000000), wk =   0.0277778
        k(   68) = (  -0.0901332  -0.0460475   0.0000000), wk =   0.0138889
        k(   69) = (  -0.0901332  -0.0306984   0.0000000), wk =   0.0277778
        k(   70) = (  -0.0901332  -0.0153492   0.0000000), wk =   0.0277778
        k(   71) = (  -0.0901332   0.0000000   0.0000000), wk =   0.0277778
        k(   72) = (  -0.0901332   0.0153492   0.0000000), wk =   0.0277778
        k(   73) = (  -0.0901332   0.0306984   0.0000000), wk =   0.0277778
        k(   74) = (  -0.0901332  -0.1381426   0.0000000), wk =   0.0138889

     Initial potential from superposition of free atoms

     starting charge  155.96542, renormalised to  156.00000

     negative rho (up, down):  2.730E-03 0.000E+00

     %%%%%%%%%%%%%%%%%%%%%%%%%%%%%%%%%%%%%%%%%%%%%%%%%%%%%%%%%%%%%%%%%%%%%%%%
     %                                                                      %
     % You are using vdW-DF, which was implemented by the Thonhauser group. %
     % Please cite the following two papers that made this development      %
     % possible and the two reviews that describe the various versions:     %
     %                                                                      %
     %   T. Thonhauser et al., PRL 115, 136402 (2015).                      %
     %   T. Thonhauser et al., PRB 76, 125112 (2007).                       %
     %   K. Berland et al., Rep. Prog. Phys. 78, 066501 (2015).             %
     %   D.C. Langreth et al., J. Phys.: Condens. Matter 21, 084203 (2009). %
     %                                                                      %
     %                                                                      %
     % If you are calculating the stress with vdW-DF, please also cite:     %
     %                                                                      %
     %   R. Sabatini et al., J. Phys.: Condens. Matter 24, 424209 (2012).   %
     %                                                                      %
     %%%%%%%%%%%%%%%%%%%%%%%%%%%%%%%%%%%%%%%%%%%%%%%%%%%%%%%%%%%%%%%%%%%%%%%%

     Adding external electric field

     Computed dipole along edir(3) :
        Dipole                0.0051 Ry au,          0.0130 Debye
        Dipole field          0.0000 Ry au,

        Potential amp.       -0.0012 Ry
        Total length         45.6360 bohr

     Starting wfcs are  114 randomized atomic wfcs

     Self-consistent Calculation

     iteration #  1     ecut=    55.12 Ry     beta= 0.10
     Davidson diagonalization with overlap
     ethr =  1.00E-02,  avg # of iterations =  2.2

[...]

     total energy              =   -1447.47316826 Ry
     estimated scf accuracy    <       3.05227566 Ry

[...]

     iteration #  6     ecut=    55.12 Ry     beta= 0.10
     Davidson diagonalization with overlap
     c_bands:  1 eigenvalues not converged
     ethr =  6.37E-05,  avg # of iterations =  8.8

[...]

     iteration # 12     ecut=    55.12 Ry     beta= 0.10
     Davidson diagonalization with overlap
     c_bands:  1 eigenvalues not converged
     ethr =  6.26E-07,  avg # of iterations =  6.4

[...]

     total energy              =   -1447.72500148 Ry
     estimated scf accuracy    <       0.00003615 Ry

     iteration # 17     ecut=    55.12 Ry     beta= 0.10
     Davidson diagonalization with overlap
     ethr =  2.32E-08,  avg # of iterations =  2.0

[...]

     Adding external electric field

     Computed dipole along edir(3) :
        Dipole                0.0524 Ry au,          0.1333 Debye
        Dipole field          0.0001 Ry au,

        Potential amp.       -0.0119 Ry
        Total length         45.6360 bohr

     End of self-consistent calculation

          k = 0.0000 0.0000 0.0000 ( 34879 PWs)   bands (ev):

   -59.8899 -59.7988 -59.7749 -59.6858 -59.6644 -59.5763 -34.5298 -34.4268
   -34.2383 -34.1295 -34.0333 -33.9487 -33.8563 -33.8544 -33.8018 -33.7668
   -33.7490 -33.7130 -33.6620 -33.4360 -33.3543 -33.2715 -33.2262 -33.1540
    -8.6954  -8.4199  -8.3391  -8.2757  -8.2734  -8.0652  -8.0180  -7.9381
    -7.9139  -7.8273  -7.8068  -7.7580  -7.5742  -7.4193  -7.3662  -7.3599
    -7.3378  -7.2557  -7.2487  -7.2455  -7.2167  -7.2109  -7.1074  -7.0305
    -6.9351  -6.9044  -6.8607  -6.8307  -6.7069  -6.4707  -6.2348  -4.5194
    -2.9161  -2.3303  -2.1468  -1.7763  -1.4226  -1.2965  -1.2341  -1.0301
    -0.8429  -0.6656  -0.3744  -0.2956  -0.0599   0.0594   0.1962   0.4367
     0.8834   0.9008   1.1525   1.3245   1.4730   1.6765   1.6939   1.8345
     1.9941   2.2454   2.3031   2.3385   2.4425   2.5623   2.8789   3.0978
     3.1995   3.3687   3.4156   3.5152   3.8241   4.0738

[...]

          k = 0.0751 0.0230 0.0000 ( 34782 PWs)   bands (ev):

[...]

          k =-0.0901-0.0460 0.0000 ( 34776 PWs)   bands (ev):

[...]

          k =-0.0901-0.1381 0.0000 ( 34776 PWs)   bands (ev):

   -59.8444 -59.8444 -59.7305 -59.7304 -59.6207 -59.6205 -34.4789 -34.4788
   -33.9033 -33.9033 -33.8475 -33.8475 -33.8099 -33.8099 -33.7581 -33.7580
   -33.7505 -33.7504 -33.7060 -33.7058 -33.6610 -33.6608 -33.1902 -33.1899
    -8.1226  -8.1225  -7.9396  -7.9395  -7.8735  -7.8735  -7.7855  -7.7855
    -7.7639  -7.7639  -7.4878  -7.4872  -7.4385  -7.4381  -7.4264  -7.4243
    -7.3787  -7.3782  -7.3436  -7.3423  -7.2951  -7.2949  -7.2843  -7.2838
    -7.2197  -7.2190  -7.1521  -7.1519  -7.1064  -7.1062  -4.6297  -4.6294
    -3.1898  -3.1886  -2.1034  -2.1029  -1.4290  -1.4289  -1.0289  -1.0288
    -0.4702  -0.4700  -0.1488  -0.1486   0.1794   0.1796   0.4473   0.4475
     0.5195   0.5196   0.9038   0.9040   0.9408   0.9409   1.1812   1.1812
     1.4254   1.4255   1.8180   1.8181   2.2183   2.2185   2.6328   2.6329
     3.0770   3.0772   3.2304   3.2305   3.7036   3.7040

     the Fermi energy is     1.3066 ev

!    total energy              =   -1447.72500343 Ry
     estimated scf accuracy    <       0.00000548 Ry
     smearing contrib. (-TS)   =      -0.05926263 Ry
     internal energy E=F+TS    =   -1447.66574079 Ry

     The total energy is F=E-TS. E is the sum of the following terms:
     one-electron contribution =  -11713.04624229 Ry
     hartree contribution      =    5893.46984901 Ry
     xc contribution           =    -263.35380508 Ry
     ewald contribution        =    4635.26445071 Ry
     electric field correction =       0.00000686 Ry

     convergence has been achieved in  17 iterations

     negative rho (up, down):  2.902E-03 0.000E+00

     Forces acting on atoms (cartesian axes, Ry/au):

     atom    1 type  1   force =    -0.00001393    0.01355785    0.03310517
     atom    2 type  1   force =    -0.00000959    0.01356542    0.03310957
     atom    3 type  2   force =    -0.00000459   -0.01131401   -0.04334959
     atom    4 type  2   force =    -0.00000005   -0.01131285   -0.04334590
     atom    5 type  1   force =     0.00002727   -0.02097663   -0.00803452
     atom    6 type  1   force =     0.00002454   -0.02092842   -0.00794168
     atom    7 type  2   force =    -0.00004720    0.01691214    0.01625340
     atom    8 type  2   force =     0.00004900    0.01691096    0.01624667
     atom    9 type  1   force =    -0.00001692    0.00130799    0.00215806
     atom   10 type  1   force =    -0.00001533    0.00140209    0.00217027
     atom   11 type  2   force =     0.00028916    0.00043838   -0.00018853
     atom   12 type  2   force =    -0.00028236    0.00043709   -0.00018292

     Total force =     0.093239     Total SCF correction =     0.011448
     SCF correction compared to forces is large: reduce conv_thr to get better values

     Writing output data file ./Mo2Cd2/Mo2Cd2_beef.save/

     General routines

     Parallel routines

   This run was terminated on:  23: 1:26  10Jul2022

   JOB DONE.