     Program PWSCF v.6.6 starts on 10Jul2022 at 18:27:37

     R & G space division:  proc/nbgrp/npool/nimage =      37
     Fft bands division:     nmany     =       1
     Reading input from Mo2Hg2.in
Warning: card &CELL ignored
Warning: card / ignored

     Current dimensions of program PWSCF are:
     Max number of different atomic species (ntypx) = 10
     Max number of k-points (npk) =  40000
     Max angular momentum in pseudopotentials (lmaxx) =  3
     Presently stress not available with electric field and gates

     Message from routine cell_base_init:
     DEPRECATED: use true lattice parameter, not A to a.u. conversion factor
     file Mo.pbe-spn-rrkjus_psl.1.0.0.UPF: wavefunction(s)  4S renormalized
     file Hg.pbe-n-rrkjus_psl.1.0.0.UPF: wavefunction(s)  6S renormalized

     IMPORTANT: XC functional enforced from input :
     Exchange-correlation= BEEF-VDW
                           (   1   4  43  14   2   0   0)
     Any further DFT definition will be discarded
     Please, verify this is what you really want

     Subspace diagonalization in iterative solution of the eigenvalue problem:
     a serial algorithm will be used

     bravais-lattice index     =            0
     lattice parameter (alat)  =       1.8897  a.u.
     unit-cell volume          =    5094.7298 (a.u.)^3
     number of atoms/cell      =           12
     number of atomic types    =            2
     number of electrons       =       156.00
     number of Kohn-Sham states=           94
     kinetic-energy cutoff     =      55.1240  Ry
     charge density cutoff     =     551.2396  Ry
     convergence threshold     =      1.0E-05
     mixing beta               =       0.1000
     number of iterations used =           10  plain     mixing
     Exchange-correlation= BEEF-VDW
                           (   1   4  43  14   2   0   0)

     celldm(1)=   1.889726  celldm(2)=   0.000000  celldm(3)=   0.000000
     celldm(4)=   0.000000  celldm(5)=   0.000000  celldm(6)=   0.000000

     crystal axes: (cart. coord. in units of alat)
               a(1) = (   5.680490   0.000000   0.000000 )
               a(2) = (  -2.840245   5.355615   0.000000 )
               a(3) = (   0.000000   0.000000  24.815869 )

     reciprocal axes: (cart. coord. in units 2 pi/alat)
               b(1) = (  0.176041  0.093360 -0.000000 )
               b(2) = (  0.000000  0.186720  0.000000 )
               b(3) = (  0.000000 -0.000000  0.040297 )

     PseudoPot. # 1 for Mo read from file:
     ../pseudo/Mo.pbe-spn-rrkjus_psl.1.0.0.UPF
     MD5 check sum: 03f09b12e49601d1a456a78ce8b2d514
     Pseudo is Ultrasoft + core correction, Zval = 14.0
     Generated using "atomic" code by A. Dal Corso v.6.3
     Using radial grid of 1229 points,  6 beta functions with:
                l(1) =   0
                l(2) =   0
                l(3) =   1
                l(4) =   1
                l(5) =   2
                l(6) =   2
     Q(r) pseudized with 0 coefficients

     PseudoPot. # 2 for Hg read from file:
     ../pseudo/Hg.pbe-n-rrkjus_psl.1.0.0.UPF
     MD5 check sum: 7519ac2e5b9cac440d3cfd4127d6ea3c
     Pseudo is Ultrasoft + core correction, Zval = 12.0
     Generated using "atomic" code by A. Dal Corso v.6.3
     Using radial grid of 1279 points,  6 beta functions with:
                l(1) =   0
                l(2) =   0
                l(3) =   1
                l(4) =   1
                l(5) =   2
                l(6) =   2
     Q(r) pseudized with 0 coefficients

     atomic species   valence    mass     pseudopotential
        Mo            14.00    95.95000     Mo( 1.00)
        Hg            12.00   200.59200     Hg( 1.00)

     No symmetry found

   Cartesian axes

     site n.     atom                  positions (alat units)
         1           Mo  tau(   1) = (   0.0000000   0.0000000  10.0000000  )
         2           Mo  tau(   2) = (   2.8402452   0.0000000  10.0000000  )
         3           Hg  tau(   3) = (   1.4201226   2.6778073  10.0000000  )
         4           Hg  tau(   4) = (  -1.4201226   2.6778073  10.0000000  )
         5           Mo  tau(   5) = (   2.8402452   1.5062684  12.4079345  )
         6           Mo  tau(   6) = (  -0.0000000   1.5062684  12.4079345  )
         7           Hg  tau(   7) = (  -1.4201226   4.1840756  12.4079345  )
         8           Hg  tau(   8) = (   1.4201226   4.1840756  12.4079345  )
         9           Mo  tau(   9) = (  -0.0000122   2.5038240  14.4771263  )
        10           Mo  tau(  10) = (   2.8402389   2.5036577  14.4770206  )
        11           Hg  tau(  11) = (   1.4196257   5.2861001  15.2920400  )
        12           Hg  tau(  12) = (  -1.4196503   5.2861035  15.2920342  )

     number of k points=    74  Fermi-Dirac smearing, width (Ry)=  0.0100
                       cart. coord. in units 2pi/alat
        k(    1) = (   0.0000000   0.0000000   0.0000000), wk =   0.0138889
        k(    2) = (   0.0000000   0.0155600   0.0000000), wk =   0.0277778
        k(    3) = (   0.0000000   0.0311200   0.0000000), wk =   0.0277778
        k(    4) = (   0.0000000   0.0466800   0.0000000), wk =   0.0277778
        k(    5) = (   0.0000000   0.0622400   0.0000000), wk =   0.0277778
        k(    6) = (   0.0000000   0.0778000   0.0000000), wk =   0.0277778
        k(    7) = (   0.0000000  -0.0933600   0.0000000), wk =   0.0138889
        k(    8) = (   0.0146701   0.0077800   0.0000000), wk =   0.0277778
        k(    9) = (   0.0146701   0.0233400   0.0000000), wk =   0.0277778
        k(   10) = (   0.0146701   0.0389000   0.0000000), wk =   0.0277778
        k(   11) = (   0.0146701   0.0544600   0.0000000), wk =   0.0277778
        k(   12) = (   0.0146701   0.0700200   0.0000000), wk =   0.0277778
        k(   13) = (   0.0146701   0.0855800   0.0000000), wk =   0.0277778
        k(   14) = (   0.0146701  -0.0855800   0.0000000), wk =   0.0277778
        k(   15) = (   0.0146701  -0.0700200   0.0000000), wk =   0.0277778
        k(   16) = (   0.0146701  -0.0544600   0.0000000), wk =   0.0277778
        k(   17) = (   0.0146701  -0.0389000   0.0000000), wk =   0.0277778
        k(   18) = (   0.0146701  -0.0233400   0.0000000), wk =   0.0277778
        k(   19) = (   0.0146701  -0.0077800   0.0000000), wk =   0.0277778
        k(   20) = (   0.0293402   0.0155600   0.0000000), wk =   0.0277778
        k(   21) = (   0.0293402   0.0311200   0.0000000), wk =   0.0277778
        k(   22) = (   0.0293402   0.0466800   0.0000000), wk =   0.0277778
        k(   23) = (   0.0293402   0.0622400   0.0000000), wk =   0.0277778
        k(   24) = (   0.0293402   0.0778000   0.0000000), wk =   0.0277778
        k(   25) = (   0.0293402   0.0933600   0.0000000), wk =   0.0277778
        k(   26) = (   0.0293402  -0.0778000   0.0000000), wk =   0.0277778
        k(   27) = (   0.0293402  -0.0622400   0.0000000), wk =   0.0277778
        k(   28) = (   0.0293402  -0.0466800   0.0000000), wk =   0.0277778
        k(   29) = (   0.0293402  -0.0311200   0.0000000), wk =   0.0277778
        k(   30) = (   0.0293402  -0.0155600   0.0000000), wk =   0.0277778
        k(   31) = (   0.0293402  -0.0000000   0.0000000), wk =   0.0277778
        k(   32) = (   0.0440103   0.0233400   0.0000000), wk =   0.0277778
        k(   33) = (   0.0440103   0.0389000   0.0000000), wk =   0.0277778
        k(   34) = (   0.0440103   0.0544600   0.0000000), wk =   0.0277778
        k(   35) = (   0.0440103   0.0700200   0.0000000), wk =   0.0277778
        k(   36) = (   0.0440103   0.0855800   0.0000000), wk =   0.0277778
        k(   37) = (   0.0440103   0.1011400   0.0000000), wk =   0.0277778
        k(   38) = (   0.0440103  -0.0700200   0.0000000), wk =   0.0277778
        k(   39) = (   0.0440103  -0.0544600   0.0000000), wk =   0.0277778
        k(   40) = (   0.0440103  -0.0389000   0.0000000), wk =   0.0277778
        k(   41) = (   0.0440103  -0.0233400   0.0000000), wk =   0.0277778
        k(   42) = (   0.0440103  -0.0077800   0.0000000), wk =   0.0277778
        k(   43) = (   0.0440103   0.0077800   0.0000000), wk =   0.0277778
        k(   44) = (   0.0586804   0.0311200   0.0000000), wk =   0.0277778
        k(   45) = (   0.0586804   0.0466800   0.0000000), wk =   0.0277778
        k(   46) = (   0.0586804   0.0622400   0.0000000), wk =   0.0277778
        k(   47) = (   0.0586804   0.0778000   0.0000000), wk =   0.0277778
        k(   48) = (   0.0586804   0.0933600   0.0000000), wk =   0.0277778
        k(   49) = (   0.0586804   0.1089200   0.0000000), wk =   0.0277778
        k(   50) = (   0.0586804  -0.0622400   0.0000000), wk =   0.0277778
        k(   51) = (   0.0586804  -0.0466800   0.0000000), wk =   0.0277778
        k(   52) = (   0.0586804  -0.0311200   0.0000000), wk =   0.0277778
        k(   53) = (   0.0586804  -0.0155600   0.0000000), wk =   0.0277778
        k(   54) = (   0.0586804   0.0000000   0.0000000), wk =   0.0277778
        k(   55) = (   0.0586804   0.0155600   0.0000000), wk =   0.0277778
        k(   56) = (   0.0733505   0.0389000   0.0000000), wk =   0.0277778
        k(   57) = (   0.0733505   0.0544600   0.0000000), wk =   0.0277778
        k(   58) = (   0.0733505   0.0700200   0.0000000), wk =   0.0277778
        k(   59) = (   0.0733505   0.0855800   0.0000000), wk =   0.0277778
        k(   60) = (   0.0733505   0.1011400   0.0000000), wk =   0.0277778
        k(   61) = (   0.0733505   0.1166999   0.0000000), wk =   0.0277778
        k(   62) = (   0.0733505  -0.0544600   0.0000000), wk =   0.0277778
        k(   63) = (   0.0733505  -0.0389000   0.0000000), wk =   0.0277778
        k(   64) = (   0.0733505  -0.0233400   0.0000000), wk =   0.0277778
        k(   65) = (   0.0733505  -0.0077800   0.0000000), wk =   0.0277778
        k(   66) = (   0.0733505   0.0077800   0.0000000), wk =   0.0277778
        k(   67) = (   0.0733505   0.0233400   0.0000000), wk =   0.0277778
        k(   68) = (  -0.0880206  -0.0466800   0.0000000), wk =   0.0138889
        k(   69) = (  -0.0880206  -0.0311200   0.0000000), wk =   0.0277778
        k(   70) = (  -0.0880206  -0.0155600   0.0000000), wk =   0.0277778
        k(   71) = (  -0.0880206   0.0000000   0.0000000), wk =   0.0277778
        k(   72) = (  -0.0880206   0.0155600   0.0000000), wk =   0.0277778
        k(   73) = (  -0.0880206   0.0311200   0.0000000), wk =   0.0277778
        k(   74) = (  -0.0880206  -0.1400399   0.0000000), wk =   0.0138889

     Initial potential from superposition of free atoms

     starting charge  155.99422, renormalised to  156.00000

     negative rho (up, down):  1.251E-03 0.000E+00

     %%%%%%%%%%%%%%%%%%%%%%%%%%%%%%%%%%%%%%%%%%%%%%%%%%%%%%%%%%%%%%%%%%%%%%%%
     %                                                                      %
     % You are using vdW-DF, which was implemented by the Thonhauser group. %
     % Please cite the following two papers that made this development      %
     % possible and the two reviews that describe the various versions:     %
     %                                                                      %
     %   T. Thonhauser et al., PRL 115, 136402 (2015).                      %
     %   T. Thonhauser et al., PRB 76, 125112 (2007).                       %
     %   K. Berland et al., Rep. Prog. Phys. 78, 066501 (2015).             %
     %   D.C. Langreth et al., J. Phys.: Condens. Matter 21, 084203 (2009). %
     %                                                                      %
     %                                                                      %
     % If you are calculating the stress with vdW-DF, please also cite:     %
     %                                                                      %
     %   R. Sabatini et al., J. Phys.: Condens. Matter 24, 424209 (2012).   %
     %                                                                      %
     %%%%%%%%%%%%%%%%%%%%%%%%%%%%%%%%%%%%%%%%%%%%%%%%%%%%%%%%%%%%%%%%%%%%%%%%

     Adding external electric field

     Computed dipole along edir(3) :
        Dipole               -0.0011 Ry au,         -0.0028 Debye
        Dipole field         -0.0000 Ry au,

        Potential amp.        0.0003 Ry
        Total length         45.7228 bohr

     Starting wfcs are  114 randomized atomic wfcs

     Self-consistent Calculation

     iteration #  1     ecut=    55.12 Ry     beta= 0.10
     Davidson diagonalization with overlap
     ethr =  1.00E-02,  avg # of iterations =  2.1

[...]

     total energy              =   -1446.74020139 Ry
     estimated scf accuracy    <       5.08132311 Ry

[...]

     iteration #  8     ecut=    55.12 Ry     beta= 0.10
     Davidson diagonalization with overlap
     c_bands:  1 eigenvalues not converged
     ethr =  2.78E-05,  avg # of iterations =  7.6

[...]

     iteration # 10     ecut=    55.12 Ry     beta= 0.10
     Davidson diagonalization with overlap
     c_bands:  1 eigenvalues not converged
     c_bands:  1 eigenvalues not converged
     ethr =  3.12E-06,  avg # of iterations =  6.0

[...]

     total energy              =   -1446.96608216 Ry
     estimated scf accuracy    <       0.00005210 Ry

     iteration # 16     ecut=    55.12 Ry     beta= 0.10
     Davidson diagonalization with overlap
     ethr =  3.34E-08,  avg # of iterations =  2.4

[...]

     Adding external electric field

     Computed dipole along edir(3) :
        Dipole                0.0559 Ry au,          0.1422 Debye
        Dipole field          0.0001 Ry au,

        Potential amp.       -0.0126 Ry
        Total length         45.7228 bohr

     End of self-consistent calculation

          k = 0.0000 0.0000 0.0000 ( 35293 PWs)   bands (ev):

   -59.6917 -59.6260 -59.6219 -59.5584 -59.3540 -59.2874 -34.5612 -34.4791
   -33.9417 -33.8955 -33.7745 -33.7112 -33.7006 -33.6610 -33.6565 -33.6417
   -33.5868 -33.5144 -33.4466 -33.2882 -33.2664 -33.0509 -32.7250 -32.6691
    -7.6670  -7.1354  -7.0673  -6.9586  -6.9196  -6.7857  -6.6157  -6.4589
    -6.4485  -6.4014  -6.3405  -6.1015  -6.0107  -5.9843  -5.7846  -5.7181
    -5.5935  -5.5433  -5.4840  -5.4359  -5.4326  -5.3531  -5.2319  -5.2123
    -5.0294  -5.0017  -4.8260  -4.7467  -4.7285  -4.7016  -4.5801  -4.2031
    -2.9005  -1.9266  -1.7588  -1.4989  -1.0224  -0.9588  -0.9402  -0.5978
    -0.5602  -0.5347  -0.1312  -0.1220   0.1143   0.3457   0.7208   0.8006
     1.2259   1.2787   1.4513   1.5721   1.6771   1.7258   1.9515   2.1893
     2.4388   2.5306   2.5635   2.8496   2.8917   2.9320   2.9772   3.0675
     3.1948   3.2586   3.4966   3.6533   4.1257   4.1755

[...]

          k = 0.0734 0.0233 0.0000 ( 35206 PWs)   bands (ev):

[...]

          k =-0.0880-0.0467 0.0000 ( 35202 PWs)   bands (ev):

[...]

          k =-0.0880-0.1400 0.0000 ( 35202 PWs)   bands (ev):

   -59.6568 -59.6568 -59.5922 -59.5921 -59.3209 -59.3206 -34.5208 -34.5205
   -33.7386 -33.7386 -33.6766 -33.6766 -33.6244 -33.6244 -33.6190 -33.6189
   -33.5879 -33.5879 -33.4811 -33.4807 -33.3619 -33.3615 -32.6973 -32.6967
    -6.6676  -6.6676  -6.4395  -6.4395  -6.3492  -6.3491  -6.2731  -6.2730
    -6.1936  -6.1934  -5.8201  -5.8200  -5.7524  -5.7522  -5.6816  -5.6814
    -5.5315  -5.5292  -5.4957  -5.4954  -5.4728  -5.4710  -5.4211  -5.4188
    -5.3022  -5.3019  -5.2150  -5.2133  -5.1676  -5.1671  -4.9032  -4.9024
    -3.6395  -3.6378  -2.3001  -2.2993  -1.2510  -1.2510  -0.8038  -0.8036
    -0.3384  -0.3382   0.0464   0.0468   0.3712   0.3713   0.6925   0.6927
     0.8148   0.8150   1.1639   1.1639   1.1963   1.1966   1.4787   1.4788
     1.7437   1.7439   2.1141   2.1143   2.6441   2.6443   2.9266   2.9267
     3.5142   3.5145   3.6509   3.6510   4.1168   4.1173

     the Fermi energy is     1.5411 ev

!    total energy              =   -1446.96608213 Ry
     estimated scf accuracy    <       0.00000962 Ry
     smearing contrib. (-TS)   =      -0.06255943 Ry
     internal energy E=F+TS    =   -1446.90352270 Ry

     The total energy is F=E-TS. E is the sum of the following terms:
     one-electron contribution =  -11449.14470874 Ry
     hartree contribution      =    5763.20071983 Ry
     xc contribution           =    -321.56378727 Ry
     ewald contribution        =    4560.60424576 Ry
     electric field correction =       0.00000772 Ry

     convergence has been achieved in  16 iterations

     negative rho (up, down):  1.196E-03 0.000E+00

     Forces acting on atoms (cartesian axes, Ry/au):

     atom    1 type  1   force =     0.00000270    0.01295867    0.02995000
     atom    2 type  1   force =     0.00000452    0.01297363    0.02999542
     atom    3 type  2   force =    -0.00003079   -0.01069895   -0.04902630
     atom    4 type  2   force =     0.00001507   -0.01069239   -0.04904227
     atom    5 type  1   force =     0.00000788   -0.02606313    0.00000454
     atom    6 type  1   force =    -0.00000099   -0.02598767    0.00016878
     atom    7 type  2   force =    -0.00006928    0.02330742    0.01910542
     atom    8 type  2   force =     0.00008399    0.02329390    0.01911655
     atom    9 type  1   force =     0.00000249    0.00009227    0.00081672
     atom   10 type  1   force =    -0.00000319    0.00017009    0.00085589
     atom   11 type  2   force =     0.00029045    0.00033964   -0.00096898
     atom   12 type  2   force =    -0.00030285    0.00030652   -0.00097579

     Total force =     0.101711     Total SCF correction =     0.017973
     SCF correction compared to forces is large: reduce conv_thr to get better values

     Writing output data file ./Mo2Hg2/Mo2Hg2_beef.save/

     General routines

     Parallel routines

   This run was terminated on:  19: 6:16  10Jul2022

   JOB DONE.