     Program PWSCF v.6.6 starts on 24Jun2022 at 10:54:51

     R & G space division:  proc/nbgrp/npool/nimage =      37
     Fft bands division:     nmany     =       1
     Reading input from Mo2Ir2.in
Warning: card &CELL ignored
Warning: card / ignored

     Current dimensions of program PWSCF are:
     Max number of different atomic species (ntypx) = 10
     Max number of k-points (npk) =  40000
     Max angular momentum in pseudopotentials (lmaxx) =  3
     Presently stress not available with electric field and gates

     Message from routine cell_base_init:
     DEPRECATED: use true lattice parameter, not A to a.u. conversion factor
     file Mo.pbe-spn-rrkjus_psl.1.0.0.UPF: wavefunction(s)  4S renormalized
     file Ir.pbe-n-rrkjus_psl.0.2.3.UPF: wavefunction(s)  5D renormalized

     IMPORTANT: XC functional enforced from input :
     Exchange-correlation= BEEF-VDW
                           (   1   4  43  14   2   0   0)
     Any further DFT definition will be discarded
     Please, verify this is what you really want

     Subspace diagonalization in iterative solution of the eigenvalue problem:
     a serial algorithm will be used

     Found symmetry operation: I + ( -0.5000  0.0000  0.0000)
     This is a supercell, fractional translations are disabled

     bravais-lattice index     =            0
     lattice parameter (alat)  =       1.8897  a.u.
     unit-cell volume          =    4401.8723 (a.u.)^3
     number of atoms/cell      =           12
     number of atomic types    =            2
     number of electrons       =       138.00
     number of Kohn-Sham states=           83
     kinetic-energy cutoff     =      55.1240  Ry
     charge density cutoff     =     551.2396  Ry
     convergence threshold     =      1.0E-05
     mixing beta               =       0.1000
     number of iterations used =           10  plain     mixing
     Exchange-correlation= BEEF-VDW
                           (   1   4  43  14   2   0   0)

     celldm(1)=   1.889726  celldm(2)=   0.000000  celldm(3)=   0.000000
     celldm(4)=   0.000000  celldm(5)=   0.000000  celldm(6)=   0.000000

     crystal axes: (cart. coord. in units of alat)
               a(1) = (   5.538026   0.000000   0.000000 )
               a(2) = (  -2.769013   4.802632   0.000000 )
               a(3) = (   0.000000   0.000000  24.524865 )

     reciprocal axes: (cart. coord. in units 2 pi/alat)
               b(1) = (  0.180570  0.104110 -0.000000 )
               b(2) = (  0.000000  0.208219  0.000000 )
               b(3) = (  0.000000 -0.000000  0.040775 )

     PseudoPot. # 1 for Mo read from file:
     ../pseudo/Mo.pbe-spn-rrkjus_psl.1.0.0.UPF
     MD5 check sum: 03f09b12e49601d1a456a78ce8b2d514
     Pseudo is Ultrasoft + core correction, Zval = 14.0
     Generated using "atomic" code by A. Dal Corso v.6.3
     Using radial grid of 1229 points,  6 beta functions with:
                l(1) =   0
                l(2) =   0
                l(3) =   1
                l(4) =   1
                l(5) =   2
                l(6) =   2
     Q(r) pseudized with 0 coefficients

     PseudoPot. # 2 for Ir read from file:
     ../pseudo/Ir.pbe-n-rrkjus_psl.0.2.3.UPF
     MD5 check sum: a93e608e8ddc29ee62145620b5f41564
     Pseudo is Ultrasoft + core correction, Zval =  9.0
     Generated using "atomic" code by A. Dal Corso v.5.0.2 svn rev. 9415
     Using radial grid of 1277 points,  6 beta functions with:
                l(1) =   0
                l(2) =   0
                l(3) =   1
                l(4) =   1
                l(5) =   2
                l(6) =   2
     Q(r) pseudized with 0 coefficients

     atomic species   valence    mass     pseudopotential
        Mo            14.00    95.95000     Mo( 1.00)
        Ir             9.00   192.21700     Ir( 1.00)

     No symmetry found

   Cartesian axes

     site n.     atom                  positions (alat units)
         1           Mo  tau(   1) = (   0.0000000   0.0000000  10.0000000  )
         2           Mo  tau(   2) = (   2.7690130   0.0000000  10.0000000  )
         3           Ir  tau(   3) = (   1.3845065   2.4013159  10.0000000  )
         4           Ir  tau(   4) = (  -1.3845065   2.4013159  10.0000000  )
         5           Mo  tau(   5) = (   2.7690130   1.5965065  12.2624323  )
         6           Mo  tau(   6) = (   0.0000000   1.5965065  12.2624323  )
         7           Ir  tau(   7) = (  -1.3845065   3.9978224  12.2624323  )
         8           Ir  tau(   8) = (   1.3845065   3.9978224  12.2624323  )
         9           Mo  tau(   9) = (  -0.0000001   3.2295610  14.4306169  )
        10           Mo  tau(  10) = (   2.7690129   3.2295648  14.4306177  )
        11           Ir  tau(  11) = (   4.1535230   0.8734125  14.4398712  )
        12           Ir  tau(  12) = (   1.3845037   0.8734134  14.4398713  )

     number of k points=    74  Fermi-Dirac smearing, width (Ry)=  0.0100
                       cart. coord. in units 2pi/alat
        k(    1) = (   0.0000000   0.0000000   0.0000000), wk =   0.0138889
        k(    2) = (   0.0000000   0.0173516   0.0000000), wk =   0.0277778
        k(    3) = (   0.0000000   0.0347032   0.0000000), wk =   0.0277778
        k(    4) = (   0.0000000   0.0520548   0.0000000), wk =   0.0277778
        k(    5) = (   0.0000000   0.0694064   0.0000000), wk =   0.0277778
        k(    6) = (   0.0000000   0.0867580   0.0000000), wk =   0.0277778
        k(    7) = (   0.0000000  -0.1041096   0.0000000), wk =   0.0138889
        k(    8) = (   0.0150475   0.0086758   0.0000000), wk =   0.0277778
        k(    9) = (   0.0150475   0.0260274   0.0000000), wk =   0.0277778
        k(   10) = (   0.0150475   0.0433790   0.0000000), wk =   0.0277778
        k(   11) = (   0.0150475   0.0607306   0.0000000), wk =   0.0277778
        k(   12) = (   0.0150475   0.0780822   0.0000000), wk =   0.0277778
        k(   13) = (   0.0150475   0.0954338   0.0000000), wk =   0.0277778
        k(   14) = (   0.0150475  -0.0954338   0.0000000), wk =   0.0277778
        k(   15) = (   0.0150475  -0.0780822   0.0000000), wk =   0.0277778
        k(   16) = (   0.0150475  -0.0607306   0.0000000), wk =   0.0277778
        k(   17) = (   0.0150475  -0.0433790   0.0000000), wk =   0.0277778
        k(   18) = (   0.0150475  -0.0260274   0.0000000), wk =   0.0277778
        k(   19) = (   0.0150475  -0.0086758   0.0000000), wk =   0.0277778
        k(   20) = (   0.0300950   0.0173516   0.0000000), wk =   0.0277778
        k(   21) = (   0.0300950   0.0347032   0.0000000), wk =   0.0277778
        k(   22) = (   0.0300950   0.0520548   0.0000000), wk =   0.0277778
        k(   23) = (   0.0300950   0.0694064   0.0000000), wk =   0.0277778
        k(   24) = (   0.0300950   0.0867580   0.0000000), wk =   0.0277778
        k(   25) = (   0.0300950   0.1041096   0.0000000), wk =   0.0277778
        k(   26) = (   0.0300950  -0.0867580   0.0000000), wk =   0.0277778
        k(   27) = (   0.0300950  -0.0694064   0.0000000), wk =   0.0277778
        k(   28) = (   0.0300950  -0.0520548   0.0000000), wk =   0.0277778
        k(   29) = (   0.0300950  -0.0347032   0.0000000), wk =   0.0277778
        k(   30) = (   0.0300950  -0.0173516   0.0000000), wk =   0.0277778
        k(   31) = (   0.0300950  -0.0000000   0.0000000), wk =   0.0277778
        k(   32) = (   0.0451424   0.0260274   0.0000000), wk =   0.0277778
        k(   33) = (   0.0451424   0.0433790   0.0000000), wk =   0.0277778
        k(   34) = (   0.0451424   0.0607306   0.0000000), wk =   0.0277778
        k(   35) = (   0.0451424   0.0780822   0.0000000), wk =   0.0277778
        k(   36) = (   0.0451424   0.0954338   0.0000000), wk =   0.0277778
        k(   37) = (   0.0451424   0.1127854   0.0000000), wk =   0.0277778
        k(   38) = (   0.0451424  -0.0780822   0.0000000), wk =   0.0277778
        k(   39) = (   0.0451424  -0.0607306   0.0000000), wk =   0.0277778
        k(   40) = (   0.0451424  -0.0433790   0.0000000), wk =   0.0277778
        k(   41) = (   0.0451424  -0.0260274   0.0000000), wk =   0.0277778
        k(   42) = (   0.0451424  -0.0086758   0.0000000), wk =   0.0277778
        k(   43) = (   0.0451424   0.0086758   0.0000000), wk =   0.0277778
        k(   44) = (   0.0601899   0.0347032   0.0000000), wk =   0.0277778
        k(   45) = (   0.0601899   0.0520548   0.0000000), wk =   0.0277778
        k(   46) = (   0.0601899   0.0694064   0.0000000), wk =   0.0277778
        k(   47) = (   0.0601899   0.0867580   0.0000000), wk =   0.0277778
        k(   48) = (   0.0601899   0.1041096   0.0000000), wk =   0.0277778
        k(   49) = (   0.0601899   0.1214612   0.0000000), wk =   0.0277778
        k(   50) = (   0.0601899  -0.0694064   0.0000000), wk =   0.0277778
        k(   51) = (   0.0601899  -0.0520548   0.0000000), wk =   0.0277778
        k(   52) = (   0.0601899  -0.0347032   0.0000000), wk =   0.0277778
        k(   53) = (   0.0601899  -0.0173516   0.0000000), wk =   0.0277778
        k(   54) = (   0.0601899   0.0000000   0.0000000), wk =   0.0277778
        k(   55) = (   0.0601899   0.0173516   0.0000000), wk =   0.0277778
        k(   56) = (   0.0752374   0.0433790   0.0000000), wk =   0.0277778
        k(   57) = (   0.0752374   0.0607306   0.0000000), wk =   0.0277778
        k(   58) = (   0.0752374   0.0780822   0.0000000), wk =   0.0277778
        k(   59) = (   0.0752374   0.0954338   0.0000000), wk =   0.0277778
        k(   60) = (   0.0752374   0.1127854   0.0000000), wk =   0.0277778
        k(   61) = (   0.0752374   0.1301370   0.0000000), wk =   0.0277778
        k(   62) = (   0.0752374  -0.0607306   0.0000000), wk =   0.0277778
        k(   63) = (   0.0752374  -0.0433790   0.0000000), wk =   0.0277778
        k(   64) = (   0.0752374  -0.0260274   0.0000000), wk =   0.0277778
        k(   65) = (   0.0752374  -0.0086758   0.0000000), wk =   0.0277778
        k(   66) = (   0.0752374   0.0086758   0.0000000), wk =   0.0277778
        k(   67) = (   0.0752374   0.0260274   0.0000000), wk =   0.0277778
        k(   68) = (  -0.0902849  -0.0520548   0.0000000), wk =   0.0138889
        k(   69) = (  -0.0902849  -0.0347032   0.0000000), wk =   0.0277778
        k(   70) = (  -0.0902849  -0.0173516   0.0000000), wk =   0.0277778
        k(   71) = (  -0.0902849   0.0000000   0.0000000), wk =   0.0277778
        k(   72) = (  -0.0902849   0.0173516   0.0000000), wk =   0.0277778
        k(   73) = (  -0.0902849   0.0347032   0.0000000), wk =   0.0277778
        k(   74) = (  -0.0902849  -0.1561644   0.0000000), wk =   0.0138889

     Initial potential from superposition of free atoms

     starting charge  137.99382, renormalised to  138.00000

     negative rho (up, down):  5.239E-04 0.000E+00

     %%%%%%%%%%%%%%%%%%%%%%%%%%%%%%%%%%%%%%%%%%%%%%%%%%%%%%%%%%%%%%%%%%%%%%%%
     %                                                                      %
     % You are using vdW-DF, which was implemented by the Thonhauser group. %
     % Please cite the following two papers that made this development      %
     % possible and the two reviews that describe the various versions:     %
     %                                                                      %
     %   T. Thonhauser et al., PRL 115, 136402 (2015).                      %
     %   T. Thonhauser et al., PRB 76, 125112 (2007).                       %
     %   K. Berland et al., Rep. Prog. Phys. 78, 066501 (2015).             %
     %   D.C. Langreth et al., J. Phys.: Condens. Matter 21, 084203 (2009). %
     %                                                                      %
     %                                                                      %
     % If you are calculating the stress with vdW-DF, please also cite:     %
     %                                                                      %
     %   R. Sabatini et al., J. Phys.: Condens. Matter 24, 424209 (2012).   %
     %                                                                      %
     %%%%%%%%%%%%%%%%%%%%%%%%%%%%%%%%%%%%%%%%%%%%%%%%%%%%%%%%%%%%%%%%%%%%%%%%

     Adding external electric field

     Computed dipole along edir(3) :
        Dipole               -0.0000 Ry au,         -0.0000 Debye
        Dipole field         -0.0000 Ry au,

        Potential amp.        0.0000 Ry
        Total length         45.1866 bohr

     Starting wfcs are  114 randomized atomic wfcs

     Self-consistent Calculation

     iteration #  1     ecut=    55.12 Ry     beta= 0.10
     Davidson diagonalization with overlap
     ethr =  1.00E-02,  avg # of iterations =  2.0

[...]

     total energy              =   -1219.26498739 Ry
     estimated scf accuracy    <       1.87585683 Ry

[...]

     iteration #  6     ecut=    55.12 Ry     beta= 0.10
     Davidson diagonalization with overlap
     c_bands:  1 eigenvalues not converged
     ethr =  5.50E-05,  avg # of iterations =  9.5

[...]

     iteration # 14     ecut=    55.12 Ry     beta= 0.10
     Davidson diagonalization with overlap
     ethr =  9.08E-08,  avg # of iterations =  3.3

[...]

     total energy              =   -1219.40013175 Ry
     estimated scf accuracy    <       0.00001027 Ry

     iteration # 16     ecut=    55.12 Ry     beta= 0.10
     Davidson diagonalization with overlap
     c_bands:  2 eigenvalues not converged
     ethr =  7.44E-09,  avg # of iterations =  2.9

[...]

     Adding external electric field

     Computed dipole along edir(3) :
        Dipole                0.0208 Ry au,          0.0530 Debye
        Dipole field          0.0001 Ry au,

        Potential amp.       -0.0054 Ry
        Total length         45.1866 bohr

     End of self-consistent calculation

          k = 0.0000 0.0000 0.0000 ( 30485 PWs)   bands (ev):

   -59.8069 -59.7133 -59.6690 -59.6274 -59.5788 -59.5367 -34.2178 -34.0798
   -33.9796 -33.9358 -33.9195 -33.8996 -33.8129 -33.7889 -33.7246 -33.6982
   -33.6885 -33.6321 -33.6002 -33.4337 -33.4082 -33.3551 -33.1457 -33.1273
    -6.4261  -4.7317  -4.6514  -4.4086  -4.3281  -4.2020  -4.1008  -3.8823
    -3.7893  -3.6277  -3.5655  -3.4591  -3.1653  -3.1481  -3.0262  -2.0165
    -1.9203  -1.6573  -1.3663  -1.2550  -1.2470  -0.9124  -0.8771  -0.8343
    -0.6670  -0.6539  -0.2936  -0.2501  -0.1997  -0.0281   0.1018   0.3061
     0.4900   0.7065   0.8707   0.9997   1.0933   1.3355   1.3919   1.5468
     1.8037   2.0243   2.1110   2.3020   2.5018   2.5036   2.7139   3.0324
     3.2796   3.3135   3.4323   3.5470   3.6374   3.7699   3.8512   3.9249
     3.9669   3.9743   4.1543

[...]

          k = 0.0752 0.0260 0.0000 ( 30388 PWs)   bands (ev):

[...]

          k =-0.0903-0.0521 0.0000 ( 30410 PWs)   bands (ev):

[...]

          k =-0.0903-0.1562 0.0000 ( 30410 PWs)   bands (ev):

   -59.7599 -59.7599 -59.6239 -59.6239 -59.5820 -59.5820 -34.0350 -34.0350
   -33.8611 -33.8611 -33.8250 -33.8249 -33.7408 -33.7408 -33.6833 -33.6833
   -33.6494 -33.6494 -33.5508 -33.5508 -33.5348 -33.5348 -33.3952 -33.3952
    -4.6849  -4.6849  -3.5202  -3.5202  -3.2545  -3.2545  -3.0664  -3.0664
    -2.8992  -2.8992  -2.6740  -2.6740  -2.3172  -2.3172  -2.2414  -2.2414
    -1.8922  -1.8922  -1.5706  -1.5706  -1.3655  -1.3654  -0.9054  -0.9053
    -0.8771  -0.8771  -0.7171  -0.7171  -0.6035  -0.6035  -0.4537  -0.4537
    -0.0715  -0.0715   0.3138   0.3138   0.5220   0.5220   0.6473   0.6473
     0.9125   0.9125   1.3491   1.3491   1.6772   1.6773   2.0001   2.0001
     2.1763   2.1763   2.2910   2.2910   2.4178   2.4178   2.7875   2.7876
     3.0574   3.0577   3.3336

     the Fermi energy is     1.7209 ev

!    total energy              =   -1219.40013140 Ry
     estimated scf accuracy    <       0.00000310 Ry
     smearing contrib. (-TS)   =      -0.05892110 Ry
     internal energy E=F+TS    =   -1219.34121030 Ry

     The total energy is F=E-TS. E is the sum of the following terms:
     one-electron contribution =  -10611.20039758 Ry
     hartree contribution      =    5334.59279625 Ry
     xc contribution           =    -315.86236942 Ry
     ewald contribution        =    4373.12875921 Ry
     electric field correction =       0.00000124 Ry

     convergence has been achieved in  16 iterations

     negative rho (up, down):  5.920E-04 0.000E+00

     Forces acting on atoms (cartesian axes, Ry/au):

     atom    1 type  1   force =    -0.00000107    0.00691400    0.01630538
     atom    2 type  1   force =     0.00000083    0.00691160    0.01630832
     atom    3 type  2   force =     0.00000090   -0.01781004    0.01824676
     atom    4 type  2   force =    -0.00000118   -0.01780913    0.01824646
     atom    5 type  1   force =     0.00000005    0.00863776   -0.02134561
     atom    6 type  1   force =    -0.00000011    0.00864085   -0.02134165
     atom    7 type  2   force =    -0.00000157    0.00112220   -0.01775582
     atom    8 type  2   force =     0.00000158    0.00111960   -0.01775618
     atom    9 type  1   force =    -0.00000281    0.00070183    0.00122985
     atom   10 type  1   force =    -0.00000236    0.00069981    0.00123060
     atom   11 type  2   force =     0.00000357    0.00043403    0.00331466
     atom   12 type  2   force =     0.00000216    0.00043749    0.00331722

     Total force =     0.060394     Total SCF correction =     0.009808
     SCF correction compared to forces is large: reduce conv_thr to get better values

     Writing output data file ./Mo2Ir2/Mo2Ir2_beef.save/

     General routines

     Parallel routines

   This run was terminated on:  11:47:52  24Jun2022

   JOB DONE.