     Program PWSCF v.6.6 starts on 10Jul2022 at 19: 6:19

     R & G space division:  proc/nbgrp/npool/nimage =      37
     Fft bands division:     nmany     =       1
     Reading input from Mo2Os2.in
Warning: card &CELL ignored
Warning: card / ignored

     Current dimensions of program PWSCF are:
     Max number of different atomic species (ntypx) = 10
     Max number of k-points (npk) =  40000
     Max angular momentum in pseudopotentials (lmaxx) =  3
     Presently stress not available with electric field and gates

     Message from routine cell_base_init:
     DEPRECATED: use true lattice parameter, not A to a.u. conversion factor
     file Mo.pbe-spn-rrkjus_psl.1.0.0.UPF: wavefunction(s)  4S renormalized

     IMPORTANT: XC functional enforced from input :
     Exchange-correlation= BEEF-VDW
                           (   1   4  43  14   2   0   0)
     Any further DFT definition will be discarded
     Please, verify this is what you really want

     Subspace diagonalization in iterative solution of the eigenvalue problem:
     a serial algorithm will be used

     Found symmetry operation: I + (  0.5000  0.5000  0.0000)
     This is a supercell, fractional translations are disabled

     bravais-lattice index     =            0
     lattice parameter (alat)  =       1.8897  a.u.
     unit-cell volume          =    4414.7764 (a.u.)^3
     number of atoms/cell      =           12
     number of atomic types    =            2
     number of electrons       =       180.00
     number of Kohn-Sham states=          108
     kinetic-energy cutoff     =      55.1240  Ry
     charge density cutoff     =     551.2396  Ry
     convergence threshold     =      1.0E-05
     mixing beta               =       0.1000
     number of iterations used =           10  plain     mixing
     Exchange-correlation= BEEF-VDW
                           (   1   4  43  14   2   0   0)

     celldm(1)=   1.889726  celldm(2)=   0.000000  celldm(3)=   0.000000
     celldm(4)=   0.000000  celldm(5)=   0.000000  celldm(6)=   0.000000

     crystal axes: (cart. coord. in units of alat)
               a(1) = (   5.540618   0.000000   0.000000 )
               a(2) = (   2.744210   4.813290   0.000000 )
               a(3) = (   0.000000   0.000000  24.530814 )

     reciprocal axes: (cart. coord. in units 2 pi/alat)
               b(1) = (  0.180485 -0.102900  0.000000 )
               b(2) = (  0.000000  0.207758  0.000000 )
               b(3) = (  0.000000  0.000000  0.040765 )

     PseudoPot. # 1 for Mo read from file:
     ../pseudo/Mo.pbe-spn-rrkjus_psl.1.0.0.UPF
     MD5 check sum: 03f09b12e49601d1a456a78ce8b2d514
     Pseudo is Ultrasoft + core correction, Zval = 14.0
     Generated using "atomic" code by A. Dal Corso v.6.3
     Using radial grid of 1229 points,  6 beta functions with:
                l(1) =   0
                l(2) =   0
                l(3) =   1
                l(4) =   1
                l(5) =   2
                l(6) =   2
     Q(r) pseudized with 0 coefficients

     PseudoPot. # 2 for Os read from file:
     ../pseudo/Os.pbe-spn-rrkjus_psl.1.0.0.UPF
     MD5 check sum: 3e7416ed594f6513d36e5cb31ba709d9
     Pseudo is Ultrasoft + core correction, Zval = 16.0
     Generated using "atomic" code by A. Dal Corso v.6.2.2
     Using radial grid of 1275 points,  6 beta functions with:
                l(1) =   0
                l(2) =   0
                l(3) =   1
                l(4) =   1
                l(5) =   2
                l(6) =   2
     Q(r) pseudized with 0 coefficients

     atomic species   valence    mass     pseudopotential
        Mo            14.00    95.95000     Mo( 1.00)
        Os            16.00   190.23000     Os( 1.00)

     No symmetry found

   Cartesian axes

     site n.     atom                  positions (alat units)
         1           Mo  tau(   1) = (   0.0000000   0.0000000  10.0000000  )
         2           Mo  tau(   2) = (   4.1424137   2.4066449  10.0000000  )
         3           Os  tau(   3) = (   2.7703089   0.0000000  10.0000000  )
         4           Os  tau(   4) = (   1.3721048   2.4066449  10.0000000  )
         5           Mo  tau(   5) = (   5.5406177   3.2189686  12.2654072  )
         6           Mo  tau(   6) = (   1.3982041   0.8123237  12.2654072  )
         7           Os  tau(   7) = (   2.7703089   3.2189686  12.2654072  )
         8           Os  tau(   8) = (   4.1685129   0.8123237  12.2654072  )
         9           Mo  tau(   9) = (   2.8015642   1.6276440  14.4220493  )
        10           Mo  tau(  10) = (   6.9439754   4.0342871  14.4220493  )
        11           Os  tau(  11) = (   5.5559597   1.6183957  14.4311857  )
        12           Os  tau(  12) = (   4.1577525   4.0250423  14.4311851  )

     number of k points=    74  Fermi-Dirac smearing, width (Ry)=  0.0100
                       cart. coord. in units 2pi/alat
        k(    1) = (   0.0000000   0.0000000   0.0000000), wk =   0.0138889
        k(    2) = (   0.0000000   0.0173132   0.0000000), wk =   0.0277778
        k(    3) = (   0.0000000   0.0346264   0.0000000), wk =   0.0277778
        k(    4) = (   0.0000000   0.0519395   0.0000000), wk =   0.0277778
        k(    5) = (   0.0000000   0.0692527   0.0000000), wk =   0.0277778
        k(    6) = (   0.0000000   0.0865659   0.0000000), wk =   0.0277778
        k(    7) = (   0.0000000  -0.1038791   0.0000000), wk =   0.0138889
        k(    8) = (   0.0150404  -0.0085750   0.0000000), wk =   0.0277778
        k(    9) = (   0.0150404   0.0087381   0.0000000), wk =   0.0277778
        k(   10) = (   0.0150404   0.0260513   0.0000000), wk =   0.0277778
        k(   11) = (   0.0150404   0.0433645   0.0000000), wk =   0.0277778
        k(   12) = (   0.0150404   0.0606777   0.0000000), wk =   0.0277778
        k(   13) = (   0.0150404   0.0779908   0.0000000), wk =   0.0277778
        k(   14) = (   0.0150404  -0.1124541   0.0000000), wk =   0.0277778
        k(   15) = (   0.0150404  -0.0951409   0.0000000), wk =   0.0277778
        k(   16) = (   0.0150404  -0.0778277   0.0000000), wk =   0.0277778
        k(   17) = (   0.0150404  -0.0605146   0.0000000), wk =   0.0277778
        k(   18) = (   0.0150404  -0.0432014   0.0000000), wk =   0.0277778
        k(   19) = (   0.0150404  -0.0258882   0.0000000), wk =   0.0277778
        k(   20) = (   0.0300809  -0.0171501   0.0000000), wk =   0.0277778
        k(   21) = (   0.0300809   0.0001631   0.0000000), wk =   0.0277778
        k(   22) = (   0.0300809   0.0174763   0.0000000), wk =   0.0277778
        k(   23) = (   0.0300809   0.0347895   0.0000000), wk =   0.0277778
        k(   24) = (   0.0300809   0.0521026   0.0000000), wk =   0.0277778
        k(   25) = (   0.0300809   0.0694158   0.0000000), wk =   0.0277778
        k(   26) = (   0.0300809  -0.1210291   0.0000000), wk =   0.0277778
        k(   27) = (   0.0300809  -0.1037159   0.0000000), wk =   0.0277778
        k(   28) = (   0.0300809  -0.0864028   0.0000000), wk =   0.0277778
        k(   29) = (   0.0300809  -0.0690896   0.0000000), wk =   0.0277778
        k(   30) = (   0.0300809  -0.0517764   0.0000000), wk =   0.0277778
        k(   31) = (   0.0300809  -0.0344632   0.0000000), wk =   0.0277778
        k(   32) = (   0.0451213  -0.0257251   0.0000000), wk =   0.0277778
        k(   33) = (   0.0451213  -0.0084119   0.0000000), wk =   0.0277778
        k(   34) = (   0.0451213   0.0089012   0.0000000), wk =   0.0277778
        k(   35) = (   0.0451213   0.0262144   0.0000000), wk =   0.0277778
        k(   36) = (   0.0451213   0.0435276   0.0000000), wk =   0.0277778
        k(   37) = (   0.0451213   0.0608408   0.0000000), wk =   0.0277778
        k(   38) = (   0.0451213  -0.1296042   0.0000000), wk =   0.0277778
        k(   39) = (   0.0451213  -0.1122910   0.0000000), wk =   0.0277778
        k(   40) = (   0.0451213  -0.0949778   0.0000000), wk =   0.0277778
        k(   41) = (   0.0451213  -0.0776646   0.0000000), wk =   0.0277778
        k(   42) = (   0.0451213  -0.0603515   0.0000000), wk =   0.0277778
        k(   43) = (   0.0451213  -0.0430383   0.0000000), wk =   0.0277778
        k(   44) = (   0.0601618  -0.0343001   0.0000000), wk =   0.0277778
        k(   45) = (   0.0601618  -0.0169870   0.0000000), wk =   0.0277778
        k(   46) = (   0.0601618   0.0003262   0.0000000), wk =   0.0277778
        k(   47) = (   0.0601618   0.0176394   0.0000000), wk =   0.0277778
        k(   48) = (   0.0601618   0.0349526   0.0000000), wk =   0.0277778
        k(   49) = (   0.0601618   0.0522657   0.0000000), wk =   0.0277778
        k(   50) = (   0.0601618  -0.1381792   0.0000000), wk =   0.0277778
        k(   51) = (   0.0601618  -0.1208660   0.0000000), wk =   0.0277778
        k(   52) = (   0.0601618  -0.1035528   0.0000000), wk =   0.0277778
        k(   53) = (   0.0601618  -0.0862397   0.0000000), wk =   0.0277778
        k(   54) = (   0.0601618  -0.0689265   0.0000000), wk =   0.0277778
        k(   55) = (   0.0601618  -0.0516133   0.0000000), wk =   0.0277778
        k(   56) = (   0.0752022  -0.0428752   0.0000000), wk =   0.0277778
        k(   57) = (   0.0752022  -0.0255620   0.0000000), wk =   0.0277778
        k(   58) = (   0.0752022  -0.0082488   0.0000000), wk =   0.0277778
        k(   59) = (   0.0752022   0.0090644   0.0000000), wk =   0.0277778
        k(   60) = (   0.0752022   0.0263775   0.0000000), wk =   0.0277778
        k(   61) = (   0.0752022   0.0436907   0.0000000), wk =   0.0277778
        k(   62) = (   0.0752022  -0.1467542   0.0000000), wk =   0.0277778
        k(   63) = (   0.0752022  -0.1294410   0.0000000), wk =   0.0277778
        k(   64) = (   0.0752022  -0.1121279   0.0000000), wk =   0.0277778
        k(   65) = (   0.0752022  -0.0948147   0.0000000), wk =   0.0277778
        k(   66) = (   0.0752022  -0.0775015   0.0000000), wk =   0.0277778
        k(   67) = (   0.0752022  -0.0601883   0.0000000), wk =   0.0277778
        k(   68) = (  -0.0902426   0.0514502   0.0000000), wk =   0.0138889
        k(   69) = (  -0.0902426   0.0687634   0.0000000), wk =   0.0277778
        k(   70) = (  -0.0902426   0.0860766   0.0000000), wk =   0.0277778
        k(   71) = (  -0.0902426   0.1033897   0.0000000), wk =   0.0277778
        k(   72) = (  -0.0902426   0.1207029   0.0000000), wk =   0.0277778
        k(   73) = (  -0.0902426   0.1380161   0.0000000), wk =   0.0277778
        k(   74) = (  -0.0902426  -0.0524288   0.0000000), wk =   0.0138889

     Initial potential from superposition of free atoms

     starting charge  179.99326, renormalised to  180.00000

     negative rho (up, down):  5.544E-04 0.000E+00

     %%%%%%%%%%%%%%%%%%%%%%%%%%%%%%%%%%%%%%%%%%%%%%%%%%%%%%%%%%%%%%%%%%%%%%%%
     %                                                                      %
     % You are using vdW-DF, which was implemented by the Thonhauser group. %
     % Please cite the following two papers that made this development      %
     % possible and the two reviews that describe the various versions:     %
     %                                                                      %
     %   T. Thonhauser et al., PRL 115, 136402 (2015).                      %
     %   T. Thonhauser et al., PRB 76, 125112 (2007).                       %
     %   K. Berland et al., Rep. Prog. Phys. 78, 066501 (2015).             %
     %   D.C. Langreth et al., J. Phys.: Condens. Matter 21, 084203 (2009). %
     %                                                                      %
     %                                                                      %
     % If you are calculating the stress with vdW-DF, please also cite:     %
     %                                                                      %
     %   R. Sabatini et al., J. Phys.: Condens. Matter 24, 424209 (2012).   %
     %                                                                      %
     %%%%%%%%%%%%%%%%%%%%%%%%%%%%%%%%%%%%%%%%%%%%%%%%%%%%%%%%%%%%%%%%%%%%%%%%

     Adding external electric field

     Computed dipole along edir(3) :
        Dipole               -0.0000 Ry au,         -0.0000 Debye
        Dipole field         -0.0000 Ry au,

        Potential amp.        0.0000 Ry
        Total length         45.1976 bohr

     Starting wfcs are  120 randomized atomic wfcs

     Self-consistent Calculation

     iteration #  1     ecut=    55.12 Ry     beta= 0.10
     Davidson diagonalization with overlap
     ethr =  1.00E-02,  avg # of iterations =  2.6

[...]

     total energy              =   -2044.28943588 Ry
     estimated scf accuracy    <       3.14065336 Ry

[...]

     iteration #  6     ecut=    55.12 Ry     beta= 0.10
     Davidson diagonalization with overlap
     c_bands:  2 eigenvalues not converged
     c_bands:  2 eigenvalues not converged
     ethr =  5.41E-05,  avg # of iterations =  5.4

[...]

     total energy              =   -2044.51830437 Ry
     estimated scf accuracy    <       0.00018907 Ry

     iteration # 13     ecut=    55.12 Ry     beta= 0.10
     Davidson diagonalization with overlap
     ethr =  4.72E-08,  avg # of iterations =  3.8

[...]

     Adding external electric field

     Computed dipole along edir(3) :
        Dipole                0.0429 Ry au,          0.1091 Debye
        Dipole field          0.0001 Ry au,

        Potential amp.       -0.0110 Ry
        Total length         45.1976 bohr

     End of self-consistent calculation

          k = 0.0000 0.0000 0.0000 ( 30569 PWs)   bands (ev):

   -83.9484 -83.9262 -83.6027 -83.5926 -83.5808 -83.5706 -58.6770 -58.6305
   -58.5878 -58.5441 -58.5146 -58.4280 -43.4448 -43.3581 -43.3102 -43.2192
   -43.1716 -43.0730 -43.0709 -43.0215 -42.9216 -42.8806 -42.8600 -42.8384
   -42.8305 -42.8166 -42.7924 -42.7834 -42.6574 -42.6548 -33.0779 -32.9730
   -32.9158 -32.8867 -32.8271 -32.7477 -32.7324 -32.6634 -32.6591 -32.6258
   -32.5659 -32.5496 -32.4909 -32.3175 -32.3121 -32.2458 -32.1674 -32.0744
    -5.3283  -3.6170  -3.5051  -3.2284  -3.1388  -2.9993  -2.9499  -2.5570
    -2.5373  -2.3959  -2.3316  -2.2468  -2.0188  -1.9203  -1.8444  -0.7628
    -0.6687  -0.4841   0.2251   0.2374   0.2494   0.3851   0.6059   0.7342
     0.8749   0.8972   1.0686   1.1368   1.1480   1.3328   1.3897   1.6083
     1.6483   1.8364   1.9605   2.0798   2.7626   2.8486   2.9166   3.0409
     3.1055   3.2205   3.4385   3.4459   3.6481   4.1043   4.1685   4.2965
     4.5338   4.6390   4.7513   4.8664   4.8943   4.9843   5.3544   5.3976
     5.4211   5.4642   5.5238   5.7919

[...]

          k = 0.0752-0.0602 0.0000 ( 30484 PWs)   bands (ev):

[...]

          k =-0.0902 0.0515 0.0000 ( 30486 PWs)   bands (ev):

[...]

          k =-0.0902-0.0524 0.0000 ( 30498 PWs)   bands (ev):

   -83.9483 -83.9262 -83.6027 -83.5926 -83.5808 -83.5706 -58.6778 -58.6313
   -58.5890 -58.5438 -58.5156 -58.4278 -43.4393 -43.3513 -43.3077 -43.2093
   -43.1674 -43.0694 -43.0650 -43.0210 -42.9238 -42.8814 -42.8541 -42.8319
   -42.8189 -42.8164 -42.7905 -42.7805 -42.6571 -42.6544 -33.0968 -33.0037
   -32.9285 -32.9024 -32.8412 -32.7677 -32.7347 -32.6685 -32.6569 -32.6486
   -32.5900 -32.5666 -32.5053 -32.3213 -32.3154 -32.2466 -32.1694 -32.0765
    -3.9576  -3.2810  -2.3819  -2.1888  -2.1644  -2.0693  -2.0001  -1.8012
    -1.6739  -1.4323  -1.3915  -1.1907  -1.1263  -0.9283  -0.8905  -0.7493
    -0.6328  -0.4240  -0.2415  -0.1964   0.1868   0.2960   0.4677   0.6339
     0.6505   0.7594   0.7686   0.8048   0.8153   1.1144   1.1222   1.1952
     1.2274   1.3184   1.4224   1.4774   1.5084   1.5923   1.6200   1.7280
     1.9011   2.1163   2.5314   2.6059   2.6427   2.8065   3.0347   3.1117
     3.3477   3.4631   3.4777   3.6222   3.7921   3.8031   3.9948   4.1927
     4.4585   4.6614   4.7219   5.0600

     the Fermi energy is     2.6235 ev

!    total energy              =   -2044.51832677 Ry
     estimated scf accuracy    <       0.00000937 Ry
     smearing contrib. (-TS)   =      -0.05993970 Ry
     internal energy E=F+TS    =   -2044.45838707 Ry

     The total energy is F=E-TS. E is the sum of the following terms:
     one-electron contribution =  -18280.28968047 Ry
     hartree contribution      =    9128.50890060 Ry
     xc contribution           =    -356.70699116 Ry
     ewald contribution        =    7464.02937872 Ry
     electric field correction =       0.00000525 Ry

     convergence has been achieved in  13 iterations

     negative rho (up, down):  5.081E-04 0.000E+00

     Forces acting on atoms (cartesian axes, Ry/au):

     atom    1 type  1   force =    -0.00379695   -0.00220412    0.02195218
     atom    2 type  1   force =    -0.00379447   -0.00220641    0.02195090
     atom    3 type  2   force =     0.00498154    0.00289332    0.01917720
     atom    4 type  2   force =     0.00497624    0.00289332    0.01918108
     atom    5 type  1   force =     0.00249411    0.00144588   -0.01765946
     atom    6 type  1   force =     0.00249135    0.00144932   -0.01765868
     atom    7 type  2   force =    -0.00276677   -0.00160649   -0.02364759
     atom    8 type  2   force =    -0.00276034   -0.00160508   -0.02364666
     atom    9 type  1   force =    -0.00055005   -0.00031893    0.00078270
     atom   10 type  1   force =    -0.00055082   -0.00031883    0.00078254
     atom   11 type  2   force =    -0.00036217   -0.00021062   -0.00060759
     atom   12 type  2   force =    -0.00036166   -0.00021135   -0.00060662

     Total force =     0.059888     Total SCF correction =     0.022011
     SCF correction compared to forces is large: reduce conv_thr to get better values

     Writing output data file ./Mo2Os2/Mo2Os2_beef.save/

     General routines

     Parallel routines

   This run was terminated on:  19:39:35  10Jul2022

   JOB DONE.