     Program PWSCF v.6.6 starts on 23Jun2022 at 19:29:27

     R & G space division:  proc/nbgrp/npool/nimage =      37
     Fft bands division:     nmany     =       1
     Reading input from Mo2Pd2.in
Warning: card &CELL ignored
Warning: card / ignored

     Current dimensions of program PWSCF are:
     Max number of different atomic species (ntypx) = 10
     Max number of k-points (npk) =  40000
     Max angular momentum in pseudopotentials (lmaxx) =  3
     Presently stress not available with electric field and gates

     Message from routine cell_base_init:
     DEPRECATED: use true lattice parameter, not A to a.u. conversion factor
     file Mo.pbe-spn-rrkjus_psl.1.0.0.UPF: wavefunction(s)  4S renormalized
     file Pd.pbe-n-rrkjus_psl.1.0.0.UPF: wavefunction(s)  4D renormalized

     IMPORTANT: XC functional enforced from input :
     Exchange-correlation= BEEF-VDW
                           (   1   4  43  14   2   0   0)
     Any further DFT definition will be discarded
     Please, verify this is what you really want

     Subspace diagonalization in iterative solution of the eigenvalue problem:
     a serial algorithm will be used

     Found symmetry operation: I + ( -0.5000  0.0000  0.0000)
     This is a supercell, fractional translations are disabled

     bravais-lattice index     =            0
     lattice parameter (alat)  =       1.8897  a.u.
     unit-cell volume          =    4497.1906 (a.u.)^3
     number of atoms/cell      =           12
     number of atomic types    =            2
     number of electrons       =       144.00
     number of Kohn-Sham states=           86
     kinetic-energy cutoff     =      55.1240  Ry
     charge density cutoff     =     551.2396  Ry
     convergence threshold     =      1.0E-05
     mixing beta               =       0.1000
     number of iterations used =           10  plain     mixing
     Exchange-correlation= BEEF-VDW
                           (   1   4  43  14   2   0   0)

     celldm(1)=   1.889726  celldm(2)=   0.000000  celldm(3)=   0.000000
     celldm(4)=   0.000000  celldm(5)=   0.000000  celldm(6)=   0.000000

     crystal axes: (cart. coord. in units of alat)
               a(1) = (   5.457387   0.000000   0.000000 )
               a(2) = (  -2.728694   4.971616   0.000000 )
               a(3) = (   0.000000   0.000000  24.561928 )

     reciprocal axes: (cart. coord. in units 2 pi/alat)
               b(1) = (  0.183238  0.100571 -0.000000 )
               b(2) = (  0.000000  0.201142  0.000000 )
               b(3) = (  0.000000 -0.000000  0.040713 )

     PseudoPot. # 1 for Mo read from file:
     ../pseudo/Mo.pbe-spn-rrkjus_psl.1.0.0.UPF
     MD5 check sum: 03f09b12e49601d1a456a78ce8b2d514
     Pseudo is Ultrasoft + core correction, Zval = 14.0
     Generated using "atomic" code by A. Dal Corso v.6.3
     Using radial grid of 1229 points,  6 beta functions with:
                l(1) =   0
                l(2) =   0
                l(3) =   1
                l(4) =   1
                l(5) =   2
                l(6) =   2
     Q(r) pseudized with 0 coefficients

     PseudoPot. # 2 for Pd read from file:
     ../pseudo/Pd.pbe-n-rrkjus_psl.1.0.0.UPF
     MD5 check sum: d9f693bf1c5b493397a6bd6f2231cfc3
     Pseudo is Ultrasoft + core correction, Zval = 10.0
     Generated using "atomic" code by A. Dal Corso v.6.3
     Using radial grid of 1235 points,  6 beta functions with:
                l(1) =   0
                l(2) =   0
                l(3) =   1
                l(4) =   1
                l(5) =   2
                l(6) =   2
     Q(r) pseudized with 0 coefficients

     atomic species   valence    mass     pseudopotential
        Mo            14.00    95.95000     Mo( 1.00)
        Pd            10.00   106.42000     Pd( 1.00)

     No symmetry found

   Cartesian axes

     site n.     atom                  positions (alat units)
         1           Mo  tau(   1) = (   0.0000000   0.0000000  10.0000000  )
         2           Mo  tau(   2) = (   2.7286937   0.0000000  10.0000000  )
         3           Pd  tau(   3) = (   1.3643468   2.4858080  10.0000000  )
         4           Pd  tau(   4) = (  -1.3643468   2.4858080  10.0000000  )
         5           Mo  tau(   5) = (   2.7286937   1.4976557  12.2809639  )
         6           Mo  tau(   6) = (  -0.0000000   1.4976557  12.2809639  )
         7           Pd  tau(   7) = (  -1.3643468   3.9834637  12.2809639  )
         8           Pd  tau(   8) = (   1.3643468   3.9834637  12.2809639  )
         9           Mo  tau(   9) = (   0.0000282   3.0369435  14.4275273  )
        10           Mo  tau(  10) = (   2.7287218   3.0369268  14.4275033  )
        11           Pd  tau(  11) = (   4.0929830   0.6251200  14.5638578  )
        12           Pd  tau(  12) = (   1.3643169   0.6251194  14.5638572  )

     number of k points=    74  Fermi-Dirac smearing, width (Ry)=  0.0100
                       cart. coord. in units 2pi/alat
        k(    1) = (   0.0000000   0.0000000   0.0000000), wk =   0.0138889
        k(    2) = (   0.0000000   0.0167618   0.0000000), wk =   0.0277778
        k(    3) = (   0.0000000   0.0335236   0.0000000), wk =   0.0277778
        k(    4) = (   0.0000000   0.0502855   0.0000000), wk =   0.0277778
        k(    5) = (   0.0000000   0.0670473   0.0000000), wk =   0.0277778
        k(    6) = (   0.0000000   0.0838091   0.0000000), wk =   0.0277778
        k(    7) = (   0.0000000  -0.1005709   0.0000000), wk =   0.0138889
        k(    8) = (   0.0152698   0.0083809   0.0000000), wk =   0.0277778
        k(    9) = (   0.0152698   0.0251427   0.0000000), wk =   0.0277778
        k(   10) = (   0.0152698   0.0419046   0.0000000), wk =   0.0277778
        k(   11) = (   0.0152698   0.0586664   0.0000000), wk =   0.0277778
        k(   12) = (   0.0152698   0.0754282   0.0000000), wk =   0.0277778
        k(   13) = (   0.0152698   0.0921900   0.0000000), wk =   0.0277778
        k(   14) = (   0.0152698  -0.0921900   0.0000000), wk =   0.0277778
        k(   15) = (   0.0152698  -0.0754282   0.0000000), wk =   0.0277778
        k(   16) = (   0.0152698  -0.0586664   0.0000000), wk =   0.0277778
        k(   17) = (   0.0152698  -0.0419045   0.0000000), wk =   0.0277778
        k(   18) = (   0.0152698  -0.0251427   0.0000000), wk =   0.0277778
        k(   19) = (   0.0152698  -0.0083809   0.0000000), wk =   0.0277778
        k(   20) = (   0.0305396   0.0167618   0.0000000), wk =   0.0277778
        k(   21) = (   0.0305396   0.0335236   0.0000000), wk =   0.0277778
        k(   22) = (   0.0305396   0.0502855   0.0000000), wk =   0.0277778
        k(   23) = (   0.0305396   0.0670473   0.0000000), wk =   0.0277778
        k(   24) = (   0.0305396   0.0838091   0.0000000), wk =   0.0277778
        k(   25) = (   0.0305396   0.1005709   0.0000000), wk =   0.0277778
        k(   26) = (   0.0305396  -0.0838091   0.0000000), wk =   0.0277778
        k(   27) = (   0.0305396  -0.0670473   0.0000000), wk =   0.0277778
        k(   28) = (   0.0305396  -0.0502855   0.0000000), wk =   0.0277778
        k(   29) = (   0.0305396  -0.0335236   0.0000000), wk =   0.0277778
        k(   30) = (   0.0305396  -0.0167618   0.0000000), wk =   0.0277778
        k(   31) = (   0.0305396   0.0000000   0.0000000), wk =   0.0277778
        k(   32) = (   0.0458095   0.0251427   0.0000000), wk =   0.0277778
        k(   33) = (   0.0458095   0.0419046   0.0000000), wk =   0.0277778
        k(   34) = (   0.0458095   0.0586664   0.0000000), wk =   0.0277778
        k(   35) = (   0.0458095   0.0754282   0.0000000), wk =   0.0277778
        k(   36) = (   0.0458095   0.0921900   0.0000000), wk =   0.0277778
        k(   37) = (   0.0458095   0.1089518   0.0000000), wk =   0.0277778
        k(   38) = (   0.0458095  -0.0754282   0.0000000), wk =   0.0277778
        k(   39) = (   0.0458095  -0.0586664   0.0000000), wk =   0.0277778
        k(   40) = (   0.0458095  -0.0419045   0.0000000), wk =   0.0277778
        k(   41) = (   0.0458095  -0.0251427   0.0000000), wk =   0.0277778
        k(   42) = (   0.0458095  -0.0083809   0.0000000), wk =   0.0277778
        k(   43) = (   0.0458095   0.0083809   0.0000000), wk =   0.0277778
        k(   44) = (   0.0610793   0.0335236   0.0000000), wk =   0.0277778
        k(   45) = (   0.0610793   0.0502855   0.0000000), wk =   0.0277778
        k(   46) = (   0.0610793   0.0670473   0.0000000), wk =   0.0277778
        k(   47) = (   0.0610793   0.0838091   0.0000000), wk =   0.0277778
        k(   48) = (   0.0610793   0.1005709   0.0000000), wk =   0.0277778
        k(   49) = (   0.0610793   0.1173327   0.0000000), wk =   0.0277778
        k(   50) = (   0.0610793  -0.0670473   0.0000000), wk =   0.0277778
        k(   51) = (   0.0610793  -0.0502855   0.0000000), wk =   0.0277778
        k(   52) = (   0.0610793  -0.0335236   0.0000000), wk =   0.0277778
        k(   53) = (   0.0610793  -0.0167618   0.0000000), wk =   0.0277778
        k(   54) = (   0.0610793   0.0000000   0.0000000), wk =   0.0277778
        k(   55) = (   0.0610793   0.0167618   0.0000000), wk =   0.0277778
        k(   56) = (   0.0763491   0.0419046   0.0000000), wk =   0.0277778
        k(   57) = (   0.0763491   0.0586664   0.0000000), wk =   0.0277778
        k(   58) = (   0.0763491   0.0754282   0.0000000), wk =   0.0277778
        k(   59) = (   0.0763491   0.0921900   0.0000000), wk =   0.0277778
        k(   60) = (   0.0763491   0.1089518   0.0000000), wk =   0.0277778
        k(   61) = (   0.0763491   0.1257137   0.0000000), wk =   0.0277778
        k(   62) = (   0.0763491  -0.0586664   0.0000000), wk =   0.0277778
        k(   63) = (   0.0763491  -0.0419045   0.0000000), wk =   0.0277778
        k(   64) = (   0.0763491  -0.0251427   0.0000000), wk =   0.0277778
        k(   65) = (   0.0763491  -0.0083809   0.0000000), wk =   0.0277778
        k(   66) = (   0.0763491   0.0083809   0.0000000), wk =   0.0277778
        k(   67) = (   0.0763491   0.0251427   0.0000000), wk =   0.0277778
        k(   68) = (  -0.0916189  -0.0502855   0.0000000), wk =   0.0138889
        k(   69) = (  -0.0916189  -0.0335236   0.0000000), wk =   0.0277778
        k(   70) = (  -0.0916189  -0.0167618   0.0000000), wk =   0.0277778
        k(   71) = (  -0.0916189  -0.0000000   0.0000000), wk =   0.0277778
        k(   72) = (  -0.0916189   0.0167618   0.0000000), wk =   0.0277778
        k(   73) = (  -0.0916189   0.0335236   0.0000000), wk =   0.0277778
        k(   74) = (  -0.0916189  -0.1508564   0.0000000), wk =   0.0138889

     Initial potential from superposition of free atoms

     starting charge  143.99129, renormalised to  144.00000

     negative rho (up, down):  1.007E-03 0.000E+00

     %%%%%%%%%%%%%%%%%%%%%%%%%%%%%%%%%%%%%%%%%%%%%%%%%%%%%%%%%%%%%%%%%%%%%%%%
     %                                                                      %
     % You are using vdW-DF, which was implemented by the Thonhauser group. %
     % Please cite the following two papers that made this development      %
     % possible and the two reviews that describe the various versions:     %
     %                                                                      %
     %   T. Thonhauser et al., PRL 115, 136402 (2015).                      %
     %   T. Thonhauser et al., PRB 76, 125112 (2007).                       %
     %   K. Berland et al., Rep. Prog. Phys. 78, 066501 (2015).             %
     %   D.C. Langreth et al., J. Phys.: Condens. Matter 21, 084203 (2009). %
     %                                                                      %
     %                                                                      %
     % If you are calculating the stress with vdW-DF, please also cite:     %
     %                                                                      %
     %   R. Sabatini et al., J. Phys.: Condens. Matter 24, 424209 (2012).   %
     %                                                                      %
     %%%%%%%%%%%%%%%%%%%%%%%%%%%%%%%%%%%%%%%%%%%%%%%%%%%%%%%%%%%%%%%%%%%%%%%%

     Adding external electric field

     Computed dipole along edir(3) :
        Dipole               -0.0000 Ry au,         -0.0000 Debye
        Dipole field         -0.0000 Ry au,

        Potential amp.        0.0000 Ry
        Total length         45.2549 bohr

     Starting wfcs are  114 randomized atomic wfcs

     Self-consistent Calculation

     iteration #  1     ecut=    55.12 Ry     beta= 0.10
     Davidson diagonalization with overlap
     ethr =  1.00E-02,  avg # of iterations =  2.0

[...]

     total energy              =   -1251.37656493 Ry
     estimated scf accuracy    <       4.63057692 Ry

[...]

     iteration #  9     ecut=    55.12 Ry     beta= 0.10
     Davidson diagonalization with overlap
     c_bands:  2 eigenvalues not converged
     c_bands:  1 eigenvalues not converged
     ethr =  5.89E-06,  avg # of iterations =  7.6

[...]

     total energy              =   -1251.77595835 Ry
     estimated scf accuracy    <       0.00007061 Ry

     iteration # 15     ecut=    55.12 Ry     beta= 0.10
     Davidson diagonalization with overlap
     ethr =  4.90E-08,  avg # of iterations =  3.0

[...]

     Adding external electric field

     Computed dipole along edir(3) :
        Dipole                0.0056 Ry au,          0.0142 Debye
        Dipole field          0.0000 Ry au,

        Potential amp.       -0.0014 Ry
        Total length         45.2549 bohr

     End of self-consistent calculation

          k = 0.0000 0.0000 0.0000 ( 31087 PWs)   bands (ev):

   -60.2389 -60.1299 -60.0575 -60.0412 -59.9509 -59.9348 -34.6763 -34.5523
   -34.4353 -34.3875 -34.3738 -34.3016 -34.2004 -34.1471 -34.1280 -34.1167
   -34.0443 -34.0243 -34.0151 -33.7838 -33.7680 -33.6960 -33.4888 -33.4822
    -5.2837  -4.1097  -4.0959  -4.0566  -4.0138  -3.8882  -3.8868  -3.7200
    -3.6458  -3.5748  -3.5415  -3.4904  -3.3118  -3.2178  -3.0861  -2.4320
    -2.3363  -2.2298  -2.1006  -1.9922  -1.7993  -1.5624  -1.4592  -1.4337
    -1.3352  -1.3235  -1.1552  -0.9608  -0.9249  -0.9046  -0.7712  -0.7492
    -0.3310  -0.2455  -0.1252   0.0185   0.1659   0.3128   0.3243   0.4939
     0.7992   0.9296   0.9687   1.1991   1.4778   1.4992   1.6186   1.7047
     1.7304   2.1705   2.1841   2.3781   2.5582   2.6438   2.8820   3.0289
     3.2066   3.2077   3.3438   3.3791   3.6302   3.6628

[...]

          k = 0.0763 0.0251 0.0000 ( 31085 PWs)   bands (ev):

[...]

          k =-0.0916-0.0503 0.0000 ( 31118 PWs)   bands (ev):

[...]

          k =-0.0916-0.1509 0.0000 ( 31118 PWs)   bands (ev):

   -60.1846 -60.1846 -60.0047 -60.0043 -59.9883 -59.9882 -34.4962 -34.4961
   -34.2537 -34.2536 -34.2348 -34.2348 -34.0948 -34.0945 -34.0789 -34.0787
   -34.0678 -34.0675 -33.9498 -33.9497 -33.9406 -33.9402 -33.7404 -33.7402
    -3.8114  -3.8114  -3.3170  -3.3170  -3.2305  -3.2305  -2.9827  -2.9827
    -2.9363  -2.9363  -2.8144  -2.8144  -2.5288  -2.5288  -2.4633  -2.4632
    -2.2071  -2.2071  -1.9431  -1.9430  -1.8867  -1.8867  -1.6044  -1.6044
    -1.4933  -1.4932  -1.3759  -1.3758  -1.3470  -1.3470  -1.1471  -1.1471
    -0.9212  -0.9212  -0.5405  -0.5404  -0.2772  -0.2772   0.2159   0.2159
     0.2815   0.2816   0.6580   0.6580   1.0358   1.0359   1.1764   1.1765
     1.2797   1.2798   1.4159   1.4160   1.5138   1.5139   1.5794   1.5795
     1.9856   1.9857   2.6441   2.6442   2.9410   2.9411

     the Fermi energy is     1.2613 ev

!    total energy              =   -1251.77595706 Ry
     estimated scf accuracy    <       0.00000484 Ry
     smearing contrib. (-TS)   =      -0.06646017 Ry
     internal energy E=F+TS    =   -1251.70949690 Ry

     The total energy is F=E-TS. E is the sum of the following terms:
     one-electron contribution =  -11339.78259244 Ry
     hartree contribution      =    5705.50030873 Ry
     xc contribution           =    -255.12803120 Ry
     ewald contribution        =    4637.70081792 Ry
     electric field correction =       0.00000009 Ry

     convergence has been achieved in  15 iterations

     negative rho (up, down):  9.742E-04 0.000E+00

     Forces acting on atoms (cartesian axes, Ry/au):

     atom    1 type  1   force =     0.00000082    0.01144922    0.02395873
     atom    2 type  1   force =    -0.00000077    0.01143791    0.02394111
     atom    3 type  2   force =     0.00000020   -0.02096761   -0.00813880
     atom    4 type  2   force =    -0.00000264   -0.02096732   -0.00813775
     atom    5 type  1   force =    -0.00000431   -0.00044250   -0.01116948
     atom    6 type  1   force =    -0.00000451   -0.00046974   -0.01120473
     atom    7 type  2   force =     0.00001522    0.00963531   -0.00828114
     atom    8 type  2   force =    -0.00001226    0.00963524   -0.00828072
     atom    9 type  1   force =    -0.00000681    0.00069951    0.00191488
     atom   10 type  1   force =    -0.00000069    0.00070159    0.00192092
     atom   11 type  2   force =     0.00001623   -0.00035635    0.00173771
     atom   12 type  2   force =    -0.00000048   -0.00035525    0.00173926

     Total force =     0.054855     Total SCF correction =     0.013194
     SCF correction compared to forces is large: reduce conv_thr to get better values

     Writing output data file ./Mo2Pd2/Mo2Pd2_beef.save/

     General routines

     Parallel routines

   This run was terminated on:  20: 0:34  23Jun2022

   JOB DONE.