     Program PWSCF v.6.6 starts on 10Jul2022 at 23: 1:30

     R & G space division:  proc/nbgrp/npool/nimage =      37
     Fft bands division:     nmany     =       1
     Reading input from Mo2Rh2.in
Warning: card &CELL ignored
Warning: card / ignored

     Current dimensions of program PWSCF are:
     Max number of different atomic species (ntypx) = 10
     Max number of k-points (npk) =  40000
     Max angular momentum in pseudopotentials (lmaxx) =  3
     Presently stress not available with electric field and gates

     Message from routine cell_base_init:
     DEPRECATED: use true lattice parameter, not A to a.u. conversion factor
     file Mo.pbe-spn-rrkjus_psl.1.0.0.UPF: wavefunction(s)  4S renormalized
     file Rh.pbe-spn-rrkjus_psl.1.0.0.UPF: wavefunction(s)  4S 5S renormalized

     IMPORTANT: XC functional enforced from input :
     Exchange-correlation= BEEF-VDW
                           (   1   4  43  14   2   0   0)
     Any further DFT definition will be discarded
     Please, verify this is what you really want

     Subspace diagonalization in iterative solution of the eigenvalue problem:
     a serial algorithm will be used

     Found symmetry operation: I + (  0.5000  0.0000  0.0000)
     This is a supercell, fractional translations are disabled

     bravais-lattice index     =            0
     lattice parameter (alat)  =       1.8897  a.u.
     unit-cell volume          =    4366.0166 (a.u.)^3
     number of atoms/cell      =           12
     number of atomic types    =            2
     number of electrons       =       186.00
     number of Kohn-Sham states=          112
     kinetic-energy cutoff     =      55.1240  Ry
     charge density cutoff     =     551.2396  Ry
     convergence threshold     =      1.0E-05
     mixing beta               =       0.1000
     number of iterations used =           10  plain     mixing
     Exchange-correlation= BEEF-VDW
                           (   1   4  43  14   2   0   0)

     celldm(1)=   1.889726  celldm(2)=   0.000000  celldm(3)=   0.000000
     celldm(4)=   0.000000  celldm(5)=   0.000000  celldm(6)=   0.000000

     crystal axes: (cart. coord. in units of alat)
               a(1) = (   5.502545   0.000000   0.000000 )
               a(2) = (  -2.751272   4.797562   0.000000 )
               a(3) = (   0.000000   0.000000  24.507819 )

     reciprocal axes: (cart. coord. in units 2 pi/alat)
               b(1) = (  0.181734  0.104220 -0.000000 )
               b(2) = (  0.000000  0.208439  0.000000 )
               b(3) = (  0.000000 -0.000000  0.040803 )

     PseudoPot. # 1 for Mo read from file:
     ../pseudo/Mo.pbe-spn-rrkjus_psl.1.0.0.UPF
     MD5 check sum: 03f09b12e49601d1a456a78ce8b2d514
     Pseudo is Ultrasoft + core correction, Zval = 14.0
     Generated using "atomic" code by A. Dal Corso v.6.3
     Using radial grid of 1229 points,  6 beta functions with:
                l(1) =   0
                l(2) =   0
                l(3) =   1
                l(4) =   1
                l(5) =   2
                l(6) =   2
     Q(r) pseudized with 0 coefficients

     PseudoPot. # 2 for Rh read from file:
     ../pseudo/Rh.pbe-spn-rrkjus_psl.1.0.0.UPF
     MD5 check sum: 912a852783f0c9b7bd5e9eb06cc0cc10
     Pseudo is Ultrasoft + core correction, Zval = 17.0
     Generated using "atomic" code by A. Dal Corso v.6.3
     Using radial grid of 1233 points,  6 beta functions with:
                l(1) =   0
                l(2) =   0
                l(3) =   1
                l(4) =   1
                l(5) =   2
                l(6) =   2
     Q(r) pseudized with 0 coefficients

     atomic species   valence    mass     pseudopotential
        Mo            14.00    95.95000     Mo( 1.00)
        Rh            17.00   102.90550     Rh( 1.00)

     No symmetry found

   Cartesian axes

     site n.     atom                  positions (alat units)
         1           Mo  tau(   1) = (   0.0000000   0.0000000  10.0000000  )
         2           Mo  tau(   2) = (   2.7512724   0.0000000  10.0000000  )
         3           Rh  tau(   3) = (   1.3756362   2.3987809  10.0000000  )
         4           Rh  tau(   4) = (  -1.3756362   2.3987809  10.0000000  )
         5           Mo  tau(   5) = (   2.7512724   1.5777805  12.2539095  )
         6           Mo  tau(   6) = (   0.0000000   1.5777805  12.2539095  )
         7           Rh  tau(   7) = (  -1.3756362   3.9765614  12.2539095  )
         8           Rh  tau(   8) = (   1.3756362   3.9765614  12.2539095  )
         9           Mo  tau(   9) = (   0.0000003   3.1824488  14.3957980  )
        10           Mo  tau(  10) = (   2.7512729   3.1824457  14.3957963  )
        11           Rh  tau(  11) = (   4.1269066   0.8336035  14.4458349  )
        12           Rh  tau(  12) = (   1.3756392   0.8336036  14.4458357  )

     number of k points=    74  Fermi-Dirac smearing, width (Ry)=  0.0100
                       cart. coord. in units 2pi/alat
        k(    1) = (   0.0000000   0.0000000   0.0000000), wk =   0.0138889
        k(    2) = (   0.0000000   0.0173699   0.0000000), wk =   0.0277778
        k(    3) = (   0.0000000   0.0347399   0.0000000), wk =   0.0277778
        k(    4) = (   0.0000000   0.0521098   0.0000000), wk =   0.0277778
        k(    5) = (   0.0000000   0.0694797   0.0000000), wk =   0.0277778
        k(    6) = (   0.0000000   0.0868497   0.0000000), wk =   0.0277778
        k(    7) = (   0.0000000  -0.1042196   0.0000000), wk =   0.0138889
        k(    8) = (   0.0151445   0.0086850   0.0000000), wk =   0.0277778
        k(    9) = (   0.0151445   0.0260549   0.0000000), wk =   0.0277778
        k(   10) = (   0.0151445   0.0434248   0.0000000), wk =   0.0277778
        k(   11) = (   0.0151445   0.0607948   0.0000000), wk =   0.0277778
        k(   12) = (   0.0151445   0.0781647   0.0000000), wk =   0.0277778
        k(   13) = (   0.0151445   0.0955346   0.0000000), wk =   0.0277778
        k(   14) = (   0.0151445  -0.0955346   0.0000000), wk =   0.0277778
        k(   15) = (   0.0151445  -0.0781647   0.0000000), wk =   0.0277778
        k(   16) = (   0.0151445  -0.0607948   0.0000000), wk =   0.0277778
        k(   17) = (   0.0151445  -0.0434248   0.0000000), wk =   0.0277778
        k(   18) = (   0.0151445  -0.0260549   0.0000000), wk =   0.0277778
        k(   19) = (   0.0151445  -0.0086850   0.0000000), wk =   0.0277778
        k(   20) = (   0.0302890   0.0173699   0.0000000), wk =   0.0277778
        k(   21) = (   0.0302890   0.0347399   0.0000000), wk =   0.0277778
        k(   22) = (   0.0302890   0.0521098   0.0000000), wk =   0.0277778
        k(   23) = (   0.0302890   0.0694797   0.0000000), wk =   0.0277778
        k(   24) = (   0.0302890   0.0868497   0.0000000), wk =   0.0277778
        k(   25) = (   0.0302890   0.1042196   0.0000000), wk =   0.0277778
        k(   26) = (   0.0302890  -0.0868497   0.0000000), wk =   0.0277778
        k(   27) = (   0.0302890  -0.0694797   0.0000000), wk =   0.0277778
        k(   28) = (   0.0302890  -0.0521098   0.0000000), wk =   0.0277778
        k(   29) = (   0.0302890  -0.0347399   0.0000000), wk =   0.0277778
        k(   30) = (   0.0302890  -0.0173699   0.0000000), wk =   0.0277778
        k(   31) = (   0.0302890  -0.0000000   0.0000000), wk =   0.0277778
        k(   32) = (   0.0454335   0.0260549   0.0000000), wk =   0.0277778
        k(   33) = (   0.0454335   0.0434248   0.0000000), wk =   0.0277778
        k(   34) = (   0.0454335   0.0607948   0.0000000), wk =   0.0277778
        k(   35) = (   0.0454335   0.0781647   0.0000000), wk =   0.0277778
        k(   36) = (   0.0454335   0.0955346   0.0000000), wk =   0.0277778
        k(   37) = (   0.0454335   0.1129046   0.0000000), wk =   0.0277778
        k(   38) = (   0.0454335  -0.0781647   0.0000000), wk =   0.0277778
        k(   39) = (   0.0454335  -0.0607948   0.0000000), wk =   0.0277778
        k(   40) = (   0.0454335  -0.0434248   0.0000000), wk =   0.0277778
        k(   41) = (   0.0454335  -0.0260549   0.0000000), wk =   0.0277778
        k(   42) = (   0.0454335  -0.0086850   0.0000000), wk =   0.0277778
        k(   43) = (   0.0454335   0.0086850   0.0000000), wk =   0.0277778
        k(   44) = (   0.0605780   0.0347399   0.0000000), wk =   0.0277778
        k(   45) = (   0.0605780   0.0521098   0.0000000), wk =   0.0277778
        k(   46) = (   0.0605780   0.0694797   0.0000000), wk =   0.0277778
        k(   47) = (   0.0605780   0.0868497   0.0000000), wk =   0.0277778
        k(   48) = (   0.0605780   0.1042196   0.0000000), wk =   0.0277778
        k(   49) = (   0.0605780   0.1215895   0.0000000), wk =   0.0277778
        k(   50) = (   0.0605780  -0.0694797   0.0000000), wk =   0.0277778
        k(   51) = (   0.0605780  -0.0521098   0.0000000), wk =   0.0277778
        k(   52) = (   0.0605780  -0.0347399   0.0000000), wk =   0.0277778
        k(   53) = (   0.0605780  -0.0173699   0.0000000), wk =   0.0277778
        k(   54) = (   0.0605780  -0.0000000   0.0000000), wk =   0.0277778
        k(   55) = (   0.0605780   0.0173699   0.0000000), wk =   0.0277778
        k(   56) = (   0.0757225   0.0434248   0.0000000), wk =   0.0277778
        k(   57) = (   0.0757225   0.0607948   0.0000000), wk =   0.0277778
        k(   58) = (   0.0757225   0.0781647   0.0000000), wk =   0.0277778
        k(   59) = (   0.0757225   0.0955346   0.0000000), wk =   0.0277778
        k(   60) = (   0.0757225   0.1129046   0.0000000), wk =   0.0277778
        k(   61) = (   0.0757225   0.1302745   0.0000000), wk =   0.0277778
        k(   62) = (   0.0757225  -0.0607948   0.0000000), wk =   0.0277778
        k(   63) = (   0.0757225  -0.0434248   0.0000000), wk =   0.0277778
        k(   64) = (   0.0757225  -0.0260549   0.0000000), wk =   0.0277778
        k(   65) = (   0.0757225  -0.0086850   0.0000000), wk =   0.0277778
        k(   66) = (   0.0757225   0.0086850   0.0000000), wk =   0.0277778
        k(   67) = (   0.0757225   0.0260549   0.0000000), wk =   0.0277778
        k(   68) = (  -0.0908670  -0.0521098   0.0000000), wk =   0.0138889
        k(   69) = (  -0.0908670  -0.0347399   0.0000000), wk =   0.0277778
        k(   70) = (  -0.0908670  -0.0173699   0.0000000), wk =   0.0277778
        k(   71) = (  -0.0908670   0.0000000   0.0000000), wk =   0.0277778
        k(   72) = (  -0.0908670   0.0173699   0.0000000), wk =   0.0277778
        k(   73) = (  -0.0908670   0.0347399   0.0000000), wk =   0.0277778
        k(   74) = (  -0.0908670  -0.1563294   0.0000000), wk =   0.0138889

     Initial potential from superposition of free atoms

     starting charge  185.99178, renormalised to  186.00000

     negative rho (up, down):  1.166E-03 0.000E+00

     %%%%%%%%%%%%%%%%%%%%%%%%%%%%%%%%%%%%%%%%%%%%%%%%%%%%%%%%%%%%%%%%%%%%%%%%
     %                                                                      %
     % You are using vdW-DF, which was implemented by the Thonhauser group. %
     % Please cite the following two papers that made this development      %
     % possible and the two reviews that describe the various versions:     %
     %                                                                      %
     %   T. Thonhauser et al., PRL 115, 136402 (2015).                      %
     %   T. Thonhauser et al., PRB 76, 125112 (2007).                       %
     %   K. Berland et al., Rep. Prog. Phys. 78, 066501 (2015).             %
     %   D.C. Langreth et al., J. Phys.: Condens. Matter 21, 084203 (2009). %
     %                                                                      %
     %                                                                      %
     % If you are calculating the stress with vdW-DF, please also cite:     %
     %                                                                      %
     %   R. Sabatini et al., J. Phys.: Condens. Matter 24, 424209 (2012).   %
     %                                                                      %
     %%%%%%%%%%%%%%%%%%%%%%%%%%%%%%%%%%%%%%%%%%%%%%%%%%%%%%%%%%%%%%%%%%%%%%%%

     Adding external electric field

     Computed dipole along edir(3) :
        Dipole               -0.0000 Ry au,         -0.0001 Debye
        Dipole field         -0.0000 Ry au,

        Potential amp.        0.0000 Ry
        Total length         45.1552 bohr

     Starting wfcs are  120 randomized atomic wfcs

     Self-consistent Calculation

     iteration #  1     ecut=    55.12 Ry     beta= 0.10
     Davidson diagonalization with overlap
     ethr =  1.00E-02,  avg # of iterations =  2.4

[...]

     total energy              =   -2205.12149269 Ry
     estimated scf accuracy    <       7.04319127 Ry

[...]

     total energy              =   -2205.67915944 Ry
     estimated scf accuracy    <       0.00001639 Ry

     iteration # 15     ecut=    55.12 Ry     beta= 0.10
     Davidson diagonalization with overlap
     ethr =  8.81E-09,  avg # of iterations =  3.1

[...]

     Adding external electric field

     Computed dipole along edir(3) :
        Dipole                0.0083 Ry au,          0.0210 Debye
        Dipole field          0.0000 Ry au,

        Potential amp.       -0.0022 Ry
        Total length         45.1552 bohr

     End of self-consistent calculation

          k = 0.0000 0.0000 0.0000 ( 30277 PWs)   bands (ev):

   -76.8128 -76.7852 -76.2700 -76.2425 -76.2168 -76.1894 -59.2246 -59.1243
   -59.0979 -59.0524 -59.0006 -58.9547 -44.7923 -44.7311 -44.6981 -44.6543
   -44.6205 -44.4875 -44.2604 -44.2035 -44.1951 -44.1692 -44.1580 -44.1235
   -44.0671 -44.0375 -44.0050 -43.9752 -43.9570 -43.8932 -33.6426 -33.5149
   -33.4139 -33.3877 -33.3670 -33.2738 -33.1977 -33.1899 -33.1342 -33.1121
   -33.1039 -33.0444 -33.0247 -32.8232 -32.8000 -32.7430 -32.5577 -32.5373
    -4.3343  -3.1690  -3.1534  -3.0898  -3.0290  -2.8494  -2.7693  -2.6918
    -2.6899  -2.5432  -2.4664  -2.4197  -2.0997  -2.0590  -2.0486  -1.0385
    -1.0099  -0.8806  -0.5952  -0.4713  -0.4034  -0.1375  -0.1342   0.0345
     0.0426   0.0617   0.3544   0.4123   0.5701   0.6419   0.6516   0.8175
     1.0316   1.3969   1.4745   1.6821   1.7167   1.7292   1.8015   1.9732
     2.3662   2.3900   2.6893   2.7469   2.8794   2.9982   3.0254   3.3506
     3.4297   3.6940   3.7361   3.9014   4.0706   4.1238   4.1735   4.2625
     4.5436   4.5985   4.6497   4.7166   4.7193   4.8832   5.0512   5.1320

[...]

          k = 0.0757 0.0261 0.0000 ( 30169 PWs)   bands (ev):

[...]

          k =-0.0909-0.0521 0.0000 ( 30156 PWs)   bands (ev):

[...]

          k =-0.0909-0.1563 0.0000 ( 30156 PWs)   bands (ev):

   -76.7990 -76.7990 -76.2563 -76.2563 -76.2031 -76.2031 -59.1750 -59.1749
   -59.0499 -59.0492 -59.0040 -59.0039 -44.7134 -44.7134 -44.6406 -44.6406
   -44.6353 -44.6353 -44.1842 -44.1842 -44.1383 -44.1383 -44.1092 -44.1092
   -44.0528 -44.0528 -44.0445 -44.0445 -43.9899 -43.9899 -33.4718 -33.4716
   -33.2418 -33.2417 -33.2322 -33.2321 -33.1475 -33.1469 -33.0961 -33.0957
   -33.0757 -33.0754 -32.9845 -32.9838 -32.9654 -32.9653 -32.7841 -32.7838
    -2.8156  -2.8156  -2.2435  -2.2435  -2.1647  -2.1647  -1.8588  -1.8588
    -1.7620  -1.7620  -1.6396  -1.6396  -1.2878  -1.2877  -1.2407  -1.2406
    -0.9161  -0.9160  -0.5924  -0.5924  -0.5018  -0.5017  -0.1186  -0.1186
     0.0270   0.0270   0.1378   0.1378   0.2298   0.2298   0.3686   0.3686
     0.5962   0.5962   0.9122   0.9123   1.0656   1.0656   1.3189   1.3190
     1.5001   1.5001   1.9107   1.9108   2.2617   2.2618   2.5339   2.5340
     2.5879   2.5880   2.7128   2.7128   2.8714   2.8715   3.0913   3.0914
     3.5231   3.5232   3.7088   3.7089   4.3765   4.3766   4.7005   4.7006

     the Fermi energy is     2.2453 ev

!    total energy              =   -2205.67916020 Ry
     estimated scf accuracy    <       0.00000358 Ry
     smearing contrib. (-TS)   =      -0.06467878 Ry
     internal energy E=F+TS    =   -2205.61448142 Ry

     The total energy is F=E-TS. E is the sum of the following terms:
     one-electron contribution =  -19894.41400525 Ry
     hartree contribution      =    9945.13947105 Ry
     xc contribution           =    -305.09700002 Ry
     ewald contribution        =    8048.75705260 Ry
     electric field correction =       0.00000020 Ry

     convergence has been achieved in  15 iterations

     negative rho (up, down):  1.237E-03 0.000E+00

     Forces acting on atoms (cartesian axes, Ry/au):

     atom    1 type  1   force =    -0.00000048    0.00764809    0.02072426
     atom    2 type  1   force =     0.00000027    0.00765418    0.02073164
     atom    3 type  2   force =    -0.00000782   -0.01523758    0.00991082
     atom    4 type  2   force =     0.00000709   -0.01523835    0.00991032
     atom    5 type  1   force =    -0.00000010    0.00517762   -0.01577948
     atom    6 type  1   force =     0.00000036    0.00513587   -0.01582701
     atom    7 type  2   force =    -0.00004440    0.00117681   -0.01461758
     atom    8 type  2   force =     0.00004408    0.00117622   -0.01461796
     atom    9 type  1   force =    -0.00000021    0.00068433   -0.00032995
     atom   10 type  1   force =     0.00000061    0.00068712   -0.00033620
     atom   11 type  2   force =     0.00001234    0.00056844    0.00011563
     atom   12 type  2   force =    -0.00001176    0.00056725    0.00011551

     Total force =     0.051204     Total SCF correction =     0.011642
     SCF correction compared to forces is large: reduce conv_thr to get better values

     Writing output data file ./Mo2Rh2/Mo2Rh2_beef.save/

     General routines

     Parallel routines

   This run was terminated on:   0: 7: 0  11Jul2022

   JOB DONE.