     Program PWSCF v.6.6 starts on 23Jun2022 at 23:51:46

     R & G space division:  proc/nbgrp/npool/nimage =      37
     Fft bands division:     nmany     =       1
     Reading input from Mo2Re2.in
Warning: card &CELL ignored
Warning: card / ignored

     Current dimensions of program PWSCF are:
     Max number of different atomic species (ntypx) = 10
     Max number of k-points (npk) =  40000
     Max angular momentum in pseudopotentials (lmaxx) =  3
     Presently stress not available with electric field and gates

     Message from routine cell_base_init:
     DEPRECATED: use true lattice parameter, not A to a.u. conversion factor
     file Mo.pbe-spn-rrkjus_psl.1.0.0.UPF: wavefunction(s)  4S renormalized

     IMPORTANT: XC functional enforced from input :
     Exchange-correlation= BEEF-VDW
                           (   1   4  43  14   2   0   0)
     Any further DFT definition will be discarded
     Please, verify this is what you really want

     Subspace diagonalization in iterative solution of the eigenvalue problem:
     a serial algorithm will be used

     Found symmetry operation: I + (  0.5000 -0.5000  0.0000)
     This is a supercell, fractional translations are disabled

     bravais-lattice index     =            0
     lattice parameter (alat)  =       1.8897  a.u.
     unit-cell volume          =    4494.4606 (a.u.)^3
     number of atoms/cell      =           12
     number of atomic types    =            2
     number of electrons       =       174.00
     number of Kohn-Sham states=          104
     kinetic-energy cutoff     =      55.1240  Ry
     charge density cutoff     =     551.2396  Ry
     convergence threshold     =      1.0E-05
     mixing beta               =       0.1000
     number of iterations used =           10  plain     mixing
     Exchange-correlation= BEEF-VDW
                           (   1   4  43  14   2   0   0)

     celldm(1)=   1.889726  celldm(2)=   0.000000  celldm(3)=   0.000000
     celldm(4)=   0.000000  celldm(5)=   0.000000  celldm(6)=   0.000000

     crystal axes: (cart. coord. in units of alat)
               a(1) = (   5.593925   0.000000   0.000000 )
               a(2) = (   2.794173   4.846090   0.000000 )
               a(3) = (   0.000000   0.000000  24.568178 )

     reciprocal axes: (cart. coord. in units 2 pi/alat)
               b(1) = (  0.178765 -0.103073  0.000000 )
               b(2) = (  0.000000  0.206352  0.000000 )
               b(3) = (  0.000000  0.000000  0.040703 )

     PseudoPot. # 1 for Mo read from file:
     ../pseudo/Mo.pbe-spn-rrkjus_psl.1.0.0.UPF
     MD5 check sum: 03f09b12e49601d1a456a78ce8b2d514
     Pseudo is Ultrasoft + core correction, Zval = 14.0
     Generated using "atomic" code by A. Dal Corso v.6.3
     Using radial grid of 1229 points,  6 beta functions with:
                l(1) =   0
                l(2) =   0
                l(3) =   1
                l(4) =   1
                l(5) =   2
                l(6) =   2
     Q(r) pseudized with 0 coefficients

     PseudoPot. # 2 for Re read from file:
     ../pseudo/Re.pbe-spn-rrkjus_psl.1.0.0.UPF
     MD5 check sum: 1282f1ec51ad523723a04c61ae80a9e6
     Pseudo is Ultrasoft + core correction, Zval = 15.0
     Generated using "atomic" code by A. Dal Corso v.6.2.2
     Using radial grid of 1275 points,  6 beta functions with:
                l(1) =   0
                l(2) =   0
                l(3) =   1
                l(4) =   1
                l(5) =   2
                l(6) =   2
     Q(r) pseudized with 0 coefficients

     atomic species   valence    mass     pseudopotential
        Mo            14.00    95.95000     Mo( 1.00)
        Re            15.00   186.20700     Re( 1.00)

     No symmetry found

   Cartesian axes

     site n.     atom                  positions (alat units)
         1           Mo  tau(   1) = (   0.0000000   0.0000000  10.0000000  )
         2           Mo  tau(   2) = (   4.1940489   2.4230452  10.0000000  )
         3           Re  tau(   3) = (   2.7969624   0.0000000  10.0000000  )
         4           Re  tau(   4) = (   1.3970865   2.4230452  10.0000000  )
         5           Mo  tau(   5) = (   5.5939248   3.2318014  12.2840888  )
         6           Mo  tau(   6) = (   1.3998760   0.8087561  12.2840888  )
         7           Re  tau(   7) = (   2.7969624   3.2318014  12.2840888  )
         8           Re  tau(   8) = (   4.1968384   0.8087561  12.2840888  )
         9           Mo  tau(   9) = (   2.8077596   1.6221388  14.4968066  )
        10           Mo  tau(  10) = (   7.0018183   4.0451886  14.4968061  )
        11           Re  tau(  11) = (   5.5815026   1.6087293  14.4632952  )
        12           Re  tau(  12) = (   4.1816304   4.0317652  14.4632895  )

     number of k points=    74  Fermi-Dirac smearing, width (Ry)=  0.0100
                       cart. coord. in units 2pi/alat
        k(    1) = (   0.0000000   0.0000000   0.0000000), wk =   0.0138889
        k(    2) = (   0.0000000   0.0171960   0.0000000), wk =   0.0277778
        k(    3) = (   0.0000000   0.0343920   0.0000000), wk =   0.0277778
        k(    4) = (   0.0000000   0.0515880   0.0000000), wk =   0.0277778
        k(    5) = (   0.0000000   0.0687840   0.0000000), wk =   0.0277778
        k(    6) = (   0.0000000   0.0859800   0.0000000), wk =   0.0277778
        k(    7) = (   0.0000000  -0.1031760   0.0000000), wk =   0.0138889
        k(    8) = (   0.0148971  -0.0085894   0.0000000), wk =   0.0277778
        k(    9) = (   0.0148971   0.0086066   0.0000000), wk =   0.0277778
        k(   10) = (   0.0148971   0.0258026   0.0000000), wk =   0.0277778
        k(   11) = (   0.0148971   0.0429986   0.0000000), wk =   0.0277778
        k(   12) = (   0.0148971   0.0601946   0.0000000), wk =   0.0277778
        k(   13) = (   0.0148971   0.0773905   0.0000000), wk =   0.0277778
        k(   14) = (   0.0148971  -0.1117654   0.0000000), wk =   0.0277778
        k(   15) = (   0.0148971  -0.0945694   0.0000000), wk =   0.0277778
        k(   16) = (   0.0148971  -0.0773734   0.0000000), wk =   0.0277778
        k(   17) = (   0.0148971  -0.0601774   0.0000000), wk =   0.0277778
        k(   18) = (   0.0148971  -0.0429814   0.0000000), wk =   0.0277778
        k(   19) = (   0.0148971  -0.0257854   0.0000000), wk =   0.0277778
        k(   20) = (   0.0297942  -0.0171788   0.0000000), wk =   0.0277778
        k(   21) = (   0.0297942   0.0000172   0.0000000), wk =   0.0277778
        k(   22) = (   0.0297942   0.0172131   0.0000000), wk =   0.0277778
        k(   23) = (   0.0297942   0.0344091   0.0000000), wk =   0.0277778
        k(   24) = (   0.0297942   0.0516051   0.0000000), wk =   0.0277778
        k(   25) = (   0.0297942   0.0688011   0.0000000), wk =   0.0277778
        k(   26) = (   0.0297942  -0.1203548   0.0000000), wk =   0.0277778
        k(   27) = (   0.0297942  -0.1031588   0.0000000), wk =   0.0277778
        k(   28) = (   0.0297942  -0.0859628   0.0000000), wk =   0.0277778
        k(   29) = (   0.0297942  -0.0687668   0.0000000), wk =   0.0277778
        k(   30) = (   0.0297942  -0.0515708   0.0000000), wk =   0.0277778
        k(   31) = (   0.0297942  -0.0343748   0.0000000), wk =   0.0277778
        k(   32) = (   0.0446913  -0.0257683   0.0000000), wk =   0.0277778
        k(   33) = (   0.0446913  -0.0085723   0.0000000), wk =   0.0277778
        k(   34) = (   0.0446913   0.0086237   0.0000000), wk =   0.0277778
        k(   35) = (   0.0446913   0.0258197   0.0000000), wk =   0.0277778
        k(   36) = (   0.0446913   0.0430157   0.0000000), wk =   0.0277778
        k(   37) = (   0.0446913   0.0602117   0.0000000), wk =   0.0277778
        k(   38) = (   0.0446913  -0.1289442   0.0000000), wk =   0.0277778
        k(   39) = (   0.0446913  -0.1117482   0.0000000), wk =   0.0277778
        k(   40) = (   0.0446913  -0.0945522   0.0000000), wk =   0.0277778
        k(   41) = (   0.0446913  -0.0773562   0.0000000), wk =   0.0277778
        k(   42) = (   0.0446913  -0.0601603   0.0000000), wk =   0.0277778
        k(   43) = (   0.0446913  -0.0429643   0.0000000), wk =   0.0277778
        k(   44) = (   0.0595885  -0.0343577   0.0000000), wk =   0.0277778
        k(   45) = (   0.0595885  -0.0171617   0.0000000), wk =   0.0277778
        k(   46) = (   0.0595885   0.0000343   0.0000000), wk =   0.0277778
        k(   47) = (   0.0595885   0.0172303   0.0000000), wk =   0.0277778
        k(   48) = (   0.0595885   0.0344263   0.0000000), wk =   0.0277778
        k(   49) = (   0.0595885   0.0516223   0.0000000), wk =   0.0277778
        k(   50) = (   0.0595885  -0.1375336   0.0000000), wk =   0.0277778
        k(   51) = (   0.0595885  -0.1203377   0.0000000), wk =   0.0277778
        k(   52) = (   0.0595885  -0.1031417   0.0000000), wk =   0.0277778
        k(   53) = (   0.0595885  -0.0859457   0.0000000), wk =   0.0277778
        k(   54) = (   0.0595885  -0.0687497   0.0000000), wk =   0.0277778
        k(   55) = (   0.0595885  -0.0515537   0.0000000), wk =   0.0277778
        k(   56) = (   0.0744856  -0.0429471   0.0000000), wk =   0.0277778
        k(   57) = (   0.0744856  -0.0257511   0.0000000), wk =   0.0277778
        k(   58) = (   0.0744856  -0.0085551   0.0000000), wk =   0.0277778
        k(   59) = (   0.0744856   0.0086409   0.0000000), wk =   0.0277778
        k(   60) = (   0.0744856   0.0258369   0.0000000), wk =   0.0277778
        k(   61) = (   0.0744856   0.0430329   0.0000000), wk =   0.0277778
        k(   62) = (   0.0744856  -0.1461231   0.0000000), wk =   0.0277778
        k(   63) = (   0.0744856  -0.1289271   0.0000000), wk =   0.0277778
        k(   64) = (   0.0744856  -0.1117311   0.0000000), wk =   0.0277778
        k(   65) = (   0.0744856  -0.0945351   0.0000000), wk =   0.0277778
        k(   66) = (   0.0744856  -0.0773391   0.0000000), wk =   0.0277778
        k(   67) = (   0.0744856  -0.0601431   0.0000000), wk =   0.0277778
        k(   68) = (  -0.0893827   0.0515365   0.0000000), wk =   0.0138889
        k(   69) = (  -0.0893827   0.0687325   0.0000000), wk =   0.0277778
        k(   70) = (  -0.0893827   0.0859285   0.0000000), wk =   0.0277778
        k(   71) = (  -0.0893827   0.1031245   0.0000000), wk =   0.0277778
        k(   72) = (  -0.0893827   0.1203205   0.0000000), wk =   0.0277778
        k(   73) = (  -0.0893827   0.1375165   0.0000000), wk =   0.0277778
        k(   74) = (  -0.0893827  -0.0516394   0.0000000), wk =   0.0138889

     Initial potential from superposition of free atoms

     starting charge  173.99292, renormalised to  174.00000

     negative rho (up, down):  5.128E-04 0.000E+00

     %%%%%%%%%%%%%%%%%%%%%%%%%%%%%%%%%%%%%%%%%%%%%%%%%%%%%%%%%%%%%%%%%%%%%%%%
     %                                                                      %
     % You are using vdW-DF, which was implemented by the Thonhauser group. %
     % Please cite the following two papers that made this development      %
     % possible and the two reviews that describe the various versions:     %
     %                                                                      %
     %   T. Thonhauser et al., PRL 115, 136402 (2015).                      %
     %   T. Thonhauser et al., PRB 76, 125112 (2007).                       %
     %   K. Berland et al., Rep. Prog. Phys. 78, 066501 (2015).             %
     %   D.C. Langreth et al., J. Phys.: Condens. Matter 21, 084203 (2009). %
     %                                                                      %
     %                                                                      %
     % If you are calculating the stress with vdW-DF, please also cite:     %
     %                                                                      %
     %   R. Sabatini et al., J. Phys.: Condens. Matter 24, 424209 (2012).   %
     %                                                                      %
     %%%%%%%%%%%%%%%%%%%%%%%%%%%%%%%%%%%%%%%%%%%%%%%%%%%%%%%%%%%%%%%%%%%%%%%%

     Adding external electric field

     Computed dipole along edir(3) :
        Dipole                0.0000 Ry au,          0.0001 Debye
        Dipole field          0.0000 Ry au,

        Potential amp.       -0.0000 Ry
        Total length         45.2664 bohr

     Starting wfcs are  120 randomized atomic wfcs

     Self-consistent Calculation

     iteration #  1     ecut=    55.12 Ry     beta= 0.10
     Davidson diagonalization with overlap
     ethr =  1.00E-02,  avg # of iterations =  2.9

[...]

     total energy              =   -1916.04434438 Ry
     estimated scf accuracy    <       5.10084994 Ry

[...]

     iteration #  9     ecut=    55.12 Ry     beta= 0.10
     Davidson diagonalization with overlap
     c_bands:  1 eigenvalues not converged
     c_bands:  1 eigenvalues not converged
     c_bands:  2 eigenvalues not converged
     ethr =  5.65E-06,  avg # of iterations =  7.8

[...]

     total energy              =   -1916.47443378 Ry
     estimated scf accuracy    <       0.00001273 Ry

     iteration # 17     ecut=    55.12 Ry     beta= 0.10
     Davidson diagonalization with overlap
     ethr =  7.32E-09,  avg # of iterations =  2.1

[...]

     Adding external electric field

     Computed dipole along edir(3) :
        Dipole                0.0286 Ry au,          0.0728 Debye
        Dipole field          0.0001 Ry au,

        Potential amp.       -0.0072 Ry
        Total length         45.2664 bohr

     End of self-consistent calculation

          k = 0.0000 0.0000 0.0000 ( 31037 PWs)   bands (ev):

   -77.7364 -77.7062 -77.6901 -77.6606 -77.5652 -77.5355 -58.5363 -58.4544
   -58.4508 -58.3904 -58.3670 -58.3087 -39.7396 -39.6984 -39.6300 -39.6092
   -39.5119 -39.4868 -39.4618 -39.4251 -39.4076 -39.3773 -39.3112 -39.3080
   -39.2464 -39.1989 -39.1843 -39.1285 -39.0847 -38.9818 -32.8599 -32.8169
   -32.7855 -32.7186 -32.7097 -32.6083 -32.5287 -32.5140 -32.4812 -32.4521
   -32.4199 -32.4159 -32.3565 -32.1976 -32.1371 -32.1314 -32.1046 -32.0059
    -5.0786  -3.4298  -3.1501  -2.8483  -2.7488  -2.6418  -2.6130  -2.2074
    -2.0935  -1.9531  -1.9327  -1.9061  -1.7543  -1.5884  -1.5628  -0.4085
    -0.3290  -0.2270   0.7297   0.7508   0.7522   0.7917   1.2064   1.2495
     1.3648   1.4890   1.5872   1.6463   1.6489   1.6558   1.8455   1.9161
     1.9495   1.9990   2.1159   2.1439   3.2311   3.2473   3.2593   3.3808
     3.3910   3.4592   3.6301   4.0612   4.0953   4.4984   4.5184   4.5755
     4.7407   4.7562   4.8917   4.9730   5.1326   5.6156   5.6761   5.7337

[...]

          k = 0.0745-0.0601 0.0000 ( 31027 PWs)   bands (ev):

[...]

          k =-0.0894 0.0515 0.0000 ( 31002 PWs)   bands (ev):

[...]

          k =-0.0894-0.0516 0.0000 ( 31018 PWs)   bands (ev):

   -77.7363 -77.7063 -77.6901 -77.6606 -77.5652 -77.5355 -58.5371 -58.4549
   -58.4515 -58.3912 -58.3675 -58.3083 -39.7286 -39.6799 -39.6215 -39.6018
   -39.5039 -39.4728 -39.4686 -39.4146 -39.4100 -39.3552 -39.3040 -39.2978
   -39.2440 -39.1975 -39.1777 -39.1280 -39.0841 -38.9812 -32.8905 -32.8301
   -32.8231 -32.7363 -32.7287 -32.5994 -32.5633 -32.5231 -32.5068 -32.4713
   -32.4514 -32.4313 -32.3739 -32.2011 -32.1428 -32.1308 -32.1058 -32.0079
    -3.6449  -3.0780  -2.0645  -1.8128  -1.7661  -1.7277  -1.5302  -1.5288
    -1.3382  -0.9621  -0.8815  -0.8694  -0.8077  -0.5197  -0.4602  -0.3140
    -0.2830  -0.1139   0.0980   0.2267   0.4112   0.4510   0.8136   0.9953
     1.0656   1.0712   1.1023   1.1250   1.1892   1.2991   1.4216   1.4454
     1.5530   1.6005   1.7323   1.7576   1.8191   1.9626   2.0376   2.1483
     2.7306   2.7959   3.1002   3.1322   3.1417   3.2726   3.3373   3.6828
     3.8010   3.8224   3.8750   3.9469   4.0238   4.1159   4.1939   4.5137

     the Fermi energy is     2.4802 ev

!    total energy              =   -1916.47443468 Ry
     estimated scf accuracy    <       0.00000094 Ry
     smearing contrib. (-TS)   =      -0.05869802 Ry
     internal energy E=F+TS    =   -1916.41573667 Ry

     The total energy is F=E-TS. E is the sum of the following terms:
     one-electron contribution =  -16690.15520794 Ry
     hartree contribution      =    8334.17775348 Ry
     xc contribution           =    -366.37136178 Ry
     ewald contribution        =    6805.93307727 Ry
     electric field correction =       0.00000229 Ry

     convergence has been achieved in  17 iterations

     negative rho (up, down):  4.888E-04 0.000E+00

     Forces acting on atoms (cartesian axes, Ry/au):

     atom    1 type  1   force =    -0.00577834   -0.00333912    0.01630804
     atom    2 type  1   force =    -0.00577918   -0.00333925    0.01630903
     atom    3 type  2   force =     0.00646534    0.00373571    0.02732563
     atom    4 type  2   force =     0.00646565    0.00373461    0.02732529
     atom    5 type  1   force =     0.00173756    0.00100394   -0.02245557
     atom    6 type  1   force =     0.00173912    0.00100513   -0.02245522
     atom    7 type  2   force =    -0.00152337   -0.00088237   -0.02036717
     atom    8 type  2   force =    -0.00152462   -0.00087860   -0.02036572
     atom    9 type  1   force =    -0.00076815   -0.00044417    0.00031052
     atom   10 type  1   force =    -0.00076827   -0.00044337    0.00031097
     atom   11 type  2   force =    -0.00013342   -0.00007720   -0.00112435
     atom   12 type  2   force =    -0.00013232   -0.00007530   -0.00112145

     Total force =     0.063895     Total SCF correction =     0.001818

     Writing output data file ./Mo2Re2/Mo2Re2_beef.save/

     General routines

     Parallel routines

   This run was terminated on:   0:57:42  24Jun2022

   JOB DONE.