     Program PWSCF v.6.6 starts on 25Jun2022 at  1:26:51

     R & G space division:  proc/nbgrp/npool/nimage =      37
     Fft bands division:     nmany     =       1
     Reading input from Mo2Ta2.in
Warning: card &CELL ignored
Warning: card / ignored

     Current dimensions of program PWSCF are:
     Max number of different atomic species (ntypx) = 10
     Max number of k-points (npk) =  40000
     Max angular momentum in pseudopotentials (lmaxx) =  3
     Presently stress not available with electric field and gates

     Message from routine cell_base_init:
     DEPRECATED: use true lattice parameter, not A to a.u. conversion factor
     file Mo.pbe-spn-rrkjus_psl.1.0.0.UPF: wavefunction(s)  4S renormalized
     file Ta.pbe-spfn-rrkjus_psl.1.0.0.UPF: wavefunction(s)  5S 5P renormalized

     IMPORTANT: XC functional enforced from input :
     Exchange-correlation= BEEF-VDW
                           (   1   4  43  14   2   0   0)
     Any further DFT definition will be discarded
     Please, verify this is what you really want

     Subspace diagonalization in iterative solution of the eigenvalue problem:
     a serial algorithm will be used

     Found symmetry operation: I + (  0.5000 -0.5000  0.0000)
     This is a supercell, fractional translations are disabled

     bravais-lattice index     =            0
     lattice parameter (alat)  =       1.8897  a.u.
     unit-cell volume          =    4894.5738 (a.u.)^3
     number of atoms/cell      =           12
     number of atomic types    =            2
     number of electrons       =       246.00
     number of Kohn-Sham states=          148
     kinetic-energy cutoff     =      55.1240  Ry
     charge density cutoff     =     551.2396  Ry
     convergence threshold     =      1.0E-05
     mixing beta               =       0.1000
     number of iterations used =           10  plain     mixing
     Exchange-correlation= BEEF-VDW
                           (   1   4  43  14   2   0   0)

     celldm(1)=   1.889726  celldm(2)=   0.000000  celldm(3)=   0.000000
     celldm(4)=   0.000000  celldm(5)=   0.000000  celldm(6)=   0.000000

     crystal axes: (cart. coord. in units of alat)
               a(1) = (   5.596277   0.000000   0.000000 )
               a(2) = (   1.869520   5.274771   0.000000 )
               a(3) = (   0.000000   0.000000  24.570588 )

     reciprocal axes: (cart. coord. in units 2 pi/alat)
               b(1) = (  0.178690 -0.063333  0.000000 )
               b(2) = (  0.000000  0.189582  0.000000 )
               b(3) = (  0.000000  0.000000  0.040699 )

     PseudoPot. # 1 for Mo read from file:
     ../pseudo/Mo.pbe-spn-rrkjus_psl.1.0.0.UPF
     MD5 check sum: 03f09b12e49601d1a456a78ce8b2d514
     Pseudo is Ultrasoft + core correction, Zval = 14.0
     Generated using "atomic" code by A. Dal Corso v.6.3
     Using radial grid of 1229 points,  6 beta functions with:
                l(1) =   0
                l(2) =   0
                l(3) =   1
                l(4) =   1
                l(5) =   2
                l(6) =   2
     Q(r) pseudized with 0 coefficients

     PseudoPot. # 2 for Ta read from file:
     ../pseudo/Ta.pbe-spfn-rrkjus_psl.1.0.0.UPF
     MD5 check sum: 39d7d349fe394e56adf8454eb9315fbb
     Pseudo is Ultrasoft + core correction, Zval = 27.0
     Generated using "atomic" code by A. Dal Corso v.6.3
     Using radial grid of 1273 points,  8 beta functions with:
                l(1) =   0
                l(2) =   0
                l(3) =   1
                l(4) =   1
                l(5) =   2
                l(6) =   2
                l(7) =   3
                l(8) =   3
     Q(r) pseudized with 0 coefficients

     atomic species   valence    mass     pseudopotential
        Mo            14.00    95.95000     Mo( 1.00)
        Ta            27.00   180.94788     Ta( 1.00)

     No symmetry found

   Cartesian axes

     site n.     atom                  positions (alat units)
         1           Mo  tau(   1) = (   0.0000000   0.0000000  10.0000000  )
         2           Mo  tau(   2) = (   3.7328983   2.6373856  10.0000000  )
         3           Ta  tau(   3) = (   2.7981385   0.0000000  10.0000000  )
         4           Ta  tau(   4) = (   0.9347599   2.6373856  10.0000000  )
         5           Mo  tau(   5) = (   5.5962769   3.9539090  12.2852941  )
         6           Mo  tau(   6) = (   1.8633786   1.3165234  12.2852941  )
         7           Ta  tau(   7) = (   2.7981385   3.9539090  12.2852941  )
         8           Ta  tau(   8) = (   4.6615170   1.3165234  12.2852941  )
         9           Mo  tau(   9) = (   3.7282720   2.6341152  14.5430052  )
        10           Mo  tau(  10) = (   7.4611667   5.2715024  14.5430058  )
        11           Ta  tau(  11) = (   6.5265517   2.6342154  14.4994710  )
        12           Ta  tau(  12) = (   4.6631786   5.2716090  14.4994708  )

     number of k points=    74  Fermi-Dirac smearing, width (Ry)=  0.0100
                       cart. coord. in units 2pi/alat
        k(    1) = (   0.0000000   0.0000000   0.0000000), wk =   0.0138889
        k(    2) = (   0.0000000   0.0157985   0.0000000), wk =   0.0277778
        k(    3) = (   0.0000000   0.0315969   0.0000000), wk =   0.0277778
        k(    4) = (   0.0000000   0.0473954   0.0000000), wk =   0.0277778
        k(    5) = (   0.0000000   0.0631939   0.0000000), wk =   0.0277778
        k(    6) = (   0.0000000   0.0789924   0.0000000), wk =   0.0277778
        k(    7) = (   0.0000000  -0.0947908   0.0000000), wk =   0.0138889
        k(    8) = (   0.0148909  -0.0052777   0.0000000), wk =   0.0277778
        k(    9) = (   0.0148909   0.0105208   0.0000000), wk =   0.0277778
        k(   10) = (   0.0148909   0.0263192   0.0000000), wk =   0.0277778
        k(   11) = (   0.0148909   0.0421177   0.0000000), wk =   0.0277778
        k(   12) = (   0.0148909   0.0579162   0.0000000), wk =   0.0277778
        k(   13) = (   0.0148909   0.0737147   0.0000000), wk =   0.0277778
        k(   14) = (   0.0148909  -0.1000686   0.0000000), wk =   0.0277778
        k(   15) = (   0.0148909  -0.0842701   0.0000000), wk =   0.0277778
        k(   16) = (   0.0148909  -0.0684716   0.0000000), wk =   0.0277778
        k(   17) = (   0.0148909  -0.0526731   0.0000000), wk =   0.0277778
        k(   18) = (   0.0148909  -0.0368747   0.0000000), wk =   0.0277778
        k(   19) = (   0.0148909  -0.0210762   0.0000000), wk =   0.0277778
        k(   20) = (   0.0297817  -0.0105554   0.0000000), wk =   0.0277778
        k(   21) = (   0.0297817   0.0052430   0.0000000), wk =   0.0277778
        k(   22) = (   0.0297817   0.0210415   0.0000000), wk =   0.0277778
        k(   23) = (   0.0297817   0.0368400   0.0000000), wk =   0.0277778
        k(   24) = (   0.0297817   0.0526385   0.0000000), wk =   0.0277778
        k(   25) = (   0.0297817   0.0684369   0.0000000), wk =   0.0277778
        k(   26) = (   0.0297817  -0.1053463   0.0000000), wk =   0.0277778
        k(   27) = (   0.0297817  -0.0895478   0.0000000), wk =   0.0277778
        k(   28) = (   0.0297817  -0.0737493   0.0000000), wk =   0.0277778
        k(   29) = (   0.0297817  -0.0579509   0.0000000), wk =   0.0277778
        k(   30) = (   0.0297817  -0.0421524   0.0000000), wk =   0.0277778
        k(   31) = (   0.0297817  -0.0263539   0.0000000), wk =   0.0277778
        k(   32) = (   0.0446726  -0.0158331   0.0000000), wk =   0.0277778
        k(   33) = (   0.0446726  -0.0000347   0.0000000), wk =   0.0277778
        k(   34) = (   0.0446726   0.0157638   0.0000000), wk =   0.0277778
        k(   35) = (   0.0446726   0.0315623   0.0000000), wk =   0.0277778
        k(   36) = (   0.0446726   0.0473607   0.0000000), wk =   0.0277778
        k(   37) = (   0.0446726   0.0631592   0.0000000), wk =   0.0277778
        k(   38) = (   0.0446726  -0.1106240   0.0000000), wk =   0.0277778
        k(   39) = (   0.0446726  -0.0948255   0.0000000), wk =   0.0277778
        k(   40) = (   0.0446726  -0.0790270   0.0000000), wk =   0.0277778
        k(   41) = (   0.0446726  -0.0632286   0.0000000), wk =   0.0277778
        k(   42) = (   0.0446726  -0.0474301   0.0000000), wk =   0.0277778
        k(   43) = (   0.0446726  -0.0316316   0.0000000), wk =   0.0277778
        k(   44) = (   0.0595634  -0.0211109   0.0000000), wk =   0.0277778
        k(   45) = (   0.0595634  -0.0053124   0.0000000), wk =   0.0277778
        k(   46) = (   0.0595634   0.0104861   0.0000000), wk =   0.0277778
        k(   47) = (   0.0595634   0.0262846   0.0000000), wk =   0.0277778
        k(   48) = (   0.0595634   0.0420830   0.0000000), wk =   0.0277778
        k(   49) = (   0.0595634   0.0578815   0.0000000), wk =   0.0277778
        k(   50) = (   0.0595634  -0.1159017   0.0000000), wk =   0.0277778
        k(   51) = (   0.0595634  -0.1001032   0.0000000), wk =   0.0277778
        k(   52) = (   0.0595634  -0.0843048   0.0000000), wk =   0.0277778
        k(   53) = (   0.0595634  -0.0685063   0.0000000), wk =   0.0277778
        k(   54) = (   0.0595634  -0.0527078   0.0000000), wk =   0.0277778
        k(   55) = (   0.0595634  -0.0369093   0.0000000), wk =   0.0277778
        k(   56) = (   0.0744543  -0.0263886   0.0000000), wk =   0.0277778
        k(   57) = (   0.0744543  -0.0105901   0.0000000), wk =   0.0277778
        k(   58) = (   0.0744543   0.0052084   0.0000000), wk =   0.0277778
        k(   59) = (   0.0744543   0.0210068   0.0000000), wk =   0.0277778
        k(   60) = (   0.0744543   0.0368053   0.0000000), wk =   0.0277778
        k(   61) = (   0.0744543   0.0526038   0.0000000), wk =   0.0277778
        k(   62) = (   0.0744543  -0.1211794   0.0000000), wk =   0.0277778
        k(   63) = (   0.0744543  -0.1053810   0.0000000), wk =   0.0277778
        k(   64) = (   0.0744543  -0.0895825   0.0000000), wk =   0.0277778
        k(   65) = (   0.0744543  -0.0737840   0.0000000), wk =   0.0277778
        k(   66) = (   0.0744543  -0.0579855   0.0000000), wk =   0.0277778
        k(   67) = (   0.0744543  -0.0421871   0.0000000), wk =   0.0277778
        k(   68) = (  -0.0893451   0.0316663   0.0000000), wk =   0.0138889
        k(   69) = (  -0.0893451   0.0474648   0.0000000), wk =   0.0277778
        k(   70) = (  -0.0893451   0.0632632   0.0000000), wk =   0.0277778
        k(   71) = (  -0.0893451   0.0790617   0.0000000), wk =   0.0277778
        k(   72) = (  -0.0893451   0.0948602   0.0000000), wk =   0.0277778
        k(   73) = (  -0.0893451   0.1106587   0.0000000), wk =   0.0277778
        k(   74) = (  -0.0893451  -0.0631245   0.0000000), wk =   0.0138889

     Initial potential from superposition of free atoms

     starting charge  245.98965, renormalised to  246.00000

     negative rho (up, down):  4.472E-04 0.000E+00

     %%%%%%%%%%%%%%%%%%%%%%%%%%%%%%%%%%%%%%%%%%%%%%%%%%%%%%%%%%%%%%%%%%%%%%%%
     %                                                                      %
     % You are using vdW-DF, which was implemented by the Thonhauser group. %
     % Please cite the following two papers that made this development      %
     % possible and the two reviews that describe the various versions:     %
     %                                                                      %
     %   T. Thonhauser et al., PRL 115, 136402 (2015).                      %
     %   T. Thonhauser et al., PRB 76, 125112 (2007).                       %
     %   K. Berland et al., Rep. Prog. Phys. 78, 066501 (2015).             %
     %   D.C. Langreth et al., J. Phys.: Condens. Matter 21, 084203 (2009). %
     %                                                                      %
     %                                                                      %
     % If you are calculating the stress with vdW-DF, please also cite:     %
     %                                                                      %
     %   R. Sabatini et al., J. Phys.: Condens. Matter 24, 424209 (2012).   %
     %                                                                      %
     %%%%%%%%%%%%%%%%%%%%%%%%%%%%%%%%%%%%%%%%%%%%%%%%%%%%%%%%%%%%%%%%%%%%%%%%

     Adding external electric field

     Computed dipole along edir(3) :
        Dipole                0.0000 Ry au,          0.0001 Debye
        Dipole field          0.0000 Ry au,

        Potential amp.       -0.0000 Ry
        Total length         45.2709 bohr

     Starting wfcs are  162 randomized atomic wfcs

     Self-consistent Calculation

     iteration #  1     ecut=    55.12 Ry     beta= 0.10
     Davidson diagonalization with overlap
     ethr =  1.00E-02,  avg # of iterations =  2.5

[...]

     total energy              =   -4932.42159438 Ry
     estimated scf accuracy    <       6.70717071 Ry

[...]

     iteration #  9     ecut=    55.12 Ry     beta= 0.10
     Davidson diagonalization with overlap
     c_bands:  1 eigenvalues not converged
     ethr =  2.31E-06,  avg # of iterations =  9.7

[...]

     total energy              =   -4932.80956568 Ry
     estimated scf accuracy    <       0.00002035 Ry

     iteration # 14     ecut=    55.12 Ry     beta= 0.10
     Davidson diagonalization with overlap
     ethr =  8.27E-09,  avg # of iterations =  5.4

[...]

     Adding external electric field

     Computed dipole along edir(3) :
        Dipole                0.0156 Ry au,          0.0396 Debye
        Dipole field          0.0000 Ry au,

        Potential amp.       -0.0036 Ry
        Total length         45.2709 bohr

     End of self-consistent calculation

          k = 0.0000 0.0000 0.0000 ( 33935 PWs)   bands (ev):

   -65.8095 -65.7992 -65.7494 -65.7389 -65.5299 -65.5194 -58.1824 -58.1676
   -58.1339 -58.1214 -58.1203 -58.1079 -32.7710 -32.7343 -32.7241 -32.7108
   -32.6884 -32.6691 -32.5884 -32.5616 -32.5466 -32.4579 -32.3797 -32.3747
   -32.3265 -32.2525 -32.2015 -32.1736 -32.1618 -32.1284 -32.1228 -32.0986
   -31.9694 -31.8118 -31.7912 -31.7867 -31.7390 -31.6969 -31.6705 -31.6169
   -31.6102 -31.5775 -31.5722 -31.5684 -31.5570 -31.5394 -31.5310 -31.4956
   -17.5123 -17.5083 -17.5060 -17.5056 -17.5051 -17.4972 -17.4848 -17.4788
   -17.4744 -17.4720 -17.4433 -17.4394 -17.4380 -17.4376 -17.4374 -17.4349
   -17.4344 -17.4286 -17.4262 -17.4262 -17.4189 -17.4128 -17.4094 -17.4070
   -17.3751 -17.3747 -17.3664 -17.3664 -17.1754 -17.1747 -17.1734 -17.1728
   -17.1718 -17.1659 -17.1628 -17.1614 -17.1602 -17.1596 -17.1578 -17.1523
   -17.1517 -17.1507  -4.2240  -2.6055  -2.1223  -1.8939  -1.6976  -1.5795
    -1.3933  -1.3460  -1.3420  -1.2747  -0.7831  -0.7214  -0.3340   0.3035
     0.3566   0.3778   0.4004   0.4666   0.4672   0.6137   0.6644   0.8411
     1.1789   1.6381   1.8726   1.9262   2.0427   2.0914   2.3676   2.7858
     2.9164   2.9472   3.2352   3.2515   3.5864   4.0401   4.2223   4.3832
     4.5177   4.5286   4.9362   4.9621   4.9985   4.9989   5.0707   5.0936
     5.1752   5.2937   5.3144   5.3749   5.4279   5.4892   5.5993   5.6155
     5.7153   5.7454   6.0071   6.1459

[...]

          k = 0.0745-0.0422 0.0000 ( 33789 PWs)   bands (ev):

[...]

          k =-0.0893 0.0317 0.0000 ( 33762 PWs)   bands (ev):

[...]

          k =-0.0893-0.0631 0.0000 ( 33754 PWs)   bands (ev):

   -65.8091 -65.7994 -65.7489 -65.7391 -65.5298 -65.5193 -58.1821 -58.1698
   -58.1356 -58.1221 -58.1204 -58.1068 -32.6173 -32.6004 -32.5346 -32.4874
   -32.4465 -32.4229 -32.3583 -32.2789 -32.2575 -32.2458 -32.2363 -32.2142
   -32.2010 -32.1652 -32.1636 -32.1537 -32.1363 -32.1266 -32.1218 -32.1037
   -32.0644 -32.0420 -32.0374 -31.9927 -31.9847 -31.8932 -31.8902 -31.8368
   -31.8309 -31.8078 -31.7927 -31.7923 -31.7465 -31.6454 -31.6352 -31.5970
   -17.5126 -17.5084 -17.5067 -17.5064 -17.5056 -17.4973 -17.4848 -17.4790
   -17.4750 -17.4721 -17.4436 -17.4395 -17.4392 -17.4380 -17.4378 -17.4365
   -17.4363 -17.4286 -17.4283 -17.4259 -17.4189 -17.4129 -17.4101 -17.4071
   -17.3767 -17.3765 -17.3686 -17.3661 -17.1759 -17.1749 -17.1746 -17.1733
   -17.1725 -17.1671 -17.1634 -17.1616 -17.1611 -17.1603 -17.1575 -17.1535
   -17.1524 -17.1515  -2.1759  -2.1361  -1.1728  -1.0750  -0.6435  -0.5625
    -0.4453  -0.4367  -0.4253   0.1492   0.3899   0.4336   0.5485   0.6484
     0.6487   0.6692   0.6831   0.7994   0.8730   1.2821   1.4021   1.5256
     1.5329   1.5768   1.7193   1.7688   1.7941   1.8700   2.1227   2.1805
     2.2341   2.2756   2.3018   2.4511   2.4693   2.5138   2.5791   2.6360
     2.8357   3.2367   3.4786   3.6571   3.6987   3.7431   3.8011   4.0538
     4.0812   4.1002   4.3642   4.4067   4.6362   4.7994   4.8492   5.1147
     5.1700   5.2953   5.4581   5.8791

     the Fermi energy is     2.5889 ev

!    total energy              =   -4932.80956993 Ry
     estimated scf accuracy    <       0.00000491 Ry
     smearing contrib. (-TS)   =      -0.05913322 Ry
     internal energy E=F+TS    =   -4932.75043670 Ry

     The total energy is F=E-TS. E is the sum of the following terms:
     one-electron contribution =  -33184.51487664 Ry
     hartree contribution      =   16691.47723276 Ry
     xc contribution           =    -534.64206074 Ry
     ewald contribution        =   12094.92926729 Ry
     electric field correction =       0.00000062 Ry

     convergence has been achieved in  14 iterations

     negative rho (up, down):  5.698E-04 0.000E+00

     Forces acting on atoms (cartesian axes, Ry/au):

     atom    1 type  1   force =    -0.00027782   -0.00019516    0.00517432
     atom    2 type  1   force =    -0.00027792   -0.00019582    0.00517246
     atom    3 type  2   force =    -0.00033576   -0.00024260    0.01327651
     atom    4 type  2   force =    -0.00033342   -0.00022931    0.01328621
     atom    5 type  1   force =     0.00017836    0.00012485   -0.01429234
     atom    6 type  1   force =     0.00017723    0.00012824   -0.01429241
     atom    7 type  2   force =     0.00014705    0.00011282   -0.00810627
     atom    8 type  2   force =     0.00014400    0.00009810   -0.00810302
     atom    9 type  1   force =     0.00013593    0.00009704   -0.00241696
     atom   10 type  1   force =     0.00013788    0.00009733   -0.00241746
     atom   11 type  2   force =     0.00014663    0.00011404    0.00636376
     atom   12 type  2   force =     0.00015784    0.00009047    0.00635521

     Total force =     0.032244     Total SCF correction =     0.017483
     SCF correction compared to forces is large: reduce conv_thr to get better values

     Writing output data file ./Mo2Ta2/Mo2Ta2_beef.save/

     General routines

     Parallel routines

   This run was terminated on:   5: 6:45  25Jun2022

   JOB DONE.