     Program PWSCF v.6.6 starts on 24Jun2022 at 11:47:53

     R & G space division:  proc/nbgrp/npool/nimage =      37
     Fft bands division:     nmany     =       1
     Reading input from Mo2Tc2.in
Warning: card &CELL ignored
Warning: card / ignored

     Current dimensions of program PWSCF are:
     Max number of different atomic species (ntypx) = 10
     Max number of k-points (npk) =  40000
     Max angular momentum in pseudopotentials (lmaxx) =  3
     Presently stress not available with electric field and gates

     Message from routine cell_base_init:
     DEPRECATED: use true lattice parameter, not A to a.u. conversion factor
     file Mo.pbe-spn-rrkjus_psl.1.0.0.UPF: wavefunction(s)  4S renormalized
     file Tc.pbe-spn-rrkjus_psl.0.3.0.UPF: wavefunction(s)  4S 4P renormalized

     IMPORTANT: XC functional enforced from input :
     Exchange-correlation= BEEF-VDW
                           (   1   4  43  14   2   0   0)
     Any further DFT definition will be discarded
     Please, verify this is what you really want

     Subspace diagonalization in iterative solution of the eigenvalue problem:
     a serial algorithm will be used

     Found symmetry operation: I + (  0.5000  0.5000  0.0000)
     This is a supercell, fractional translations are disabled

     bravais-lattice index     =            0
     lattice parameter (alat)  =       1.8897  a.u.
     unit-cell volume          =    4451.6600 (a.u.)^3
     number of atoms/cell      =           12
     number of atomic types    =            2
     number of electrons       =       174.00
     number of Kohn-Sham states=          104
     kinetic-energy cutoff     =      55.1240  Ry
     charge density cutoff     =     551.2396  Ry
     convergence threshold     =      1.0E-05
     mixing beta               =       0.1000
     number of iterations used =           10  plain     mixing
     Exchange-correlation= BEEF-VDW
                           (   1   4  43  14   2   0   0)

     celldm(1)=   1.889726  celldm(2)=   0.000000  celldm(3)=   0.000000
     celldm(4)=   0.000000  celldm(5)=   0.000000  celldm(6)=   0.000000

     crystal axes: (cart. coord. in units of alat)
               a(1) = (   5.558201   0.000000   0.000000 )
               a(2) = (   2.742012   4.834767   0.000000 )
               a(3) = (   0.000000   0.000000  24.547975 )

     reciprocal axes: (cart. coord. in units 2 pi/alat)
               b(1) = (  0.179914 -0.102037  0.000000 )
               b(2) = (  0.000000  0.206835  0.000000 )
               b(3) = (  0.000000  0.000000  0.040737 )

     PseudoPot. # 1 for Mo read from file:
     ../pseudo/Mo.pbe-spn-rrkjus_psl.1.0.0.UPF
     MD5 check sum: 03f09b12e49601d1a456a78ce8b2d514
     Pseudo is Ultrasoft + core correction, Zval = 14.0
     Generated using "atomic" code by A. Dal Corso v.6.3
     Using radial grid of 1229 points,  6 beta functions with:
                l(1) =   0
                l(2) =   0
                l(3) =   1
                l(4) =   1
                l(5) =   2
                l(6) =   2
     Q(r) pseudized with 0 coefficients

     PseudoPot. # 2 for Tc read from file:
     ../pseudo/Tc.pbe-spn-rrkjus_psl.0.3.0.UPF
     MD5 check sum: 5f147c0bf103030af994b79b1f5562e4
     Pseudo is Ultrasoft + core correction, Zval = 15.0
     Generated using "atomic" code by A. Dal Corso v.6.2.2
     Using radial grid of 1231 points,  6 beta functions with:
                l(1) =   0
                l(2) =   0
                l(3) =   1
                l(4) =   1
                l(5) =   2
                l(6) =   2
     Q(r) pseudized with 0 coefficients

     atomic species   valence    mass     pseudopotential
        Mo            14.00    95.95000     Mo( 1.00)
        Tc            15.00    97.90721     Tc( 1.00)

     No symmetry found

   Cartesian axes

     site n.     atom                  positions (alat units)
         1           Mo  tau(   1) = (   0.0000000   0.0000000  10.0000000  )
         2           Mo  tau(   2) = (   4.1501064   2.4173834  10.0000000  )
         3           Tc  tau(   3) = (   2.7791005   0.0000000  10.0000000  )
         4           Tc  tau(   4) = (   1.3710059   2.4173834  10.0000000  )
         5           Mo  tau(   5) = (   5.5582010   3.2375804  12.2739876  )
         6           Mo  tau(   6) = (   1.4080946   0.8201970  12.2739876  )
         7           Tc  tau(   7) = (   2.7791005   3.2375804  12.2739876  )
         8           Tc  tau(   8) = (   4.1871952   0.8201970  12.2739876  )
         9           Mo  tau(   9) = (   2.8167468   1.6407171  14.4365342  )
        10           Mo  tau(  10) = (   6.9668529   4.0581029  14.4365340  )
        11           Tc  tau(  11) = (   5.5815762   1.6324067  14.4673104  )
        12           Tc  tau(  12) = (   4.1734783   4.0497874  14.4673096  )

     number of k points=    74  Fermi-Dirac smearing, width (Ry)=  0.0100
                       cart. coord. in units 2pi/alat
        k(    1) = (   0.0000000   0.0000000   0.0000000), wk =   0.0138889
        k(    2) = (   0.0000000   0.0172363   0.0000000), wk =   0.0277778
        k(    3) = (   0.0000000   0.0344725   0.0000000), wk =   0.0277778
        k(    4) = (   0.0000000   0.0517088   0.0000000), wk =   0.0277778
        k(    5) = (   0.0000000   0.0689451   0.0000000), wk =   0.0277778
        k(    6) = (   0.0000000   0.0861813   0.0000000), wk =   0.0277778
        k(    7) = (   0.0000000  -0.1034176   0.0000000), wk =   0.0138889
        k(    8) = (   0.0149929  -0.0085031   0.0000000), wk =   0.0277778
        k(    9) = (   0.0149929   0.0087331   0.0000000), wk =   0.0277778
        k(   10) = (   0.0149929   0.0259694   0.0000000), wk =   0.0277778
        k(   11) = (   0.0149929   0.0432057   0.0000000), wk =   0.0277778
        k(   12) = (   0.0149929   0.0604419   0.0000000), wk =   0.0277778
        k(   13) = (   0.0149929   0.0776782   0.0000000), wk =   0.0277778
        k(   14) = (   0.0149929  -0.1119207   0.0000000), wk =   0.0277778
        k(   15) = (   0.0149929  -0.0946845   0.0000000), wk =   0.0277778
        k(   16) = (   0.0149929  -0.0774482   0.0000000), wk =   0.0277778
        k(   17) = (   0.0149929  -0.0602119   0.0000000), wk =   0.0277778
        k(   18) = (   0.0149929  -0.0429757   0.0000000), wk =   0.0277778
        k(   19) = (   0.0149929  -0.0257394   0.0000000), wk =   0.0277778
        k(   20) = (   0.0299857  -0.0170062   0.0000000), wk =   0.0277778
        k(   21) = (   0.0299857   0.0002300   0.0000000), wk =   0.0277778
        k(   22) = (   0.0299857   0.0174663   0.0000000), wk =   0.0277778
        k(   23) = (   0.0299857   0.0347026   0.0000000), wk =   0.0277778
        k(   24) = (   0.0299857   0.0519388   0.0000000), wk =   0.0277778
        k(   25) = (   0.0299857   0.0691751   0.0000000), wk =   0.0277778
        k(   26) = (   0.0299857  -0.1204238   0.0000000), wk =   0.0277778
        k(   27) = (   0.0299857  -0.1031876   0.0000000), wk =   0.0277778
        k(   28) = (   0.0299857  -0.0859513   0.0000000), wk =   0.0277778
        k(   29) = (   0.0299857  -0.0687150   0.0000000), wk =   0.0277778
        k(   30) = (   0.0299857  -0.0514788   0.0000000), wk =   0.0277778
        k(   31) = (   0.0299857  -0.0342425   0.0000000), wk =   0.0277778
        k(   32) = (   0.0449786  -0.0255094   0.0000000), wk =   0.0277778
        k(   33) = (   0.0449786  -0.0082731   0.0000000), wk =   0.0277778
        k(   34) = (   0.0449786   0.0089632   0.0000000), wk =   0.0277778
        k(   35) = (   0.0449786   0.0261994   0.0000000), wk =   0.0277778
        k(   36) = (   0.0449786   0.0434357   0.0000000), wk =   0.0277778
        k(   37) = (   0.0449786   0.0606720   0.0000000), wk =   0.0277778
        k(   38) = (   0.0449786  -0.1289270   0.0000000), wk =   0.0277778
        k(   39) = (   0.0449786  -0.1116907   0.0000000), wk =   0.0277778
        k(   40) = (   0.0449786  -0.0944544   0.0000000), wk =   0.0277778
        k(   41) = (   0.0449786  -0.0772182   0.0000000), wk =   0.0277778
        k(   42) = (   0.0449786  -0.0599819   0.0000000), wk =   0.0277778
        k(   43) = (   0.0449786  -0.0427456   0.0000000), wk =   0.0277778
        k(   44) = (   0.0599714  -0.0340125   0.0000000), wk =   0.0277778
        k(   45) = (   0.0599714  -0.0167762   0.0000000), wk =   0.0277778
        k(   46) = (   0.0599714   0.0004601   0.0000000), wk =   0.0277778
        k(   47) = (   0.0599714   0.0176963   0.0000000), wk =   0.0277778
        k(   48) = (   0.0599714   0.0349326   0.0000000), wk =   0.0277778
        k(   49) = (   0.0599714   0.0521689   0.0000000), wk =   0.0277778
        k(   50) = (   0.0599714  -0.1374301   0.0000000), wk =   0.0277778
        k(   51) = (   0.0599714  -0.1201938   0.0000000), wk =   0.0277778
        k(   52) = (   0.0599714  -0.1029575   0.0000000), wk =   0.0277778
        k(   53) = (   0.0599714  -0.0857213   0.0000000), wk =   0.0277778
        k(   54) = (   0.0599714  -0.0684850   0.0000000), wk =   0.0277778
        k(   55) = (   0.0599714  -0.0512487   0.0000000), wk =   0.0277778
        k(   56) = (   0.0749643  -0.0425156   0.0000000), wk =   0.0277778
        k(   57) = (   0.0749643  -0.0252793   0.0000000), wk =   0.0277778
        k(   58) = (   0.0749643  -0.0080431   0.0000000), wk =   0.0277778
        k(   59) = (   0.0749643   0.0091932   0.0000000), wk =   0.0277778
        k(   60) = (   0.0749643   0.0264295   0.0000000), wk =   0.0277778
        k(   61) = (   0.0749643   0.0436657   0.0000000), wk =   0.0277778
        k(   62) = (   0.0749643  -0.1459332   0.0000000), wk =   0.0277778
        k(   63) = (   0.0749643  -0.1286969   0.0000000), wk =   0.0277778
        k(   64) = (   0.0749643  -0.1114607   0.0000000), wk =   0.0277778
        k(   65) = (   0.0749643  -0.0942244   0.0000000), wk =   0.0277778
        k(   66) = (   0.0749643  -0.0769881   0.0000000), wk =   0.0277778
        k(   67) = (   0.0749643  -0.0597519   0.0000000), wk =   0.0277778
        k(   68) = (  -0.0899572   0.0510187   0.0000000), wk =   0.0138889
        k(   69) = (  -0.0899572   0.0682550   0.0000000), wk =   0.0277778
        k(   70) = (  -0.0899572   0.0854913   0.0000000), wk =   0.0277778
        k(   71) = (  -0.0899572   0.1027275   0.0000000), wk =   0.0277778
        k(   72) = (  -0.0899572   0.1199638   0.0000000), wk =   0.0277778
        k(   73) = (  -0.0899572   0.1372001   0.0000000), wk =   0.0277778
        k(   74) = (  -0.0899572  -0.0523989   0.0000000), wk =   0.0138889

     Initial potential from superposition of free atoms

     starting charge  173.99093, renormalised to  174.00000

     negative rho (up, down):  5.878E-03 0.000E+00

     %%%%%%%%%%%%%%%%%%%%%%%%%%%%%%%%%%%%%%%%%%%%%%%%%%%%%%%%%%%%%%%%%%%%%%%%
     %                                                                      %
     % You are using vdW-DF, which was implemented by the Thonhauser group. %
     % Please cite the following two papers that made this development      %
     % possible and the two reviews that describe the various versions:     %
     %                                                                      %
     %   T. Thonhauser et al., PRL 115, 136402 (2015).                      %
     %   T. Thonhauser et al., PRB 76, 125112 (2007).                       %
     %   K. Berland et al., Rep. Prog. Phys. 78, 066501 (2015).             %
     %   D.C. Langreth et al., J. Phys.: Condens. Matter 21, 084203 (2009). %
     %                                                                      %
     %                                                                      %
     % If you are calculating the stress with vdW-DF, please also cite:     %
     %                                                                      %
     %   R. Sabatini et al., J. Phys.: Condens. Matter 24, 424209 (2012).   %
     %                                                                      %
     %%%%%%%%%%%%%%%%%%%%%%%%%%%%%%%%%%%%%%%%%%%%%%%%%%%%%%%%%%%%%%%%%%%%%%%%

     Adding external electric field

     Computed dipole along edir(3) :
        Dipole               -0.0000 Ry au,         -0.0000 Debye
        Dipole field         -0.0000 Ry au,

        Potential amp.        0.0000 Ry
        Total length         45.2292 bohr

     Starting wfcs are  138 randomized atomic wfcs

     Self-consistent Calculation

     iteration #  1     ecut=    55.12 Ry     beta= 0.10
     Davidson diagonalization with overlap
     ethr =  1.00E-02,  avg # of iterations =  2.0

[...]

     total energy              =   -1927.89414878 Ry
     estimated scf accuracy    <       6.80148837 Ry

[...]

     iteration # 10     ecut=    55.12 Ry     beta= 0.10
     Davidson diagonalization with overlap
     c_bands:  1 eigenvalues not converged
     ethr =  1.73E-06,  avg # of iterations =  7.4

[...]

     iteration # 12     ecut=    55.12 Ry     beta= 0.10
     Davidson diagonalization with overlap
     c_bands:  1 eigenvalues not converged
     ethr =  1.24E-07,  avg # of iterations =  5.2

[...]

     total energy              =   -1928.45262136 Ry
     estimated scf accuracy    <       0.00002594 Ry

     iteration # 15     ecut=    55.12 Ry     beta= 0.10
     Davidson diagonalization with overlap
     ethr =  1.49E-08,  avg # of iterations =  3.8

[...]

     Adding external electric field

     Computed dipole along edir(3) :
        Dipole                0.0310 Ry au,          0.0788 Debye
        Dipole field          0.0001 Ry au,

        Potential amp.       -0.0079 Ry
        Total length         45.2292 bohr

     End of self-consistent calculation

          k = 0.0000 0.0000 0.0000 ( 30797 PWs)   bands (ev):

   -64.5639 -64.5086 -64.4537 -64.4004 -64.3594 -64.3056 -58.7667 -58.6944
   -58.6861 -58.6175 -58.6125 -58.5362 -36.7256 -36.6711 -36.5906 -36.5844
   -36.5155 -36.5129 -36.4443 -36.3908 -36.3604 -36.3223 -36.3044 -36.2788
   -36.2185 -36.1695 -36.1669 -36.1082 -36.0486 -35.9715 -33.0623 -33.0339
   -32.9983 -32.9403 -32.9277 -32.8285 -32.7532 -32.7073 -32.6808 -32.6610
   -32.6384 -32.6205 -32.5781 -32.4048 -32.3696 -32.3468 -32.3385 -32.2355
    -3.8669  -2.5736  -2.5677  -2.5354  -2.4854  -2.4593  -2.0759  -2.0520
    -2.0219  -1.9054  -1.8937  -1.8618  -1.5316  -1.5294  -1.5220  -0.3745
    -0.3598  -0.3132   0.5847   0.5991   0.6597   0.7247   0.9702   1.0227
     1.2110   1.2384   1.2701   1.3501   1.4498   1.5485   1.6447   1.7293
     1.7513   2.0327   2.1300   2.1874   2.9084   2.9598   3.0192   3.1521
     3.2653   3.3697   3.3697   3.5347   3.6999   4.0395   4.1585   4.2658
     4.5967   4.7927   4.7957   4.9289   4.9460   4.9777   5.2005   5.2706

[...]

          k = 0.0750-0.0598 0.0000 ( 30706 PWs)   bands (ev):

[...]

          k =-0.0900 0.0510 0.0000 ( 30712 PWs)   bands (ev):

[...]

          k =-0.0900-0.0524 0.0000 ( 30770 PWs)   bands (ev):

   -64.5630 -64.5088 -64.4534 -64.4004 -64.3590 -64.3056 -58.7687 -58.6961
   -58.6866 -58.6183 -58.6129 -58.5358 -36.7001 -36.6346 -36.5707 -36.5667
   -36.4935 -36.4811 -36.4136 -36.3976 -36.3323 -36.3153 -36.2674 -36.2617
   -36.2106 -36.1630 -36.1592 -36.1071 -36.0469 -35.9698 -33.1148 -33.0642
   -33.0567 -32.9743 -32.9586 -32.8145 -32.7810 -32.7441 -32.7274 -32.6987
   -32.6644 -32.6583 -32.5996 -32.4128 -32.3793 -32.3458 -32.3401 -32.2386
    -2.3004  -2.2354  -1.6123  -1.5646  -1.5206  -1.4312  -1.2806  -1.2243
    -1.1358  -0.9430  -0.8550  -0.7183  -0.7015  -0.5344  -0.4507  -0.4497
    -0.0707   0.0062   0.0568   0.1685   0.3400   0.4492   0.7519   0.9502
     0.9610   1.0365   1.1215   1.1878   1.2155   1.2586   1.3553   1.3928
     1.5288   1.5522   1.5703   1.6049   1.6579   1.6701   1.8360   1.8404
     2.2835   2.3956   2.7385   2.7771   2.8563   2.9722   3.0053   3.0439
     3.3149   3.5456   3.5891   3.6501   3.7177   3.8044   3.8519   4.0560

     the Fermi energy is     2.2994 ev

!    total energy              =   -1928.45264830 Ry
     estimated scf accuracy    <       0.00000422 Ry
     smearing contrib. (-TS)   =      -0.06394524 Ry
     internal energy E=F+TS    =   -1928.38870306 Ry

     The total energy is F=E-TS. E is the sum of the following terms:
     one-electron contribution =  -16930.00313531 Ry
     hartree contribution      =    8463.95304476 Ry
     xc contribution           =    -357.83777367 Ry
     ewald contribution        =    6895.49915845 Ry
     electric field correction =       0.00000271 Ry

     convergence has been achieved in  15 iterations

     negative rho (up, down):  5.875E-03 0.000E+00

     Forces acting on atoms (cartesian axes, Ry/au):

     atom    1 type  1   force =    -0.00287394   -0.00167558    0.02374299
     atom    2 type  1   force =    -0.00287354   -0.00167341    0.02374058
     atom    3 type  2   force =     0.00443155    0.00257991    0.01405422
     atom    4 type  2   force =     0.00443087    0.00258148    0.01405338
     atom    5 type  1   force =    -0.00193244   -0.00112746   -0.01623802
     atom    6 type  1   force =    -0.00193374   -0.00112237   -0.01623672
     atom    7 type  2   force =     0.00168445    0.00098101   -0.02138815
     atom    8 type  2   force =     0.00168700    0.00098206   -0.02138615
     atom    9 type  1   force =    -0.00047463   -0.00027427    0.00013443
     atom   10 type  1   force =    -0.00047109   -0.00027646    0.00013751
     atom   11 type  2   force =    -0.00083592   -0.00048854   -0.00030636
     atom   12 type  2   force =    -0.00083857   -0.00048637   -0.00030771

     Total force =     0.055313     Total SCF correction =     0.005691
     SCF correction compared to forces is large: reduce conv_thr to get better values

     Writing output data file ./Mo2Tc2/Mo2Tc2_beef.save/

     General routines

     Parallel routines

   This run was terminated on:  12:52:54  24Jun2022

   JOB DONE.