     Program PWSCF v.6.6 starts on 23Jun2022 at 20: 1:39

     R & G space division:  proc/nbgrp/npool/nimage =      37
     Fft bands division:     nmany     =       1
     Reading input from Mo2W2.in
Warning: card &CELL ignored
Warning: card / ignored

     Current dimensions of program PWSCF are:
     Max number of different atomic species (ntypx) = 10
     Max number of k-points (npk) =  40000
     Max angular momentum in pseudopotentials (lmaxx) =  3
     Presently stress not available with electric field and gates

     Message from routine cell_base_init:
     DEPRECATED: use true lattice parameter, not A to a.u. conversion factor
     Message from routine emend_upf/check:
     BEWARE !!! Possible out of bounds while fixing pseudo
     Message from routine emend_upf/check:
     BEWARE !!! Possible out of bounds while fixing pseudo
     Message from routine read_upf:
     Pseudo file W.pbe-spn-rrkjus_psl.0.2.3.UPF has been fixed on the fly.
     To avoid this message in the future, permanently fix
     your pseudo files following these instructions:
     file Mo.pbe-spn-rrkjus_psl.1.0.0.UPF: wavefunction(s)  4S renormalized

     IMPORTANT: XC functional enforced from input :
     Exchange-correlation= BEEF-VDW
                           (   1   4  43  14   2   0   0)
     Any further DFT definition will be discarded
     Please, verify this is what you really want

     Subspace diagonalization in iterative solution of the eigenvalue problem:
     a serial algorithm will be used

     Found symmetry operation: I + (  0.5000  0.0000  0.0000)
     This is a supercell, fractional translations are disabled

     bravais-lattice index     =            0
     lattice parameter (alat)  =       1.8897  a.u.
     unit-cell volume          =    4713.1912 (a.u.)^3
     number of atoms/cell      =           12
     number of atomic types    =            2
     number of electrons       =       168.00
     number of Kohn-Sham states=          101
     kinetic-energy cutoff     =      55.1240  Ry
     charge density cutoff     =     551.2396  Ry
     convergence threshold     =      1.0E-05
     mixing beta               =       0.1000
     number of iterations used =           10  plain     mixing
     Exchange-correlation= BEEF-VDW
                           (   1   4  43  14   2   0   0)

     celldm(1)=   1.889726  celldm(2)=   0.000000  celldm(3)=   0.000000
     celldm(4)=   0.000000  celldm(5)=   0.000000  celldm(6)=   0.000000

     crystal axes: (cart. coord. in units of alat)
               a(1) = (   5.332476   0.000000   0.000000 )
               a(2) = (  -2.666238   5.321014   0.000000 )
               a(3) = (   0.000000   0.000000  24.614739 )

     reciprocal axes: (cart. coord. in units 2 pi/alat)
               b(1) = (  0.187530  0.093967 -0.000000 )
               b(2) = (  0.000000  0.187934  0.000000 )
               b(3) = (  0.000000 -0.000000  0.040626 )

     PseudoPot. # 1 for Mo read from file:
     ../pseudo/Mo.pbe-spn-rrkjus_psl.1.0.0.UPF
     MD5 check sum: 03f09b12e49601d1a456a78ce8b2d514
     Pseudo is Ultrasoft + core correction, Zval = 14.0
     Generated using "atomic" code by A. Dal Corso v.6.3
     Using radial grid of 1229 points,  6 beta functions with:
                l(1) =   0
                l(2) =   0
                l(3) =   1
                l(4) =   1
                l(5) =   2
                l(6) =   2
     Q(r) pseudized with 0 coefficients

     PseudoPot. # 2 for W  read from file:
     ../pseudo/W.pbe-spn-rrkjus_psl.0.2.3.UPF
     MD5 check sum: 25b665cf2bbae626ad8d9f1bc024df95
     Pseudo is Ultrasoft + core correction, Zval = 14.0
     Generated using "atomic" code by A. Dal Corso v.5.0.2 svn rev. 10551
     Using radial grid of 1273 points,  6 beta functions with:
                l(1) =   0
                l(2) =   0
                l(3) =   1
                l(4) =   1
                l(5) =   2
                l(6) =   2
     Q(r) pseudized with 0 coefficients

     atomic species   valence    mass     pseudopotential
        Mo            14.00    95.95000     Mo( 1.00)
        W             14.00   183.84000     W ( 1.00)

     No symmetry found

   Cartesian axes

     site n.     atom                  positions (alat units)
         1           Mo  tau(   1) = (   0.0000000   0.0000000  10.0000000  )
         2           Mo  tau(   2) = (   2.6662379   0.0000000  10.0000000  )
         3           W   tau(   3) = (   1.3331190   2.6605068  10.0000000  )
         4           W   tau(   4) = (  -1.3331190   2.6605068  10.0000000  )
         5           Mo  tau(   5) = (   2.6662379   1.3359907  12.3073694  )
         6           Mo  tau(   6) = (   0.0000000   1.3359907  12.3073694  )
         7           W   tau(   7) = (  -1.3331190   3.9964975  12.3073694  )
         8           W   tau(   8) = (   1.3331190   3.9964975  12.3073694  )
         9           Mo  tau(   9) = (   0.0004988   2.7586291  14.6018015  )
        10           Mo  tau(  10) = (   2.6667380   2.7586268  14.6017961  )
        11           W   tau(  11) = (   3.9992420   0.0909488  14.5848683  )
        12           W   tau(  12) = (   1.3330010   0.0909537  14.5848622  )

     number of k points=    74  Fermi-Dirac smearing, width (Ry)=  0.0100
                       cart. coord. in units 2pi/alat
        k(    1) = (   0.0000000   0.0000000   0.0000000), wk =   0.0138889
        k(    2) = (   0.0000000   0.0156612   0.0000000), wk =   0.0277778
        k(    3) = (   0.0000000   0.0313224   0.0000000), wk =   0.0277778
        k(    4) = (   0.0000000   0.0469835   0.0000000), wk =   0.0277778
        k(    5) = (   0.0000000   0.0626447   0.0000000), wk =   0.0277778
        k(    6) = (   0.0000000   0.0783059   0.0000000), wk =   0.0277778
        k(    7) = (   0.0000000  -0.0939671   0.0000000), wk =   0.0138889
        k(    8) = (   0.0156275   0.0078306   0.0000000), wk =   0.0277778
        k(    9) = (   0.0156275   0.0234918   0.0000000), wk =   0.0277778
        k(   10) = (   0.0156275   0.0391529   0.0000000), wk =   0.0277778
        k(   11) = (   0.0156275   0.0548141   0.0000000), wk =   0.0277778
        k(   12) = (   0.0156275   0.0704753   0.0000000), wk =   0.0277778
        k(   13) = (   0.0156275   0.0861365   0.0000000), wk =   0.0277778
        k(   14) = (   0.0156275  -0.0861365   0.0000000), wk =   0.0277778
        k(   15) = (   0.0156275  -0.0704753   0.0000000), wk =   0.0277778
        k(   16) = (   0.0156275  -0.0548141   0.0000000), wk =   0.0277778
        k(   17) = (   0.0156275  -0.0391529   0.0000000), wk =   0.0277778
        k(   18) = (   0.0156275  -0.0234918   0.0000000), wk =   0.0277778
        k(   19) = (   0.0156275  -0.0078306   0.0000000), wk =   0.0277778
        k(   20) = (   0.0312550   0.0156612   0.0000000), wk =   0.0277778
        k(   21) = (   0.0312550   0.0313224   0.0000000), wk =   0.0277778
        k(   22) = (   0.0312550   0.0469835   0.0000000), wk =   0.0277778
        k(   23) = (   0.0312550   0.0626447   0.0000000), wk =   0.0277778
        k(   24) = (   0.0312550   0.0783059   0.0000000), wk =   0.0277778
        k(   25) = (   0.0312550   0.0939671   0.0000000), wk =   0.0277778
        k(   26) = (   0.0312550  -0.0783059   0.0000000), wk =   0.0277778
        k(   27) = (   0.0312550  -0.0626447   0.0000000), wk =   0.0277778
        k(   28) = (   0.0312550  -0.0469835   0.0000000), wk =   0.0277778
        k(   29) = (   0.0312550  -0.0313224   0.0000000), wk =   0.0277778
        k(   30) = (   0.0312550  -0.0156612   0.0000000), wk =   0.0277778
        k(   31) = (   0.0312550  -0.0000000   0.0000000), wk =   0.0277778
        k(   32) = (   0.0468825   0.0234918   0.0000000), wk =   0.0277778
        k(   33) = (   0.0468825   0.0391529   0.0000000), wk =   0.0277778
        k(   34) = (   0.0468825   0.0548141   0.0000000), wk =   0.0277778
        k(   35) = (   0.0468825   0.0704753   0.0000000), wk =   0.0277778
        k(   36) = (   0.0468825   0.0861365   0.0000000), wk =   0.0277778
        k(   37) = (   0.0468825   0.1017976   0.0000000), wk =   0.0277778
        k(   38) = (   0.0468825  -0.0704753   0.0000000), wk =   0.0277778
        k(   39) = (   0.0468825  -0.0548141   0.0000000), wk =   0.0277778
        k(   40) = (   0.0468825  -0.0391529   0.0000000), wk =   0.0277778
        k(   41) = (   0.0468825  -0.0234918   0.0000000), wk =   0.0277778
        k(   42) = (   0.0468825  -0.0078306   0.0000000), wk =   0.0277778
        k(   43) = (   0.0468825   0.0078306   0.0000000), wk =   0.0277778
        k(   44) = (   0.0625100   0.0313224   0.0000000), wk =   0.0277778
        k(   45) = (   0.0625100   0.0469835   0.0000000), wk =   0.0277778
        k(   46) = (   0.0625100   0.0626447   0.0000000), wk =   0.0277778
        k(   47) = (   0.0625100   0.0783059   0.0000000), wk =   0.0277778
        k(   48) = (   0.0625100   0.0939671   0.0000000), wk =   0.0277778
        k(   49) = (   0.0625100   0.1096282   0.0000000), wk =   0.0277778
        k(   50) = (   0.0625100  -0.0626447   0.0000000), wk =   0.0277778
        k(   51) = (   0.0625100  -0.0469835   0.0000000), wk =   0.0277778
        k(   52) = (   0.0625100  -0.0313224   0.0000000), wk =   0.0277778
        k(   53) = (   0.0625100  -0.0156612   0.0000000), wk =   0.0277778
        k(   54) = (   0.0625100   0.0000000   0.0000000), wk =   0.0277778
        k(   55) = (   0.0625100   0.0156612   0.0000000), wk =   0.0277778
        k(   56) = (   0.0781376   0.0391529   0.0000000), wk =   0.0277778
        k(   57) = (   0.0781376   0.0548141   0.0000000), wk =   0.0277778
        k(   58) = (   0.0781376   0.0704753   0.0000000), wk =   0.0277778
        k(   59) = (   0.0781376   0.0861365   0.0000000), wk =   0.0277778
        k(   60) = (   0.0781376   0.1017976   0.0000000), wk =   0.0277778
        k(   61) = (   0.0781376   0.1174588   0.0000000), wk =   0.0277778
        k(   62) = (   0.0781376  -0.0548141   0.0000000), wk =   0.0277778
        k(   63) = (   0.0781376  -0.0391529   0.0000000), wk =   0.0277778
        k(   64) = (   0.0781376  -0.0234918   0.0000000), wk =   0.0277778
        k(   65) = (   0.0781376  -0.0078306   0.0000000), wk =   0.0277778
        k(   66) = (   0.0781376   0.0078306   0.0000000), wk =   0.0277778
        k(   67) = (   0.0781376   0.0234918   0.0000000), wk =   0.0277778
        k(   68) = (  -0.0937651  -0.0469835   0.0000000), wk =   0.0138889
        k(   69) = (  -0.0937651  -0.0313224   0.0000000), wk =   0.0277778
        k(   70) = (  -0.0937651  -0.0156612   0.0000000), wk =   0.0277778
        k(   71) = (  -0.0937651   0.0000000   0.0000000), wk =   0.0277778
        k(   72) = (  -0.0937651   0.0156612   0.0000000), wk =   0.0277778
        k(   73) = (  -0.0937651   0.0313224   0.0000000), wk =   0.0277778
        k(   74) = (  -0.0937651  -0.1409506   0.0000000), wk =   0.0138889

     Initial potential from superposition of free atoms

     starting charge  167.99137, renormalised to  168.00000

     negative rho (up, down):  8.592E-04 0.000E+00

     %%%%%%%%%%%%%%%%%%%%%%%%%%%%%%%%%%%%%%%%%%%%%%%%%%%%%%%%%%%%%%%%%%%%%%%%
     %                                                                      %
     % You are using vdW-DF, which was implemented by the Thonhauser group. %
     % Please cite the following two papers that made this development      %
     % possible and the two reviews that describe the various versions:     %
     %                                                                      %
     %   T. Thonhauser et al., PRL 115, 136402 (2015).                      %
     %   T. Thonhauser et al., PRB 76, 125112 (2007).                       %
     %   K. Berland et al., Rep. Prog. Phys. 78, 066501 (2015).             %
     %   D.C. Langreth et al., J. Phys.: Condens. Matter 21, 084203 (2009). %
     %                                                                      %
     %                                                                      %
     % If you are calculating the stress with vdW-DF, please also cite:     %
     %                                                                      %
     %   R. Sabatini et al., J. Phys.: Condens. Matter 24, 424209 (2012).   %
     %                                                                      %
     %%%%%%%%%%%%%%%%%%%%%%%%%%%%%%%%%%%%%%%%%%%%%%%%%%%%%%%%%%%%%%%%%%%%%%%%

     Adding external electric field

     Computed dipole along edir(3) :
        Dipole                0.0000 Ry au,          0.0000 Debye
        Dipole field          0.0000 Ry au,

        Potential amp.       -0.0000 Ry
        Total length         45.3522 bohr

     Starting wfcs are  138 randomized atomic wfcs

     Self-consistent Calculation

     iteration #  1     ecut=    55.12 Ry     beta= 0.10
     Davidson diagonalization with overlap
     ethr =  1.00E-02,  avg # of iterations =  2.0

[...]

     total energy              =   -1795.08762888 Ry
     estimated scf accuracy    <       5.71833648 Ry

[...]

     iteration #  7     ecut=    55.12 Ry     beta= 0.10
     Davidson diagonalization with overlap
     c_bands:  2 eigenvalues not converged
     ethr =  4.04E-05,  avg # of iterations =  9.9

[...]

     iteration # 14     ecut=    55.12 Ry     beta= 0.10
     Davidson diagonalization with overlap
     c_bands:  1 eigenvalues not converged
     ethr =  2.59E-07,  avg # of iterations =  2.2

[...]

     total energy              =   -1795.59601357 Ry
     estimated scf accuracy    <       0.00001106 Ry

     iteration # 15     ecut=    55.12 Ry     beta= 0.10
     Davidson diagonalization with overlap
     ethr =  6.58E-09,  avg # of iterations =  7.0

[...]

     Adding external electric field

     Computed dipole along edir(3) :
        Dipole                0.0056 Ry au,          0.0143 Debye
        Dipole field          0.0000 Ry au,

        Potential amp.       -0.0014 Ry
        Total length         45.3522 bohr

     End of self-consistent calculation

          k = 0.0000 0.0000 0.0000 ( 32501 PWs)   bands (ev):

   -72.1925 -72.1128 -72.0900 -72.0736 -72.0119 -71.9955 -59.0569 -58.9150
   -58.8576 -58.8378 -58.7181 -58.6983 -36.8118 -36.6236 -36.5754 -36.5618
   -36.4774 -36.3458 -36.2477 -36.2041 -36.1849 -36.1595 -36.1284 -36.0439
   -36.0235 -35.8484 -35.7405 -35.7226 -35.5109 -35.4967 -33.5883 -33.3413
   -33.3220 -33.3030 -33.2125 -33.0726 -32.9663 -32.9530 -32.8588 -32.8246
   -32.8227 -32.7524 -32.7140 -32.5803 -32.4955 -32.4725 -32.2348 -32.2196
    -5.1744  -3.4809  -3.0406  -2.6704  -2.6477  -2.5043  -2.4375  -2.1548
    -2.1406  -1.6840  -1.6753  -1.5935  -1.5376  -1.5232  -1.4049  -0.4541
    -0.3652  -0.1905  -0.0657   0.0317   0.2562   0.6814   0.7341   0.7726
     0.8781   1.0147   1.6054   1.7456   1.8446   1.9592   2.2744   2.3245
     2.4314   2.6131   2.7024   2.8975   3.0109   3.0120   3.0537   3.2373
     3.2994   3.4107   3.5672   3.6836   3.9691   4.3062   4.3736   4.4871
     4.5406   4.5805   4.7832   4.9835   5.1618

[...]

          k = 0.0781 0.0235 0.0000 ( 32578 PWs)   bands (ev):

[...]

          k =-0.0938-0.0470 0.0000 ( 32602 PWs)   bands (ev):

[...]

          k =-0.0938-0.1410 0.0000 ( 32602 PWs)   bands (ev):

   -72.1528 -72.1528 -72.0511 -72.0511 -72.0347 -72.0347 -58.9867 -58.9867
   -58.7885 -58.7885 -58.7687 -58.7687 -36.5458 -36.5458 -36.2854 -36.2854
   -36.2636 -36.2636 -36.1915 -36.1915 -36.1083 -36.1083 -36.0846 -36.0845
   -36.0591 -36.0591 -36.0444 -36.0444 -35.7943 -35.7943 -33.2857 -33.2857
   -33.0657 -33.0656 -33.0282 -33.0282 -32.8833 -32.8833 -32.8178 -32.8178
   -32.7971 -32.7971 -32.7830 -32.7830 -32.7761 -32.7761 -32.5275 -32.5275
    -3.2594  -3.2594  -1.9437  -1.9437  -1.5814  -1.5813  -1.2738  -1.2738
    -1.2656  -1.2656  -0.7613  -0.7613  -0.3547  -0.3547  -0.2666  -0.2666
    -0.0671  -0.0671   0.2234   0.2234   0.5449   0.5449   0.9243   0.9243
     1.0699   1.0699   1.2464   1.2464   1.3429   1.3429   1.4817   1.4817
     1.6055   1.6055   1.7069   1.7069   1.8489   1.8489   2.5773   2.5773
     2.8279   2.8279   2.9020   2.9021   3.1127   3.1127   3.4797   3.4798
     3.6399   3.6403   3.7069   3.7076   3.7745

     the Fermi energy is     2.2552 ev

!    total energy              =   -1795.59597772 Ry
     estimated scf accuracy    <       0.00000669 Ry
     smearing contrib. (-TS)   =      -0.06371154 Ry
     internal energy E=F+TS    =   -1795.53226618 Ry

     The total energy is F=E-TS. E is the sum of the following terms:
     one-electron contribution =  -14680.06294141 Ry
     hartree contribution      =    7326.76664154 Ry
     xc contribution           =    -368.23088828 Ry
     ewald contribution        =    5925.99492189 Ry
     electric field correction =       0.00000008 Ry

     convergence has been achieved in  15 iterations

     negative rho (up, down):  1.673E-03 0.000E+00

     Forces acting on atoms (cartesian axes, Ry/au):

     atom    1 type  1   force =     0.00001055   -0.00321416    0.00517155
     atom    2 type  1   force =     0.00001234   -0.00321742    0.00517218
     atom    3 type  2   force =    -0.00002053   -0.00147093    0.01215333
     atom    4 type  2   force =    -0.00000778   -0.00147049    0.01215731
     atom    5 type  1   force =    -0.00002496    0.00325575   -0.00817738
     atom    6 type  1   force =    -0.00004233    0.00325662   -0.00817881
     atom    7 type  2   force =     0.00001564    0.00183313   -0.00819672
     atom    8 type  2   force =     0.00001901    0.00183821   -0.00818698
     atom    9 type  1   force =     0.00001289   -0.00049030    0.00116053
     atom   10 type  1   force =     0.00002176   -0.00049070    0.00116218
     atom   11 type  2   force =     0.00000166    0.00008479   -0.00212659
     atom   12 type  2   force =     0.00000175    0.00008550   -0.00211060

     Total force =     0.026117     Total SCF correction =     0.004985
     SCF correction compared to forces is large: reduce conv_thr to get better values

     Writing output data file ./Mo2W2/Mo2W2_beef.save/

     General routines

     Parallel routines

   This run was terminated on:  20:41:37  23Jun2022

   JOB DONE.