     Program PWSCF v.6.6 starts on 10Jul2022 at 21: 0: 6

     R & G space division:  proc/nbgrp/npool/nimage =      37
     Fft bands division:     nmany     =       1
     Reading input from Nb2Cd2.in
Warning: card &CELL ignored
Warning: card / ignored

     Current dimensions of program PWSCF are:
     Max number of different atomic species (ntypx) = 10
     Max number of k-points (npk) =  40000
     Max angular momentum in pseudopotentials (lmaxx) =  3
     Presently stress not available with electric field and gates

     Message from routine cell_base_init:
     DEPRECATED: use true lattice parameter, not A to a.u. conversion factor
     file Nb.pbe-spn-rrkjus_psl.1.0.0.UPF: wavefunction(s)  4S 4P renormalized
     file Cd.pbe-n-rrkjus_psl.1.0.0.UPF: wavefunction(s)  4D renormalized

     IMPORTANT: XC functional enforced from input :
     Exchange-correlation= BEEF-VDW
                           (   1   4  43  14   2   0   0)
     Any further DFT definition will be discarded
     Please, verify this is what you really want

     Subspace diagonalization in iterative solution of the eigenvalue problem:
     a serial algorithm will be used

     Found symmetry operation: I + (  0.5000  0.0000  0.0000)
     This is a supercell, fractional translations are disabled

     bravais-lattice index     =            0
     lattice parameter (alat)  =       1.8897  a.u.
     unit-cell volume          =    5305.5777 (a.u.)^3
     number of atoms/cell      =           12
     number of atomic types    =            2
     number of electrons       =       150.00
     number of Kohn-Sham states=           90
     kinetic-energy cutoff     =      55.1240  Ry
     charge density cutoff     =     551.2396  Ry
     convergence threshold     =      1.0E-05
     mixing beta               =       0.1000
     number of iterations used =           10  plain     mixing
     Exchange-correlation= BEEF-VDW
                           (   1   4  43  14   2   0   0)

     celldm(1)=   1.889726  celldm(2)=   0.000000  celldm(3)=   0.000000
     celldm(4)=   0.000000  celldm(5)=   0.000000  celldm(6)=   0.000000

     crystal axes: (cart. coord. in units of alat)
               a(1) = (   5.730235   0.000000   0.000000 )
               a(2) = (  -2.865117   5.511260   0.000000 )
               a(3) = (   0.000000   0.000000  24.895040 )

     reciprocal axes: (cart. coord. in units 2 pi/alat)
               b(1) = (  0.174513  0.090723 -0.000000 )
               b(2) = (  0.000000  0.181447  0.000000 )
               b(3) = (  0.000000 -0.000000  0.040169 )

     PseudoPot. # 1 for Nb read from file:
     ../pseudo/Nb.pbe-spn-rrkjus_psl.1.0.0.UPF
     MD5 check sum: 6ee677a9f002bd3e3657f443f129faad
     Pseudo is Ultrasoft + core correction, Zval = 13.0
     Generated using "atomic" code by A. Dal Corso v.6.2.2
     Using radial grid of 1227 points,  6 beta functions with:
                l(1) =   0
                l(2) =   0
                l(3) =   1
                l(4) =   1
                l(5) =   2
                l(6) =   2
     Q(r) pseudized with 0 coefficients

     PseudoPot. # 2 for Cd read from file:
     ../pseudo/Cd.pbe-n-rrkjus_psl.1.0.0.UPF
     MD5 check sum: a744746c89d2344a134ead0d8ab94e7a
     Pseudo is Ultrasoft + core correction, Zval = 12.0
     Generated using "atomic" code by A. Dal Corso v.6.3
     Using radial grid of 1239 points,  6 beta functions with:
                l(1) =   0
                l(2) =   0
                l(3) =   1
                l(4) =   1
                l(5) =   2
                l(6) =   2
     Q(r) pseudized with 0 coefficients

     atomic species   valence    mass     pseudopotential
        Nb            13.00    92.90637     Nb( 1.00)
        Cd            12.00   112.41400     Cd( 1.00)

     No symmetry found

   Cartesian axes

     site n.     atom                  positions (alat units)
         1           Nb  tau(   1) = (   0.0000000   0.0000000  10.0000000  )
         2           Nb  tau(   2) = (   2.8651174   0.0000000  10.0000000  )
         3           Cd  tau(   3) = (   1.4325587   2.7556299  10.0000000  )
         4           Cd  tau(   4) = (  -1.4325587   2.7556299  10.0000000  )
         5           Nb  tau(   5) = (   2.8651174   1.4894775  12.4475200  )
         6           Nb  tau(   6) = (  -0.0000000   1.4894775  12.4475200  )
         7           Cd  tau(   7) = (  -1.4325587   4.2451074  12.4475200  )
         8           Cd  tau(   8) = (   1.4325587   4.2451074  12.4475200  )
         9           Nb  tau(   9) = (  -0.0000110   2.8200598  14.7363054  )
        10           Nb  tau(  10) = (   2.8651072   2.8200565  14.7363066  )
        11           Cd  tau(  11) = (   4.2976628   0.1303855  15.1421241  )
        12           Cd  tau(  12) = (   1.4325922   0.1303711  15.1421568  )

     number of k points=    74  Fermi-Dirac smearing, width (Ry)=  0.0100
                       cart. coord. in units 2pi/alat
        k(    1) = (   0.0000000   0.0000000   0.0000000), wk =   0.0138889
        k(    2) = (   0.0000000   0.0151206   0.0000000), wk =   0.0277778
        k(    3) = (   0.0000000   0.0302411   0.0000000), wk =   0.0277778
        k(    4) = (   0.0000000   0.0453617   0.0000000), wk =   0.0277778
        k(    5) = (   0.0000000   0.0604822   0.0000000), wk =   0.0277778
        k(    6) = (   0.0000000   0.0756028   0.0000000), wk =   0.0277778
        k(    7) = (   0.0000000  -0.0907234   0.0000000), wk =   0.0138889
        k(    8) = (   0.0145427   0.0075603   0.0000000), wk =   0.0277778
        k(    9) = (   0.0145427   0.0226808   0.0000000), wk =   0.0277778
        k(   10) = (   0.0145427   0.0378014   0.0000000), wk =   0.0277778
        k(   11) = (   0.0145427   0.0529220   0.0000000), wk =   0.0277778
        k(   12) = (   0.0145427   0.0680425   0.0000000), wk =   0.0277778
        k(   13) = (   0.0145427   0.0831631   0.0000000), wk =   0.0277778
        k(   14) = (   0.0145427  -0.0831631   0.0000000), wk =   0.0277778
        k(   15) = (   0.0145427  -0.0680425   0.0000000), wk =   0.0277778
        k(   16) = (   0.0145427  -0.0529220   0.0000000), wk =   0.0277778
        k(   17) = (   0.0145427  -0.0378014   0.0000000), wk =   0.0277778
        k(   18) = (   0.0145427  -0.0226808   0.0000000), wk =   0.0277778
        k(   19) = (   0.0145427  -0.0075603   0.0000000), wk =   0.0277778
        k(   20) = (   0.0290855   0.0151206   0.0000000), wk =   0.0277778
        k(   21) = (   0.0290855   0.0302411   0.0000000), wk =   0.0277778
        k(   22) = (   0.0290855   0.0453617   0.0000000), wk =   0.0277778
        k(   23) = (   0.0290855   0.0604822   0.0000000), wk =   0.0277778
        k(   24) = (   0.0290855   0.0756028   0.0000000), wk =   0.0277778
        k(   25) = (   0.0290855   0.0907234   0.0000000), wk =   0.0277778
        k(   26) = (   0.0290855  -0.0756028   0.0000000), wk =   0.0277778
        k(   27) = (   0.0290855  -0.0604822   0.0000000), wk =   0.0277778
        k(   28) = (   0.0290855  -0.0453617   0.0000000), wk =   0.0277778
        k(   29) = (   0.0290855  -0.0302411   0.0000000), wk =   0.0277778
        k(   30) = (   0.0290855  -0.0151206   0.0000000), wk =   0.0277778
        k(   31) = (   0.0290855  -0.0000000   0.0000000), wk =   0.0277778
        k(   32) = (   0.0436282   0.0226808   0.0000000), wk =   0.0277778
        k(   33) = (   0.0436282   0.0378014   0.0000000), wk =   0.0277778
        k(   34) = (   0.0436282   0.0529220   0.0000000), wk =   0.0277778
        k(   35) = (   0.0436282   0.0680425   0.0000000), wk =   0.0277778
        k(   36) = (   0.0436282   0.0831631   0.0000000), wk =   0.0277778
        k(   37) = (   0.0436282   0.0982836   0.0000000), wk =   0.0277778
        k(   38) = (   0.0436282  -0.0680425   0.0000000), wk =   0.0277778
        k(   39) = (   0.0436282  -0.0529220   0.0000000), wk =   0.0277778
        k(   40) = (   0.0436282  -0.0378014   0.0000000), wk =   0.0277778
        k(   41) = (   0.0436282  -0.0226808   0.0000000), wk =   0.0277778
        k(   42) = (   0.0436282  -0.0075603   0.0000000), wk =   0.0277778
        k(   43) = (   0.0436282   0.0075603   0.0000000), wk =   0.0277778
        k(   44) = (   0.0581710   0.0302411   0.0000000), wk =   0.0277778
        k(   45) = (   0.0581710   0.0453617   0.0000000), wk =   0.0277778
        k(   46) = (   0.0581710   0.0604822   0.0000000), wk =   0.0277778
        k(   47) = (   0.0581710   0.0756028   0.0000000), wk =   0.0277778
        k(   48) = (   0.0581710   0.0907234   0.0000000), wk =   0.0277778
        k(   49) = (   0.0581710   0.1058439   0.0000000), wk =   0.0277778
        k(   50) = (   0.0581710  -0.0604822   0.0000000), wk =   0.0277778
        k(   51) = (   0.0581710  -0.0453617   0.0000000), wk =   0.0277778
        k(   52) = (   0.0581710  -0.0302411   0.0000000), wk =   0.0277778
        k(   53) = (   0.0581710  -0.0151206   0.0000000), wk =   0.0277778
        k(   54) = (   0.0581710  -0.0000000   0.0000000), wk =   0.0277778
        k(   55) = (   0.0581710   0.0151206   0.0000000), wk =   0.0277778
        k(   56) = (   0.0727137   0.0378014   0.0000000), wk =   0.0277778
        k(   57) = (   0.0727137   0.0529220   0.0000000), wk =   0.0277778
        k(   58) = (   0.0727137   0.0680425   0.0000000), wk =   0.0277778
        k(   59) = (   0.0727137   0.0831631   0.0000000), wk =   0.0277778
        k(   60) = (   0.0727137   0.0982836   0.0000000), wk =   0.0277778
        k(   61) = (   0.0727137   0.1134042   0.0000000), wk =   0.0277778
        k(   62) = (   0.0727137  -0.0529220   0.0000000), wk =   0.0277778
        k(   63) = (   0.0727137  -0.0378014   0.0000000), wk =   0.0277778
        k(   64) = (   0.0727137  -0.0226808   0.0000000), wk =   0.0277778
        k(   65) = (   0.0727137  -0.0075603   0.0000000), wk =   0.0277778
        k(   66) = (   0.0727137   0.0075603   0.0000000), wk =   0.0277778
        k(   67) = (   0.0727137   0.0226808   0.0000000), wk =   0.0277778
        k(   68) = (  -0.0872565  -0.0453617   0.0000000), wk =   0.0138889
        k(   69) = (  -0.0872565  -0.0302411   0.0000000), wk =   0.0277778
        k(   70) = (  -0.0872565  -0.0151206   0.0000000), wk =   0.0277778
        k(   71) = (  -0.0872565   0.0000000   0.0000000), wk =   0.0277778
        k(   72) = (  -0.0872565   0.0151206   0.0000000), wk =   0.0277778
        k(   73) = (  -0.0872565   0.0302411   0.0000000), wk =   0.0277778
        k(   74) = (  -0.0872565  -0.1360850   0.0000000), wk =   0.0138889

     Initial potential from superposition of free atoms

     starting charge  149.96285, renormalised to  150.00000

     negative rho (up, down):  2.969E-03 0.000E+00

     %%%%%%%%%%%%%%%%%%%%%%%%%%%%%%%%%%%%%%%%%%%%%%%%%%%%%%%%%%%%%%%%%%%%%%%%
     %                                                                      %
     % You are using vdW-DF, which was implemented by the Thonhauser group. %
     % Please cite the following two papers that made this development      %
     % possible and the two reviews that describe the various versions:     %
     %                                                                      %
     %   T. Thonhauser et al., PRL 115, 136402 (2015).                      %
     %   T. Thonhauser et al., PRB 76, 125112 (2007).                       %
     %   K. Berland et al., Rep. Prog. Phys. 78, 066501 (2015).             %
     %   D.C. Langreth et al., J. Phys.: Condens. Matter 21, 084203 (2009). %
     %                                                                      %
     %                                                                      %
     % If you are calculating the stress with vdW-DF, please also cite:     %
     %                                                                      %
     %   R. Sabatini et al., J. Phys.: Condens. Matter 24, 424209 (2012).   %
     %                                                                      %
     %%%%%%%%%%%%%%%%%%%%%%%%%%%%%%%%%%%%%%%%%%%%%%%%%%%%%%%%%%%%%%%%%%%%%%%%

     Adding external electric field

     Computed dipole along edir(3) :
        Dipole                0.0029 Ry au,          0.0074 Debye
        Dipole field          0.0000 Ry au,

        Potential amp.       -0.0006 Ry
        Total length         45.8687 bohr

     Starting wfcs are  132 randomized atomic wfcs

     Self-consistent Calculation

     iteration #  1     ecut=    55.12 Ry     beta= 0.10
     Davidson diagonalization with overlap
     ethr =  1.00E-02,  avg # of iterations =  2.0

[...]

     total energy              =   -1318.62798185 Ry
     estimated scf accuracy    <       2.96699890 Ry

[...]

     iteration #  8     ecut=    55.12 Ry     beta= 0.10
     Davidson diagonalization with overlap
     c_bands:  3 eigenvalues not converged
     c_bands:  3 eigenvalues not converged
     c_bands:  1 eigenvalues not converged
     c_bands:  1 eigenvalues not converged
     c_bands:  1 eigenvalues not converged
     c_bands:  3 eigenvalues not converged
     c_bands:  2 eigenvalues not converged
     c_bands:  2 eigenvalues not converged
     c_bands:  1 eigenvalues not converged
     c_bands:  1 eigenvalues not converged
     c_bands:  1 eigenvalues not converged
     c_bands:  1 eigenvalues not converged
     c_bands:  2 eigenvalues not converged
     ethr =  1.31E-05,  avg # of iterations = 13.5

[...]

     iteration # 15     ecut=    55.12 Ry     beta= 0.10
     Davidson diagonalization with overlap
     c_bands:  1 eigenvalues not converged
     ethr =  1.80E-08,  avg # of iterations =  2.2

[...]

     total energy              =   -1318.86935388 Ry
     estimated scf accuracy    <       0.00002121 Ry

     iteration # 16     ecut=    55.12 Ry     beta= 0.10
     Davidson diagonalization with overlap
     ethr =  1.41E-08,  avg # of iterations =  3.0

[...]

     Adding external electric field

     Computed dipole along edir(3) :
        Dipole               -0.0332 Ry au,         -0.0844 Debye
        Dipole field         -0.0001 Ry au,

        Potential amp.        0.0072 Ry
        Total length         45.8687 bohr

     End of self-consistent calculation

          k = 0.0000 0.0000 0.0000 ( 36635 PWs)   bands (ev):

   -54.1477 -54.0512 -53.9734 -53.8750 -53.7654 -53.6674 -30.4295 -30.3980
   -30.3175 -30.3026 -30.2344 -30.1554 -30.1463 -30.1358 -30.0486 -30.0318
   -29.9305 -29.8739 -29.7728 -29.5547 -29.4422 -29.4233 -29.3395 -29.3149
    -8.4171  -8.2115  -8.1697  -8.0803  -8.0714  -7.9168  -7.8943  -7.8482
    -7.8182  -7.7461  -7.7421  -7.6706  -7.5014  -7.4304  -7.3720  -7.3295
    -7.3152  -7.2933  -7.2462  -7.2383  -7.2298  -7.2202  -7.1552  -7.0644
    -7.0477  -6.9950  -6.9380  -6.8895  -6.8045  -6.5792  -5.9792  -4.3983
    -2.8039  -2.0119  -1.6178  -1.0854  -1.0764  -0.9944  -0.6382  -0.4942
    -0.4111  -0.1755   0.1407   0.1518   0.4916   0.5310   0.6554   0.6670
     1.1644   1.4084   1.4128   1.4987   1.6471   1.6638   2.1529   2.4326
     2.4385   2.5059   2.6104   2.7504   2.9619   3.1571   3.4357   3.7415
     3.7450   3.7744

[...]

          k = 0.0727 0.0227 0.0000 ( 36694 PWs)   bands (ev):

[...]

          k =-0.0873-0.0454 0.0000 ( 36670 PWs)   bands (ev):

[...]

          k =-0.0873-0.1361 0.0000 ( 36670 PWs)   bands (ev):

   -54.0999 -54.0996 -53.9246 -53.9245 -53.7167 -53.7166 -30.3744 -30.3742
   -30.1857 -30.1854 -30.0986 -30.0984 -29.9878 -29.9875 -29.9821 -29.9820
   -29.8840 -29.8840 -29.8241 -29.8241 -29.7467 -29.7467 -29.3815 -29.3815
    -7.9691  -7.9691  -7.8114  -7.8114  -7.7617  -7.7617  -7.6711  -7.6711
    -7.6462  -7.6461  -7.4732  -7.4732  -7.4467  -7.4467  -7.3876  -7.3876
    -7.3725  -7.3725  -7.3426  -7.3426  -7.3150  -7.3150  -7.2907  -7.2907
    -7.2109  -7.2108  -7.1781  -7.1781  -7.1056  -7.1056  -4.4349  -4.4349
    -3.1290  -3.1289  -1.9484  -1.9483  -0.9609  -0.9608  -0.3864  -0.3864
     0.1735   0.1736   0.2843   0.2843   0.6685   0.6685   0.7955   0.7955
     0.9709   0.9709   1.3023   1.3023   1.4323   1.4323   1.6255   1.6256
     2.0662   2.0663   2.3104   2.3104   2.7673   2.7673   3.0481   3.0481
     3.5915   3.5916

     the Fermi energy is     1.2353 ev

!    total energy              =   -1318.86935452 Ry
     estimated scf accuracy    <       0.00000465 Ry
     smearing contrib. (-TS)   =      -0.05564037 Ry
     internal energy E=F+TS    =   -1318.81371415 Ry

     The total energy is F=E-TS. E is the sum of the following terms:
     one-electron contribution =  -10232.03543120 Ry
     hartree contribution      =    5153.31027633 Ry
     xc contribution           =    -257.58541529 Ry
     ewald contribution        =    4017.49685341 Ry
     electric field correction =       0.00000261 Ry

     convergence has been achieved in  16 iterations

     negative rho (up, down):  3.032E-03 0.000E+00

     Forces acting on atoms (cartesian axes, Ry/au):

     atom    1 type  1   force =    -0.00000788    0.01674823    0.03198763
     atom    2 type  1   force =     0.00000349    0.01675472    0.03197275
     atom    3 type  2   force =    -0.00000551   -0.00779860   -0.02964635
     atom    4 type  2   force =    -0.00000486   -0.00779097   -0.02961719
     atom    5 type  1   force =     0.00000245   -0.01689380   -0.00929809
     atom    6 type  1   force =    -0.00000158   -0.01686869   -0.00925667
     atom    7 type  2   force =    -0.00003545    0.00924700    0.00610357
     atom    8 type  2   force =     0.00003249    0.00924250    0.00610101
     atom    9 type  1   force =     0.00000390   -0.00046595   -0.00062977
     atom   10 type  1   force =    -0.00000045   -0.00046038   -0.00062818
     atom   11 type  2   force =     0.00003180   -0.00085208    0.00146251
     atom   12 type  2   force =    -0.00001840   -0.00086197    0.00144878

     Total force =     0.074018     Total SCF correction =     0.012437
     SCF correction compared to forces is large: reduce conv_thr to get better values

     Writing output data file ./Nb2Cd2/Nb2Cd2_beef.save/

     General routines

     Parallel routines

   This run was terminated on:  21:38:45  10Jul2022

   JOB DONE.