     Program PWSCF v.6.6 starts on 25Jun2022 at  5: 6:47

     R & G space division:  proc/nbgrp/npool/nimage =      37
     Fft bands division:     nmany     =       1
     Reading input from Nb2Hf2.in
Warning: card &CELL ignored
Warning: card / ignored

     Current dimensions of program PWSCF are:
     Max number of different atomic species (ntypx) = 10
     Max number of k-points (npk) =  40000
     Max angular momentum in pseudopotentials (lmaxx) =  3
     Presently stress not available with electric field and gates

     Message from routine cell_base_init:
     DEPRECATED: use true lattice parameter, not A to a.u. conversion factor
     file Nb.pbe-spn-rrkjus_psl.1.0.0.UPF: wavefunction(s)  4S 4P renormalized

     IMPORTANT: XC functional enforced from input :
     Exchange-correlation= BEEF-VDW
                           (   1   4  43  14   2   0   0)
     Any further DFT definition will be discarded
     Please, verify this is what you really want

     Subspace diagonalization in iterative solution of the eigenvalue problem:
     a serial algorithm will be used

     Found symmetry operation: I + (  0.5000  0.0000  0.0000)
     This is a supercell, fractional translations are disabled

     bravais-lattice index     =            0
     lattice parameter (alat)  =       1.8897  a.u.
     unit-cell volume          =    5498.3885 (a.u.)^3
     number of atoms/cell      =           12
     number of atomic types    =            2
     number of electrons       =       150.00
     number of Kohn-Sham states=           90
     kinetic-energy cutoff     =      55.1240  Ry
     charge density cutoff     =     551.2396  Ry
     convergence threshold     =      1.0E-05
     mixing beta               =       0.1000
     number of iterations used =           10  plain     mixing
     Exchange-correlation= BEEF-VDW
                           (   1   4  43  14   2   0   0)

     celldm(1)=   1.889726  celldm(2)=   0.000000  celldm(3)=   0.000000
     celldm(4)=   0.000000  celldm(5)=   0.000000  celldm(6)=   0.000000

     crystal axes: (cart. coord. in units of alat)
               a(1) = (   5.886139   0.000000   0.000000 )
               a(2) = (  -2.943070   5.539845   0.000000 )
               a(3) = (   0.000000   0.000000  24.986808 )

     reciprocal axes: (cart. coord. in units 2 pi/alat)
               b(1) = (  0.169891  0.090255 -0.000000 )
               b(2) = (  0.000000  0.180510  0.000000 )
               b(3) = (  0.000000 -0.000000  0.040021 )

     PseudoPot. # 1 for Nb read from file:
     ../pseudo/Nb.pbe-spn-rrkjus_psl.1.0.0.UPF
     MD5 check sum: 6ee677a9f002bd3e3657f443f129faad
     Pseudo is Ultrasoft + core correction, Zval = 13.0
     Generated using "atomic" code by A. Dal Corso v.6.2.2
     Using radial grid of 1227 points,  6 beta functions with:
                l(1) =   0
                l(2) =   0
                l(3) =   1
                l(4) =   1
                l(5) =   2
                l(6) =   2
     Q(r) pseudized with 0 coefficients

     PseudoPot. # 2 for Hf read from file:
     ../pseudo/Hf.pbe-spn-rrkjus_psl.1.0.0.UPF
     MD5 check sum: 9605440c6f839e558204c6a924125fd0
     Pseudo is Ultrasoft + core correction, Zval = 12.0
     Generated using "atomic" code by A. Dal Corso v.6.2.2
     Using radial grid of 1271 points,  6 beta functions with:
                l(1) =   0
                l(2) =   0
                l(3) =   1
                l(4) =   1
                l(5) =   2
                l(6) =   2
     Q(r) pseudized with 0 coefficients

     atomic species   valence    mass     pseudopotential
        Nb            13.00    92.90637     Nb( 1.00)
        Hf            12.00   178.49000     Hf( 1.00)

     No symmetry found

   Cartesian axes

     site n.     atom                  positions (alat units)
         1           Nb  tau(   1) = (   0.0000000   0.0000000  10.0000000  )
         2           Nb  tau(   2) = (   2.9430695   0.0000000  10.0000000  )
         3           Hf  tau(   3) = (   1.4715348   2.7699225  10.0000000  )
         4           Hf  tau(   4) = (  -1.4715348   2.7699225  10.0000000  )
         5           Nb  tau(   5) = (   2.9430695   1.5635199  12.4934040  )
         6           Nb  tau(   6) = (   0.0000000   1.5635199  12.4934040  )
         7           Hf  tau(   7) = (  -1.4715348   4.3334425  12.4934040  )
         8           Hf  tau(   8) = (   1.4715348   4.3334425  12.4934040  )
         9           Nb  tau(   9) = (   0.0001688   3.0634119  14.7704236  )
        10           Nb  tau(  10) = (   2.9432383   3.0634118  14.7704220  )
        11           Hf  tau(  11) = (   4.4148258   0.3850712  15.0262310  )
        12           Hf  tau(  12) = (   1.4717916   0.3850686  15.0262361  )

     number of k points=    74  Fermi-Dirac smearing, width (Ry)=  0.0100
                       cart. coord. in units 2pi/alat
        k(    1) = (   0.0000000   0.0000000   0.0000000), wk =   0.0138889
        k(    2) = (   0.0000000   0.0150425   0.0000000), wk =   0.0277778
        k(    3) = (   0.0000000   0.0300851   0.0000000), wk =   0.0277778
        k(    4) = (   0.0000000   0.0451276   0.0000000), wk =   0.0277778
        k(    5) = (   0.0000000   0.0601702   0.0000000), wk =   0.0277778
        k(    6) = (   0.0000000   0.0752127   0.0000000), wk =   0.0277778
        k(    7) = (   0.0000000  -0.0902552   0.0000000), wk =   0.0138889
        k(    8) = (   0.0141576   0.0075213   0.0000000), wk =   0.0277778
        k(    9) = (   0.0141576   0.0225638   0.0000000), wk =   0.0277778
        k(   10) = (   0.0141576   0.0376063   0.0000000), wk =   0.0277778
        k(   11) = (   0.0141576   0.0526489   0.0000000), wk =   0.0277778
        k(   12) = (   0.0141576   0.0676914   0.0000000), wk =   0.0277778
        k(   13) = (   0.0141576   0.0827340   0.0000000), wk =   0.0277778
        k(   14) = (   0.0141576  -0.0827340   0.0000000), wk =   0.0277778
        k(   15) = (   0.0141576  -0.0676914   0.0000000), wk =   0.0277778
        k(   16) = (   0.0141576  -0.0526489   0.0000000), wk =   0.0277778
        k(   17) = (   0.0141576  -0.0376063   0.0000000), wk =   0.0277778
        k(   18) = (   0.0141576  -0.0225638   0.0000000), wk =   0.0277778
        k(   19) = (   0.0141576  -0.0075213   0.0000000), wk =   0.0277778
        k(   20) = (   0.0283151   0.0150425   0.0000000), wk =   0.0277778
        k(   21) = (   0.0283151   0.0300851   0.0000000), wk =   0.0277778
        k(   22) = (   0.0283151   0.0451276   0.0000000), wk =   0.0277778
        k(   23) = (   0.0283151   0.0601702   0.0000000), wk =   0.0277778
        k(   24) = (   0.0283151   0.0752127   0.0000000), wk =   0.0277778
        k(   25) = (   0.0283151   0.0902552   0.0000000), wk =   0.0277778
        k(   26) = (   0.0283151  -0.0752127   0.0000000), wk =   0.0277778
        k(   27) = (   0.0283151  -0.0601702   0.0000000), wk =   0.0277778
        k(   28) = (   0.0283151  -0.0451276   0.0000000), wk =   0.0277778
        k(   29) = (   0.0283151  -0.0300851   0.0000000), wk =   0.0277778
        k(   30) = (   0.0283151  -0.0150425   0.0000000), wk =   0.0277778
        k(   31) = (   0.0283151   0.0000000   0.0000000), wk =   0.0277778
        k(   32) = (   0.0424727   0.0225638   0.0000000), wk =   0.0277778
        k(   33) = (   0.0424727   0.0376064   0.0000000), wk =   0.0277778
        k(   34) = (   0.0424727   0.0526489   0.0000000), wk =   0.0277778
        k(   35) = (   0.0424727   0.0676914   0.0000000), wk =   0.0277778
        k(   36) = (   0.0424727   0.0827340   0.0000000), wk =   0.0277778
        k(   37) = (   0.0424727   0.0977765   0.0000000), wk =   0.0277778
        k(   38) = (   0.0424727  -0.0676914   0.0000000), wk =   0.0277778
        k(   39) = (   0.0424727  -0.0526489   0.0000000), wk =   0.0277778
        k(   40) = (   0.0424727  -0.0376063   0.0000000), wk =   0.0277778
        k(   41) = (   0.0424727  -0.0225638   0.0000000), wk =   0.0277778
        k(   42) = (   0.0424727  -0.0075213   0.0000000), wk =   0.0277778
        k(   43) = (   0.0424727   0.0075213   0.0000000), wk =   0.0277778
        k(   44) = (   0.0566302   0.0300851   0.0000000), wk =   0.0277778
        k(   45) = (   0.0566302   0.0451276   0.0000000), wk =   0.0277778
        k(   46) = (   0.0566302   0.0601702   0.0000000), wk =   0.0277778
        k(   47) = (   0.0566302   0.0752127   0.0000000), wk =   0.0277778
        k(   48) = (   0.0566302   0.0902552   0.0000000), wk =   0.0277778
        k(   49) = (   0.0566302   0.1052978   0.0000000), wk =   0.0277778
        k(   50) = (   0.0566302  -0.0601702   0.0000000), wk =   0.0277778
        k(   51) = (   0.0566302  -0.0451276   0.0000000), wk =   0.0277778
        k(   52) = (   0.0566302  -0.0300851   0.0000000), wk =   0.0277778
        k(   53) = (   0.0566302  -0.0150425   0.0000000), wk =   0.0277778
        k(   54) = (   0.0566302   0.0000000   0.0000000), wk =   0.0277778
        k(   55) = (   0.0566302   0.0150425   0.0000000), wk =   0.0277778
        k(   56) = (   0.0707878   0.0376064   0.0000000), wk =   0.0277778
        k(   57) = (   0.0707878   0.0526489   0.0000000), wk =   0.0277778
        k(   58) = (   0.0707878   0.0676914   0.0000000), wk =   0.0277778
        k(   59) = (   0.0707878   0.0827340   0.0000000), wk =   0.0277778
        k(   60) = (   0.0707878   0.0977765   0.0000000), wk =   0.0277778
        k(   61) = (   0.0707878   0.1128190   0.0000000), wk =   0.0277778
        k(   62) = (   0.0707878  -0.0526489   0.0000000), wk =   0.0277778
        k(   63) = (   0.0707878  -0.0376063   0.0000000), wk =   0.0277778
        k(   64) = (   0.0707878  -0.0225638   0.0000000), wk =   0.0277778
        k(   65) = (   0.0707878  -0.0075213   0.0000000), wk =   0.0277778
        k(   66) = (   0.0707878   0.0075213   0.0000000), wk =   0.0277778
        k(   67) = (   0.0707878   0.0225638   0.0000000), wk =   0.0277778
        k(   68) = (  -0.0849453  -0.0451276   0.0000000), wk =   0.0138889
        k(   69) = (  -0.0849453  -0.0300851   0.0000000), wk =   0.0277778
        k(   70) = (  -0.0849453  -0.0150425   0.0000000), wk =   0.0277778
        k(   71) = (  -0.0849453  -0.0000000   0.0000000), wk =   0.0277778
        k(   72) = (  -0.0849453   0.0150425   0.0000000), wk =   0.0277778
        k(   73) = (  -0.0849453   0.0300851   0.0000000), wk =   0.0277778
        k(   74) = (  -0.0849453  -0.1353829   0.0000000), wk =   0.0138889

     Initial potential from superposition of free atoms

     starting charge  149.98052, renormalised to  150.00000

     negative rho (up, down):  9.984E-04 0.000E+00

     %%%%%%%%%%%%%%%%%%%%%%%%%%%%%%%%%%%%%%%%%%%%%%%%%%%%%%%%%%%%%%%%%%%%%%%%
     %                                                                      %
     % You are using vdW-DF, which was implemented by the Thonhauser group. %
     % Please cite the following two papers that made this development      %
     % possible and the two reviews that describe the various versions:     %
     %                                                                      %
     %   T. Thonhauser et al., PRL 115, 136402 (2015).                      %
     %   T. Thonhauser et al., PRB 76, 125112 (2007).                       %
     %   K. Berland et al., Rep. Prog. Phys. 78, 066501 (2015).             %
     %   D.C. Langreth et al., J. Phys.: Condens. Matter 21, 084203 (2009). %
     %                                                                      %
     %                                                                      %
     % If you are calculating the stress with vdW-DF, please also cite:     %
     %                                                                      %
     %   R. Sabatini et al., J. Phys.: Condens. Matter 24, 424209 (2012).   %
     %                                                                      %
     %%%%%%%%%%%%%%%%%%%%%%%%%%%%%%%%%%%%%%%%%%%%%%%%%%%%%%%%%%%%%%%%%%%%%%%%

     Adding external electric field

     Computed dipole along edir(3) :
        Dipole                0.0004 Ry au,          0.0009 Debye
        Dipole field          0.0000 Ry au,

        Potential amp.       -0.0001 Ry
        Total length         46.0378 bohr

     Starting wfcs are  138 randomized atomic wfcs

     Self-consistent Calculation

     iteration #  1     ecut=    55.12 Ry     beta= 0.10
     Davidson diagonalization with overlap
     ethr =  1.00E-02,  avg # of iterations =  2.0

[...]

     total energy              =   -1467.96225599 Ry
     estimated scf accuracy    <       8.15326982 Ry

[...]

     iteration #  8     ecut=    55.12 Ry     beta= 0.10
     Davidson diagonalization with overlap
     c_bands:  1 eigenvalues not converged
     c_bands:  1 eigenvalues not converged
     c_bands:  1 eigenvalues not converged
     ethr =  3.30E-05,  avg # of iterations =  9.6

[...]

     iteration # 11     ecut=    55.12 Ry     beta= 0.10
     Davidson diagonalization with overlap
     c_bands:  1 eigenvalues not converged
     c_bands:  1 eigenvalues not converged
     c_bands:  1 eigenvalues not converged
     ethr =  3.18E-06,  avg # of iterations =  9.0

[...]

     total energy              =   -1468.69664709 Ry
     estimated scf accuracy    <       0.00008011 Ry

     iteration # 17     ecut=    55.12 Ry     beta= 0.10
     Davidson diagonalization with overlap
     ethr =  5.34E-08,  avg # of iterations =  4.4

[...]

     Adding external electric field

     Computed dipole along edir(3) :
        Dipole                0.0792 Ry au,          0.2014 Debye
        Dipole field          0.0002 Ry au,

        Potential amp.       -0.0167 Ry
        Total length         46.0378 bohr

     End of self-consistent calculation

          k = 0.0000 0.0000 0.0000 ( 37967 PWs)   bands (ev):

   -60.8649 -60.8155 -60.7770 -60.7274 -60.3085 -60.2579 -53.3546 -53.2821
   -53.2712 -53.1974 -53.1844 -53.1120 -29.7924 -29.7798 -29.7549 -29.7244
   -29.6914 -29.6529 -29.6354 -29.6307 -29.5946 -29.5909 -29.4380 -29.3602
   -29.3460 -29.3094 -29.2994 -29.2761 -29.1782 -29.1490 -29.1184 -29.0879
   -29.0800 -29.0372 -29.0100 -28.9775 -28.9766 -28.9753 -28.9041 -28.8745
   -28.8460 -28.8419 -28.8201 -28.7163 -28.6913 -28.6438 -28.6036 -28.4453
    -4.4747  -3.1314  -2.2720  -1.7705  -1.6969  -1.5943  -1.3776  -1.3084
    -1.1783  -0.9742  -0.8865  -0.7204  -0.6401  -0.6369  -0.5542   0.2136
     0.4144   0.5341   1.0050   1.1693   1.3150   1.4351   1.6371   1.7861
     1.9251   1.9976   2.0783   2.2517   2.3606   2.4171   2.4855   2.5363
     2.6130   2.8021   2.9047   3.0115   3.0731   3.2290   3.3339   3.3633
     3.4026   3.6675

[...]

          k = 0.0708 0.0226 0.0000 ( 37962 PWs)   bands (ev):

[...]

          k =-0.0849-0.0451 0.0000 ( 38008 PWs)   bands (ev):

[...]

          k =-0.0849-0.1354 0.0000 ( 38008 PWs)   bands (ev):

   -60.8403 -60.8403 -60.7523 -60.7523 -60.2833 -60.2833 -53.3187 -53.3187
   -53.2346 -53.2346 -53.1484 -53.1484 -29.6793 -29.6792 -29.5329 -29.5329
   -29.5008 -29.5008 -29.4593 -29.4593 -29.4235 -29.4235 -29.3605 -29.3605
   -29.3310 -29.3310 -29.3175 -29.3175 -29.2596 -29.2596 -29.2372 -29.2372
   -29.1769 -29.1769 -29.0925 -29.0925 -29.0666 -29.0666 -29.0330 -29.0330
   -28.8851 -28.8851 -28.8157 -28.8156 -28.6898 -28.6897 -28.6449 -28.6449
    -2.7454  -2.7454  -1.6031  -1.6031  -1.0198  -1.0197  -0.6368  -0.6368
    -0.4223  -0.4223   0.0426   0.0426   0.3273   0.3273   0.4535   0.4535
     0.6080   0.6080   0.7256   0.7256   1.0134   1.0134   1.2617   1.2617
     1.3361   1.3361   1.4756   1.4756   1.6093   1.6094   1.9289   1.9289
     2.1177   2.1177   2.1949   2.1949   2.5036   2.5036   3.1289   3.1289
     3.3875   3.3876

     the Fermi energy is     1.6765 ev

!    total energy              =   -1468.69665718 Ry
     estimated scf accuracy    <       0.00000397 Ry
     smearing contrib. (-TS)   =      -0.08862265 Ry
     internal energy E=F+TS    =   -1468.60803452 Ry

     The total energy is F=E-TS. E is the sum of the following terms:
     one-electron contribution =  -10031.13115927 Ry
     hartree contribution      =    5004.19087229 Ry
     xc contribution           =    -371.61114536 Ry
     ewald contribution        =    3929.94338346 Ry
     electric field correction =       0.00001435 Ry

     convergence has been achieved in  17 iterations

     negative rho (up, down):  8.774E-04 0.000E+00

     Forces acting on atoms (cartesian axes, Ry/au):

     atom    1 type  1   force =    -0.00000213    0.00842228    0.02970960
     atom    2 type  1   force =    -0.00000199    0.00842244    0.02971049
     atom    3 type  2   force =     0.00000040   -0.00833113   -0.00480715
     atom    4 type  2   force =    -0.00000002   -0.00833261   -0.00480854
     atom    5 type  1   force =     0.00000047   -0.01055143   -0.01226661
     atom    6 type  1   force =    -0.00000450   -0.01055208   -0.01226614
     atom    7 type  2   force =     0.00000155    0.01089501   -0.00976281
     atom    8 type  2   force =    -0.00000123    0.01089777   -0.00976124
     atom    9 type  1   force =     0.00000366   -0.00074656   -0.00157450
     atom   10 type  1   force =     0.00000603   -0.00074721   -0.00157342
     atom   11 type  2   force =     0.00000599    0.00031256   -0.00130010
     atom   12 type  2   force =    -0.00000823    0.00031095   -0.00129957

     Total force =     0.055260     Total SCF correction =     0.007243
     SCF correction compared to forces is large: reduce conv_thr to get better values

     Writing output data file ./Nb2Hf2/Nb2Hf2_beef.save/

     General routines

     Parallel routines

   This run was terminated on:   7:13:15  25Jun2022

   JOB DONE.