     Program PWSCF v.6.6 starts on 10Jul2022 at 21:39:56

     R & G space division:  proc/nbgrp/npool/nimage =      37
     Fft bands division:     nmany     =       1
     Reading input from Nb2Hg2.in
Warning: card &CELL ignored
Warning: card / ignored

     Current dimensions of program PWSCF are:
     Max number of different atomic species (ntypx) = 10
     Max number of k-points (npk) =  40000
     Max angular momentum in pseudopotentials (lmaxx) =  3
     Presently stress not available with electric field and gates

     Message from routine cell_base_init:
     DEPRECATED: use true lattice parameter, not A to a.u. conversion factor
     file Nb.pbe-spn-rrkjus_psl.1.0.0.UPF: wavefunction(s)  4S 4P renormalized
     file Hg.pbe-n-rrkjus_psl.1.0.0.UPF: wavefunction(s)  6S renormalized

     IMPORTANT: XC functional enforced from input :
     Exchange-correlation= BEEF-VDW
                           (   1   4  43  14   2   0   0)
     Any further DFT definition will be discarded
     Please, verify this is what you really want

     Subspace diagonalization in iterative solution of the eigenvalue problem:
     a serial algorithm will be used

     bravais-lattice index     =            0
     lattice parameter (alat)  =       1.8897  a.u.
     unit-cell volume          =    5322.0067 (a.u.)^3
     number of atoms/cell      =           12
     number of atomic types    =            2
     number of electrons       =       150.00
     number of Kohn-Sham states=           90
     kinetic-energy cutoff     =      55.1240  Ry
     charge density cutoff     =     551.2396  Ry
     convergence threshold     =      1.0E-05
     mixing beta               =       0.1000
     number of iterations used =           10  plain     mixing
     Exchange-correlation= BEEF-VDW
                           (   1   4  43  14   2   0   0)

     celldm(1)=   1.889726  celldm(2)=   0.000000  celldm(3)=   0.000000
     celldm(4)=   0.000000  celldm(5)=   0.000000  celldm(6)=   0.000000

     crystal axes: (cart. coord. in units of alat)
               a(1) = (   5.893467   0.000000   0.000000 )
               a(2) = (  -2.946733   5.368468   0.000000 )
               a(3) = (   0.000000   0.000000  24.926292 )

     reciprocal axes: (cart. coord. in units 2 pi/alat)
               b(1) = (  0.169679  0.093136 -0.000000 )
               b(2) = (  0.000000  0.186273  0.000000 )
               b(3) = (  0.000000 -0.000000  0.040118 )

     PseudoPot. # 1 for Nb read from file:
     ../pseudo/Nb.pbe-spn-rrkjus_psl.1.0.0.UPF
     MD5 check sum: 6ee677a9f002bd3e3657f443f129faad
     Pseudo is Ultrasoft + core correction, Zval = 13.0
     Generated using "atomic" code by A. Dal Corso v.6.2.2
     Using radial grid of 1227 points,  6 beta functions with:
                l(1) =   0
                l(2) =   0
                l(3) =   1
                l(4) =   1
                l(5) =   2
                l(6) =   2
     Q(r) pseudized with 0 coefficients

     PseudoPot. # 2 for Hg read from file:
     ../pseudo/Hg.pbe-n-rrkjus_psl.1.0.0.UPF
     MD5 check sum: 7519ac2e5b9cac440d3cfd4127d6ea3c
     Pseudo is Ultrasoft + core correction, Zval = 12.0
     Generated using "atomic" code by A. Dal Corso v.6.3
     Using radial grid of 1279 points,  6 beta functions with:
                l(1) =   0
                l(2) =   0
                l(3) =   1
                l(4) =   1
                l(5) =   2
                l(6) =   2
     Q(r) pseudized with 0 coefficients

     atomic species   valence    mass     pseudopotential
        Nb            13.00    92.90637     Nb( 1.00)
        Hg            12.00   200.59200     Hg( 1.00)

     No symmetry found

   Cartesian axes

     site n.     atom                  positions (alat units)
         1           Nb  tau(   1) = (   0.0000000   0.0000000  10.0000000  )
         2           Nb  tau(   2) = (   2.9467334   0.0000000  10.0000000  )
         3           Hg  tau(   3) = (   1.4733667   2.6842338  10.0000000  )
         4           Hg  tau(   4) = (  -1.4733667   2.6842338  10.0000000  )
         5           Nb  tau(   5) = (   2.9467334   1.6174518  12.4631458  )
         6           Nb  tau(   6) = (   0.0000000   1.6174518  12.4631458  )
         7           Hg  tau(   7) = (  -1.4733667   4.3016856  12.4631458  )
         8           Hg  tau(   8) = (   1.4733667   4.3016856  12.4631458  )
         9           Nb  tau(   9) = (   0.0000050   2.9590220  14.7469843  )
        10           Nb  tau(  10) = (   2.9467294   2.9589377  14.7470372  )
        11           Hg  tau(  11) = (   4.4200489   0.3350321  15.2703087  )
        12           Hg  tau(  12) = (   1.4734217   0.3350369  15.2703114  )

     number of k points=    74  Fermi-Dirac smearing, width (Ry)=  0.0100
                       cart. coord. in units 2pi/alat
        k(    1) = (   0.0000000   0.0000000   0.0000000), wk =   0.0138889
        k(    2) = (   0.0000000   0.0155227   0.0000000), wk =   0.0277778
        k(    3) = (   0.0000000   0.0310455   0.0000000), wk =   0.0277778
        k(    4) = (   0.0000000   0.0465682   0.0000000), wk =   0.0277778
        k(    5) = (   0.0000000   0.0620910   0.0000000), wk =   0.0277778
        k(    6) = (   0.0000000   0.0776137   0.0000000), wk =   0.0277778
        k(    7) = (   0.0000000  -0.0931364   0.0000000), wk =   0.0138889
        k(    8) = (   0.0141400   0.0077614   0.0000000), wk =   0.0277778
        k(    9) = (   0.0141400   0.0232841   0.0000000), wk =   0.0277778
        k(   10) = (   0.0141400   0.0388068   0.0000000), wk =   0.0277778
        k(   11) = (   0.0141400   0.0543296   0.0000000), wk =   0.0277778
        k(   12) = (   0.0141400   0.0698523   0.0000000), wk =   0.0277778
        k(   13) = (   0.0141400   0.0853751   0.0000000), wk =   0.0277778
        k(   14) = (   0.0141400  -0.0853751   0.0000000), wk =   0.0277778
        k(   15) = (   0.0141400  -0.0698523   0.0000000), wk =   0.0277778
        k(   16) = (   0.0141400  -0.0543296   0.0000000), wk =   0.0277778
        k(   17) = (   0.0141400  -0.0388069   0.0000000), wk =   0.0277778
        k(   18) = (   0.0141400  -0.0232841   0.0000000), wk =   0.0277778
        k(   19) = (   0.0141400  -0.0077614   0.0000000), wk =   0.0277778
        k(   20) = (   0.0282799   0.0155227   0.0000000), wk =   0.0277778
        k(   21) = (   0.0282799   0.0310455   0.0000000), wk =   0.0277778
        k(   22) = (   0.0282799   0.0465682   0.0000000), wk =   0.0277778
        k(   23) = (   0.0282799   0.0620910   0.0000000), wk =   0.0277778
        k(   24) = (   0.0282799   0.0776137   0.0000000), wk =   0.0277778
        k(   25) = (   0.0282799   0.0931364   0.0000000), wk =   0.0277778
        k(   26) = (   0.0282799  -0.0776137   0.0000000), wk =   0.0277778
        k(   27) = (   0.0282799  -0.0620910   0.0000000), wk =   0.0277778
        k(   28) = (   0.0282799  -0.0465682   0.0000000), wk =   0.0277778
        k(   29) = (   0.0282799  -0.0310455   0.0000000), wk =   0.0277778
        k(   30) = (   0.0282799  -0.0155227   0.0000000), wk =   0.0277778
        k(   31) = (   0.0282799  -0.0000000   0.0000000), wk =   0.0277778
        k(   32) = (   0.0424199   0.0232841   0.0000000), wk =   0.0277778
        k(   33) = (   0.0424199   0.0388068   0.0000000), wk =   0.0277778
        k(   34) = (   0.0424199   0.0543296   0.0000000), wk =   0.0277778
        k(   35) = (   0.0424199   0.0698523   0.0000000), wk =   0.0277778
        k(   36) = (   0.0424199   0.0853751   0.0000000), wk =   0.0277778
        k(   37) = (   0.0424199   0.1008978   0.0000000), wk =   0.0277778
        k(   38) = (   0.0424199  -0.0698523   0.0000000), wk =   0.0277778
        k(   39) = (   0.0424199  -0.0543296   0.0000000), wk =   0.0277778
        k(   40) = (   0.0424199  -0.0388069   0.0000000), wk =   0.0277778
        k(   41) = (   0.0424199  -0.0232841   0.0000000), wk =   0.0277778
        k(   42) = (   0.0424199  -0.0077614   0.0000000), wk =   0.0277778
        k(   43) = (   0.0424199   0.0077614   0.0000000), wk =   0.0277778
        k(   44) = (   0.0565598   0.0310455   0.0000000), wk =   0.0277778
        k(   45) = (   0.0565598   0.0465682   0.0000000), wk =   0.0277778
        k(   46) = (   0.0565598   0.0620910   0.0000000), wk =   0.0277778
        k(   47) = (   0.0565598   0.0776137   0.0000000), wk =   0.0277778
        k(   48) = (   0.0565598   0.0931364   0.0000000), wk =   0.0277778
        k(   49) = (   0.0565598   0.1086592   0.0000000), wk =   0.0277778
        k(   50) = (   0.0565598  -0.0620910   0.0000000), wk =   0.0277778
        k(   51) = (   0.0565598  -0.0465682   0.0000000), wk =   0.0277778
        k(   52) = (   0.0565598  -0.0310455   0.0000000), wk =   0.0277778
        k(   53) = (   0.0565598  -0.0155227   0.0000000), wk =   0.0277778
        k(   54) = (   0.0565598  -0.0000000   0.0000000), wk =   0.0277778
        k(   55) = (   0.0565598   0.0155227   0.0000000), wk =   0.0277778
        k(   56) = (   0.0706998   0.0388068   0.0000000), wk =   0.0277778
        k(   57) = (   0.0706998   0.0543296   0.0000000), wk =   0.0277778
        k(   58) = (   0.0706998   0.0698523   0.0000000), wk =   0.0277778
        k(   59) = (   0.0706998   0.0853751   0.0000000), wk =   0.0277778
        k(   60) = (   0.0706998   0.1008978   0.0000000), wk =   0.0277778
        k(   61) = (   0.0706998   0.1164205   0.0000000), wk =   0.0277778
        k(   62) = (   0.0706998  -0.0543296   0.0000000), wk =   0.0277778
        k(   63) = (   0.0706998  -0.0388069   0.0000000), wk =   0.0277778
        k(   64) = (   0.0706998  -0.0232841   0.0000000), wk =   0.0277778
        k(   65) = (   0.0706998  -0.0077614   0.0000000), wk =   0.0277778
        k(   66) = (   0.0706998   0.0077614   0.0000000), wk =   0.0277778
        k(   67) = (   0.0706998   0.0232841   0.0000000), wk =   0.0277778
        k(   68) = (  -0.0848397  -0.0465682   0.0000000), wk =   0.0138889
        k(   69) = (  -0.0848397  -0.0310455   0.0000000), wk =   0.0277778
        k(   70) = (  -0.0848397  -0.0155227   0.0000000), wk =   0.0277778
        k(   71) = (  -0.0848397   0.0000000   0.0000000), wk =   0.0277778
        k(   72) = (  -0.0848397   0.0155227   0.0000000), wk =   0.0277778
        k(   73) = (  -0.0848397   0.0310455   0.0000000), wk =   0.0277778
        k(   74) = (  -0.0848397  -0.1397047   0.0000000), wk =   0.0138889

     Initial potential from superposition of free atoms

     starting charge  149.99165, renormalised to  150.00000

     negative rho (up, down):  1.475E-03 0.000E+00

     %%%%%%%%%%%%%%%%%%%%%%%%%%%%%%%%%%%%%%%%%%%%%%%%%%%%%%%%%%%%%%%%%%%%%%%%
     %                                                                      %
     % You are using vdW-DF, which was implemented by the Thonhauser group. %
     % Please cite the following two papers that made this development      %
     % possible and the two reviews that describe the various versions:     %
     %                                                                      %
     %   T. Thonhauser et al., PRL 115, 136402 (2015).                      %
     %   T. Thonhauser et al., PRB 76, 125112 (2007).                       %
     %   K. Berland et al., Rep. Prog. Phys. 78, 066501 (2015).             %
     %   D.C. Langreth et al., J. Phys.: Condens. Matter 21, 084203 (2009). %
     %                                                                      %
     %                                                                      %
     % If you are calculating the stress with vdW-DF, please also cite:     %
     %                                                                      %
     %   R. Sabatini et al., J. Phys.: Condens. Matter 24, 424209 (2012).   %
     %                                                                      %
     %%%%%%%%%%%%%%%%%%%%%%%%%%%%%%%%%%%%%%%%%%%%%%%%%%%%%%%%%%%%%%%%%%%%%%%%

     Adding external electric field

     Computed dipole along edir(3) :
        Dipole               -0.0012 Ry au,         -0.0029 Debye
        Dipole field         -0.0000 Ry au,

        Potential amp.        0.0003 Ry
        Total length         45.9263 bohr

     Starting wfcs are  132 randomized atomic wfcs

     Self-consistent Calculation

     iteration #  1     ecut=    55.12 Ry     beta= 0.10
     Davidson diagonalization with overlap
     ethr =  1.00E-02,  avg # of iterations =  1.8

[...]

     total energy              =   -1317.91498900 Ry
     estimated scf accuracy    <       3.63438956 Ry

[...]

     iteration #  9     ecut=    55.12 Ry     beta= 0.10
     Davidson diagonalization with overlap
     c_bands:  1 eigenvalues not converged
     c_bands:  1 eigenvalues not converged
     c_bands:  1 eigenvalues not converged
     c_bands:  1 eigenvalues not converged
     c_bands:  1 eigenvalues not converged
     c_bands:  2 eigenvalues not converged
     c_bands:  1 eigenvalues not converged
     c_bands:  2 eigenvalues not converged
     ethr =  9.42E-06,  avg # of iterations = 11.3

[...]

     iteration # 11     ecut=    55.12 Ry     beta= 0.10
     Davidson diagonalization with overlap
     c_bands:  1 eigenvalues not converged
     c_bands:  1 eigenvalues not converged
     c_bands:  1 eigenvalues not converged
     c_bands:  1 eigenvalues not converged
     c_bands:  1 eigenvalues not converged
     c_bands:  1 eigenvalues not converged
     c_bands:  1 eigenvalues not converged
     c_bands:  1 eigenvalues not converged
     ethr =  1.35E-06,  avg # of iterations =  9.3

[...]

     total energy              =   -1318.16575071 Ry
     estimated scf accuracy    <       0.00002414 Ry

     iteration # 16     ecut=    55.12 Ry     beta= 0.10
     Davidson diagonalization with overlap
     ethr =  1.61E-08,  avg # of iterations =  5.6

[...]

     Adding external electric field

     Computed dipole along edir(3) :
        Dipole               -0.0489 Ry au,         -0.1243 Debye
        Dipole field         -0.0001 Ry au,

        Potential amp.        0.0106 Ry
        Total length         45.9263 bohr

     End of self-consistent calculation

          k = 0.0000 0.0000 0.0000 ( 36785 PWs)   bands (ev):

   -54.0583 -53.9891 -53.8440 -53.7730 -53.6712 -53.6009 -30.2820 -30.1982
   -30.1924 -30.1549 -30.0791 -30.0766 -30.0493 -29.9755 -29.9518 -29.9268
   -29.8503 -29.7959 -29.7185 -29.5370 -29.4021 -29.3223 -29.2994 -29.2588
    -7.3020  -6.8832  -6.8499  -6.7605  -6.7109  -6.5416  -6.4918  -6.3892
    -6.3344  -6.2957  -6.2608  -6.0959  -5.9493  -5.9139  -5.8156  -5.6618
    -5.6430  -5.6402  -5.5556  -5.5265  -5.4897  -5.4592  -5.3411  -5.3075
    -5.2060  -5.1400  -5.0165  -4.9063  -4.8906  -4.7247  -4.6886  -4.4140
    -3.0007  -1.9914  -1.2391  -1.1142  -0.6839  -0.4710  -0.2272  -0.1011
    -0.0541  -0.0126   0.3461   0.4926   0.8010   0.8247   0.9681   1.1685
     1.4585   1.5828   1.7137   1.8748   2.0257   2.0580   2.2565   2.5190
     2.9173   2.9255   2.9416   3.0819   3.2885   3.4371   3.5791   3.6097
     3.7775   3.8832

[...]

          k = 0.0707 0.0233 0.0000 ( 36809 PWs)   bands (ev):

[...]

          k =-0.0848-0.0466 0.0000 ( 36802 PWs)   bands (ev):

[...]

          k =-0.0848-0.1397 0.0000 ( 36802 PWs)   bands (ev):

   -54.0238 -54.0238 -53.8086 -53.8086 -53.6362 -53.6362 -30.2412 -30.2411
   -30.1176 -30.1176 -30.0135 -30.0135 -29.8899 -29.8898 -29.8723 -29.8723
   -29.7583 -29.7582 -29.7471 -29.7471 -29.6333 -29.6332 -29.2907 -29.2906
    -6.4994  -6.4994  -6.3336  -6.3336  -6.2355  -6.2355  -6.1849  -6.1849
    -6.0983  -6.0982  -5.8446  -5.8446  -5.7481  -5.7481  -5.6552  -5.6551
    -5.5805  -5.5805  -5.5498  -5.5498  -5.4962  -5.4960  -5.4524  -5.4522
    -5.3364  -5.3364  -5.2514  -5.2513  -5.2451  -5.2450  -4.8620  -4.8619
    -3.6870  -3.6868  -2.3706  -2.3705  -0.7380  -0.7379  -0.0754  -0.0754
     0.4383   0.4383   0.5234   0.5234   0.9102   0.9102   1.0610   1.0610
     1.3309   1.3309   1.5431   1.5432   1.6666   1.6668   1.8527   1.8527
     2.2499   2.2499   2.6497   2.6498   3.1199   3.1199   3.3249   3.3250
     3.7286   3.7287

     the Fermi energy is     1.5017 ev

!    total energy              =   -1318.16575067 Ry
     estimated scf accuracy    <       0.00000917 Ry
     smearing contrib. (-TS)   =      -0.05972793 Ry
     internal energy E=F+TS    =   -1318.10602275 Ry

     The total energy is F=E-TS. E is the sum of the following terms:
     one-electron contribution =  -10017.53844234 Ry
     hartree contribution      =    5047.27727358 Ry
     xc contribution           =    -315.63354270 Ry
     ewald contribution        =    3967.78868307 Ry
     electric field correction =       0.00000565 Ry

     convergence has been achieved in  16 iterations

     negative rho (up, down):  1.386E-03 0.000E+00

     Forces acting on atoms (cartesian axes, Ry/au):

     atom    1 type  1   force =    -0.00000104    0.01419849    0.03058819
     atom    2 type  1   force =     0.00000282    0.01419953    0.03059118
     atom    3 type  2   force =    -0.00000142   -0.00663798   -0.03151248
     atom    4 type  2   force =    -0.00002594   -0.00662981   -0.03151350
     atom    5 type  1   force =     0.00000320   -0.02089860   -0.00746516
     atom    6 type  1   force =     0.00000247   -0.02089311   -0.00745835
     atom    7 type  2   force =    -0.00001000    0.01239477    0.00756811
     atom    8 type  2   force =     0.00001643    0.01239000    0.00756148
     atom    9 type  1   force =     0.00000097    0.00003906    0.00039019
     atom   10 type  1   force =     0.00000176    0.00006533    0.00037191
     atom   11 type  2   force =     0.00003270    0.00088729    0.00044162
     atom   12 type  2   force =    -0.00002195    0.00088502    0.00043681

     Total force =     0.075877     Total SCF correction =     0.017092
     SCF correction compared to forces is large: reduce conv_thr to get better values

     Writing output data file ./Nb2Hg2/Nb2Hg2_beef.save/

     General routines

     Parallel routines

   This run was terminated on:  22:22:51  10Jul2022

   JOB DONE.