     Program PWSCF v.6.6 starts on 10Jul2022 at 22:23: 5

     R & G space division:  proc/nbgrp/npool/nimage =      37
     Fft bands division:     nmany     =       1
     Reading input from Nb2Mo2.in
Warning: card &CELL ignored
Warning: card / ignored

     Current dimensions of program PWSCF are:
     Max number of different atomic species (ntypx) = 10
     Max number of k-points (npk) =  40000
     Max angular momentum in pseudopotentials (lmaxx) =  3
     Presently stress not available with electric field and gates

     Message from routine cell_base_init:
     DEPRECATED: use true lattice parameter, not A to a.u. conversion factor
     file Nb.pbe-spn-rrkjus_psl.1.0.0.UPF: wavefunction(s)  4S 4P renormalized
     file Mo.pbe-spn-rrkjus_psl.1.0.0.UPF: wavefunction(s)  4S renormalized

     IMPORTANT: XC functional enforced from input :
     Exchange-correlation= BEEF-VDW
                           (   1   4  43  14   2   0   0)
     Any further DFT definition will be discarded
     Please, verify this is what you really want

     Subspace diagonalization in iterative solution of the eigenvalue problem:
     a serial algorithm will be used

     Found symmetry operation: I + ( -0.5000  0.0000  0.0000)
     This is a supercell, fractional translations are disabled

     bravais-lattice index     =            0
     lattice parameter (alat)  =       1.8897  a.u.
     unit-cell volume          =    4919.6420 (a.u.)^3
     number of atoms/cell      =           12
     number of atomic types    =            2
     number of electrons       =       162.00
     number of Kohn-Sham states=           97
     kinetic-energy cutoff     =      55.1240  Ry
     charge density cutoff     =     551.2396  Ry
     convergence threshold     =      1.0E-05
     mixing beta               =       0.1000
     number of iterations used =           10  plain     mixing
     Exchange-correlation= BEEF-VDW
                           (   1   4  43  14   2   0   0)

     celldm(1)=   1.889726  celldm(2)=   0.000000  celldm(3)=   0.000000
     celldm(4)=   0.000000  celldm(5)=   0.000000  celldm(6)=   0.000000

     crystal axes: (cart. coord. in units of alat)
               a(1) = (   5.364903   0.000000   0.000000 )
               a(2) = (  -2.682452   5.504839   0.000000 )
               a(3) = (   0.000000   0.000000  24.684850 )

     reciprocal axes: (cart. coord. in units 2 pi/alat)
               b(1) = (  0.186397  0.090829 -0.000000 )
               b(2) = (  0.000000  0.181658  0.000000 )
               b(3) = (  0.000000 -0.000000  0.040511 )

     PseudoPot. # 1 for Nb read from file:
     ../pseudo/Nb.pbe-spn-rrkjus_psl.1.0.0.UPF
     MD5 check sum: 6ee677a9f002bd3e3657f443f129faad
     Pseudo is Ultrasoft + core correction, Zval = 13.0
     Generated using "atomic" code by A. Dal Corso v.6.2.2
     Using radial grid of 1227 points,  6 beta functions with:
                l(1) =   0
                l(2) =   0
                l(3) =   1
                l(4) =   1
                l(5) =   2
                l(6) =   2
     Q(r) pseudized with 0 coefficients

     PseudoPot. # 2 for Mo read from file:
     ../pseudo/Mo.pbe-spn-rrkjus_psl.1.0.0.UPF
     MD5 check sum: 03f09b12e49601d1a456a78ce8b2d514
     Pseudo is Ultrasoft + core correction, Zval = 14.0
     Generated using "atomic" code by A. Dal Corso v.6.3
     Using radial grid of 1229 points,  6 beta functions with:
                l(1) =   0
                l(2) =   0
                l(3) =   1
                l(4) =   1
                l(5) =   2
                l(6) =   2
     Q(r) pseudized with 0 coefficients

     atomic species   valence    mass     pseudopotential
        Nb            13.00    92.90637     Nb( 1.00)
        Mo            14.00    95.95000     Mo( 1.00)

     No symmetry found

   Cartesian axes

     site n.     atom                  positions (alat units)
         1           Nb  tau(   1) = (   0.0000000   0.0000000  10.0000000  )
         2           Nb  tau(   2) = (   2.6824515   0.0000000  10.0000000  )
         3           Mo  tau(   3) = (   1.3412258   2.7524196  10.0000000  )
         4           Mo  tau(   4) = (  -1.3412258   2.7524196  10.0000000  )
         5           Nb  tau(   5) = (   2.6824515   1.3071311  12.3424249  )
         6           Nb  tau(   6) = (  -0.0000000   1.3071311  12.3424249  )
         7           Mo  tau(   7) = (  -1.3412258   4.0595506  12.3424249  )
         8           Mo  tau(   8) = (   1.3412258   4.0595506  12.3424249  )
         9           Nb  tau(   9) = (   0.0000304   2.6373270  14.7121202  )
        10           Nb  tau(  10) = (   2.6824822   2.6373318  14.7121272  )
        11           Mo  tau(  11) = (   1.3412497   5.3462773  14.5858759  )
        12           Mo  tau(  12) = (  -1.3411975   5.3462762  14.5858771  )

     number of k points=    74  Fermi-Dirac smearing, width (Ry)=  0.0100
                       cart. coord. in units 2pi/alat
        k(    1) = (   0.0000000   0.0000000   0.0000000), wk =   0.0138889
        k(    2) = (   0.0000000   0.0151382   0.0000000), wk =   0.0277778
        k(    3) = (   0.0000000   0.0302764   0.0000000), wk =   0.0277778
        k(    4) = (   0.0000000   0.0454146   0.0000000), wk =   0.0277778
        k(    5) = (   0.0000000   0.0605528   0.0000000), wk =   0.0277778
        k(    6) = (   0.0000000   0.0756910   0.0000000), wk =   0.0277778
        k(    7) = (   0.0000000  -0.0908292   0.0000000), wk =   0.0138889
        k(    8) = (   0.0155331   0.0075691   0.0000000), wk =   0.0277778
        k(    9) = (   0.0155331   0.0227073   0.0000000), wk =   0.0277778
        k(   10) = (   0.0155331   0.0378455   0.0000000), wk =   0.0277778
        k(   11) = (   0.0155331   0.0529837   0.0000000), wk =   0.0277778
        k(   12) = (   0.0155331   0.0681219   0.0000000), wk =   0.0277778
        k(   13) = (   0.0155331   0.0832601   0.0000000), wk =   0.0277778
        k(   14) = (   0.0155331  -0.0832601   0.0000000), wk =   0.0277778
        k(   15) = (   0.0155331  -0.0681219   0.0000000), wk =   0.0277778
        k(   16) = (   0.0155331  -0.0529837   0.0000000), wk =   0.0277778
        k(   17) = (   0.0155331  -0.0378455   0.0000000), wk =   0.0277778
        k(   18) = (   0.0155331  -0.0227073   0.0000000), wk =   0.0277778
        k(   19) = (   0.0155331  -0.0075691   0.0000000), wk =   0.0277778
        k(   20) = (   0.0310661   0.0151382   0.0000000), wk =   0.0277778
        k(   21) = (   0.0310661   0.0302764   0.0000000), wk =   0.0277778
        k(   22) = (   0.0310661   0.0454146   0.0000000), wk =   0.0277778
        k(   23) = (   0.0310661   0.0605528   0.0000000), wk =   0.0277778
        k(   24) = (   0.0310661   0.0756910   0.0000000), wk =   0.0277778
        k(   25) = (   0.0310661   0.0908292   0.0000000), wk =   0.0277778
        k(   26) = (   0.0310661  -0.0756910   0.0000000), wk =   0.0277778
        k(   27) = (   0.0310661  -0.0605528   0.0000000), wk =   0.0277778
        k(   28) = (   0.0310661  -0.0454146   0.0000000), wk =   0.0277778
        k(   29) = (   0.0310661  -0.0302764   0.0000000), wk =   0.0277778
        k(   30) = (   0.0310661  -0.0151382   0.0000000), wk =   0.0277778
        k(   31) = (   0.0310661   0.0000000   0.0000000), wk =   0.0277778
        k(   32) = (   0.0465992   0.0227073   0.0000000), wk =   0.0277778
        k(   33) = (   0.0465992   0.0378455   0.0000000), wk =   0.0277778
        k(   34) = (   0.0465992   0.0529837   0.0000000), wk =   0.0277778
        k(   35) = (   0.0465992   0.0681219   0.0000000), wk =   0.0277778
        k(   36) = (   0.0465992   0.0832601   0.0000000), wk =   0.0277778
        k(   37) = (   0.0465992   0.0983983   0.0000000), wk =   0.0277778
        k(   38) = (   0.0465992  -0.0681219   0.0000000), wk =   0.0277778
        k(   39) = (   0.0465992  -0.0529837   0.0000000), wk =   0.0277778
        k(   40) = (   0.0465992  -0.0378455   0.0000000), wk =   0.0277778
        k(   41) = (   0.0465992  -0.0227073   0.0000000), wk =   0.0277778
        k(   42) = (   0.0465992  -0.0075691   0.0000000), wk =   0.0277778
        k(   43) = (   0.0465992   0.0075691   0.0000000), wk =   0.0277778
        k(   44) = (   0.0621322   0.0302764   0.0000000), wk =   0.0277778
        k(   45) = (   0.0621322   0.0454146   0.0000000), wk =   0.0277778
        k(   46) = (   0.0621322   0.0605528   0.0000000), wk =   0.0277778
        k(   47) = (   0.0621322   0.0756910   0.0000000), wk =   0.0277778
        k(   48) = (   0.0621322   0.0908292   0.0000000), wk =   0.0277778
        k(   49) = (   0.0621322   0.1059674   0.0000000), wk =   0.0277778
        k(   50) = (   0.0621322  -0.0605528   0.0000000), wk =   0.0277778
        k(   51) = (   0.0621322  -0.0454146   0.0000000), wk =   0.0277778
        k(   52) = (   0.0621322  -0.0302764   0.0000000), wk =   0.0277778
        k(   53) = (   0.0621322  -0.0151382   0.0000000), wk =   0.0277778
        k(   54) = (   0.0621322   0.0000000   0.0000000), wk =   0.0277778
        k(   55) = (   0.0621322   0.0151382   0.0000000), wk =   0.0277778
        k(   56) = (   0.0776653   0.0378455   0.0000000), wk =   0.0277778
        k(   57) = (   0.0776653   0.0529837   0.0000000), wk =   0.0277778
        k(   58) = (   0.0776653   0.0681219   0.0000000), wk =   0.0277778
        k(   59) = (   0.0776653   0.0832601   0.0000000), wk =   0.0277778
        k(   60) = (   0.0776653   0.0983983   0.0000000), wk =   0.0277778
        k(   61) = (   0.0776653   0.1135365   0.0000000), wk =   0.0277778
        k(   62) = (   0.0776653  -0.0529837   0.0000000), wk =   0.0277778
        k(   63) = (   0.0776653  -0.0378455   0.0000000), wk =   0.0277778
        k(   64) = (   0.0776653  -0.0227073   0.0000000), wk =   0.0277778
        k(   65) = (   0.0776653  -0.0075691   0.0000000), wk =   0.0277778
        k(   66) = (   0.0776653   0.0075691   0.0000000), wk =   0.0277778
        k(   67) = (   0.0776653   0.0227073   0.0000000), wk =   0.0277778
        k(   68) = (  -0.0931983  -0.0454146   0.0000000), wk =   0.0138889
        k(   69) = (  -0.0931983  -0.0302764   0.0000000), wk =   0.0277778
        k(   70) = (  -0.0931983  -0.0151382   0.0000000), wk =   0.0277778
        k(   71) = (  -0.0931983  -0.0000000   0.0000000), wk =   0.0277778
        k(   72) = (  -0.0931983   0.0151382   0.0000000), wk =   0.0277778
        k(   73) = (  -0.0931983   0.0302764   0.0000000), wk =   0.0277778
        k(   74) = (  -0.0931983  -0.1362438   0.0000000), wk =   0.0138889

     Initial potential from superposition of free atoms

     starting charge  161.98686, renormalised to  162.00000

     negative rho (up, down):  9.761E-04 0.000E+00

     %%%%%%%%%%%%%%%%%%%%%%%%%%%%%%%%%%%%%%%%%%%%%%%%%%%%%%%%%%%%%%%%%%%%%%%%
     %                                                                      %
     % You are using vdW-DF, which was implemented by the Thonhauser group. %
     % Please cite the following two papers that made this development      %
     % possible and the two reviews that describe the various versions:     %
     %                                                                      %
     %   T. Thonhauser et al., PRL 115, 136402 (2015).                      %
     %   T. Thonhauser et al., PRB 76, 125112 (2007).                       %
     %   K. Berland et al., Rep. Prog. Phys. 78, 066501 (2015).             %
     %   D.C. Langreth et al., J. Phys.: Condens. Matter 21, 084203 (2009). %
     %                                                                      %
     %                                                                      %
     % If you are calculating the stress with vdW-DF, please also cite:     %
     %                                                                      %
     %   R. Sabatini et al., J. Phys.: Condens. Matter 24, 424209 (2012).   %
     %                                                                      %
     %%%%%%%%%%%%%%%%%%%%%%%%%%%%%%%%%%%%%%%%%%%%%%%%%%%%%%%%%%%%%%%%%%%%%%%%

     Adding external electric field

     Computed dipole along edir(3) :
        Dipole                0.0001 Ry au,          0.0003 Debye
        Dipole field          0.0000 Ry au,

        Potential amp.       -0.0000 Ry
        Total length         45.4814 bohr

     Starting wfcs are  138 randomized atomic wfcs

     Self-consistent Calculation

     iteration #  1     ecut=    55.12 Ry     beta= 0.10
     Davidson diagonalization with overlap
     ethr =  1.00E-02,  avg # of iterations =  2.0

[...]

     total energy              =   -1551.92791543 Ry
     estimated scf accuracy    <       6.01803271 Ry

[...]

     iteration #  9     ecut=    55.12 Ry     beta= 0.10
     Davidson diagonalization with overlap
     c_bands:  1 eigenvalues not converged
     c_bands:  1 eigenvalues not converged
     c_bands:  1 eigenvalues not converged
     ethr =  8.20E-06,  avg # of iterations =  7.6

[...]

     iteration # 11     ecut=    55.12 Ry     beta= 0.10
     Davidson diagonalization with overlap
     c_bands:  1 eigenvalues not converged
     c_bands:  1 eigenvalues not converged
     ethr =  1.30E-06,  avg # of iterations =  7.0

[...]

     total energy              =   -1552.41535476 Ry
     estimated scf accuracy    <       0.00001080 Ry

     iteration # 17     ecut=    55.12 Ry     beta= 0.10
     Davidson diagonalization with overlap
     ethr =  6.67E-09,  avg # of iterations =  5.2

[...]

     Adding external electric field

     Computed dipole along edir(3) :
        Dipole                0.0254 Ry au,          0.0645 Debye
        Dipole field          0.0001 Ry au,

        Potential amp.       -0.0059 Ry
        Total length         45.4814 bohr

     End of self-consistent calculation

          k = 0.0000 0.0000 0.0000 ( 33993 PWs)   bands (ev):

   -59.2036 -59.0708 -59.0070 -58.9709 -58.8764 -58.8407 -53.1112 -53.0699
   -52.9091 -52.8679 -52.8550 -52.6517 -33.7220 -33.6192 -33.4718 -33.4674
   -33.4418 -33.2567 -33.1166 -33.0975 -33.0376 -33.0212 -32.9757 -32.9017
   -32.8843 -32.6905 -32.6580 -32.5858 -32.4210 -32.3967 -29.7516 -29.7128
   -29.5863 -29.5354 -29.3385 -29.1968 -29.0721 -29.0233 -29.0145 -28.9077
   -28.8669 -28.8566 -28.6980 -28.4914 -28.3349 -28.2700 -28.2361 -28.1202
    -3.7249  -2.3385  -2.2648  -2.0734  -2.0060  -1.9549  -1.7754  -1.7196
    -1.6674  -1.2655  -1.2176  -1.1889  -1.1526  -1.1034  -1.0206  -0.3002
    -0.1016  -0.0847   0.1242   0.2674   0.4501   0.4802   0.7082   0.9863
     1.3390   1.3788   1.7785   1.8124   2.0485   2.1722   2.3827   2.3906
     2.8067   2.8098   2.8408   2.9193   3.0511   3.1097   3.2567   3.4358
     3.5586   3.5795   3.6786   3.8415   3.8723   3.9726   4.1602   4.4881
     4.6598

[...]

          k = 0.0777 0.0227 0.0000 ( 34015 PWs)   bands (ev):

[...]

          k =-0.0932-0.0454 0.0000 ( 34054 PWs)   bands (ev):

[...]

          k =-0.0932-0.1362 0.0000 ( 34054 PWs)   bands (ev):

   -59.1377 -59.1377 -58.9422 -58.9422 -58.9063 -58.9062 -53.0116 -53.0116
   -52.9703 -52.9703 -52.7547 -52.7546 -33.5430 -33.5430 -33.2049 -33.2049
   -33.1794 -33.1794 -33.0379 -33.0379 -32.9655 -32.9655 -32.9575 -32.9575
   -32.9488 -32.9487 -32.9328 -32.9328 -32.6381 -32.6381 -29.4443 -29.4443
   -29.1041 -29.1041 -29.0478 -29.0478 -29.0082 -29.0081 -29.0015 -29.0015
   -28.9490 -28.9490 -28.8840 -28.8840 -28.7875 -28.7874 -28.4136 -28.4135
    -2.0553  -2.0553  -1.1900  -1.1900  -0.9716  -0.9716  -0.8261  -0.8261
    -0.7902  -0.7902  -0.4224  -0.4224  -0.1270  -0.1270   0.1047   0.1047
     0.1989   0.1989   0.5511   0.5511   0.7759   0.7759   1.0883   1.0883
     1.2593   1.2593   1.3815   1.3815   1.4484   1.4484   1.7163   1.7163
     1.8616   1.8616   1.9261   1.9261   2.1689   2.1689   2.7319   2.7319
     2.9508   2.9508   3.1170   3.1171   3.3614   3.3614   3.4725   3.4725
     3.6263

     the Fermi energy is     2.0198 ev

!    total energy              =   -1552.41535443 Ry
     estimated scf accuracy    <       0.00000558 Ry
     smearing contrib. (-TS)   =      -0.07289096 Ry
     internal energy E=F+TS    =   -1552.34246347 Ry

     The total energy is F=E-TS. E is the sum of the following terms:
     one-electron contribution =  -13103.47101428 Ry
     hartree contribution      =    6543.93441835 Ry
     xc contribution           =    -235.73808883 Ry
     ewald contribution        =    5242.93221964 Ry
     electric field correction =       0.00000165 Ry

     convergence has been achieved in  17 iterations

     negative rho (up, down):  1.023E-03 0.000E+00

     Forces acting on atoms (cartesian axes, Ry/au):

     atom    1 type  1   force =     0.00000005   -0.00807050   -0.00841656
     atom    2 type  1   force =    -0.00000240   -0.00806508   -0.00841203
     atom    3 type  2   force =     0.00000274    0.00399792    0.01817296
     atom    4 type  2   force =    -0.00000173    0.00399626    0.01817247
     atom    5 type  1   force =    -0.00000126    0.01037446   -0.00123498
     atom    6 type  1   force =     0.00000024    0.01037851   -0.00123317
     atom    7 type  2   force =    -0.00000248   -0.00527154   -0.01012917
     atom    8 type  2   force =    -0.00000110   -0.00527315   -0.01013092
     atom    9 type  1   force =     0.00000017   -0.00089227    0.00054410
     atom   10 type  1   force =     0.00000269   -0.00090199    0.00054346
     atom   11 type  2   force =    -0.00000561   -0.00013557    0.00106452
     atom   12 type  2   force =     0.00000871   -0.00013705    0.00105933

     Total force =     0.038052     Total SCF correction =     0.010054
     SCF correction compared to forces is large: reduce conv_thr to get better values

     Writing output data file ./Nb2Mo2/Nb2Mo2_beef.save/

     General routines

     Parallel routines

   This run was terminated on:  23: 6: 4  10Jul2022

   JOB DONE.