     Program PWSCF v.6.6 starts on 10Jul2022 at 23: 6: 8

     R & G space division:  proc/nbgrp/npool/nimage =      37
     Fft bands division:     nmany     =       1
     Reading input from Nb2Os2.in
Warning: card &CELL ignored
Warning: card / ignored

     Current dimensions of program PWSCF are:
     Max number of different atomic species (ntypx) = 10
     Max number of k-points (npk) =  40000
     Max angular momentum in pseudopotentials (lmaxx) =  3
     Presently stress not available with electric field and gates

     Message from routine cell_base_init:
     DEPRECATED: use true lattice parameter, not A to a.u. conversion factor
     file Nb.pbe-spn-rrkjus_psl.1.0.0.UPF: wavefunction(s)  4S 4P renormalized

     IMPORTANT: XC functional enforced from input :
     Exchange-correlation= BEEF-VDW
                           (   1   4  43  14   2   0   0)
     Any further DFT definition will be discarded
     Please, verify this is what you really want

     Subspace diagonalization in iterative solution of the eigenvalue problem:
     a serial algorithm will be used

     Found symmetry operation: I + (  0.5000 -0.5000  0.0000)
     This is a supercell, fractional translations are disabled

     bravais-lattice index     =            0
     lattice parameter (alat)  =       1.8897  a.u.
     unit-cell volume          =    4705.3641 (a.u.)^3
     number of atoms/cell      =           12
     number of atomic types    =            2
     number of electrons       =       174.00
     number of Kohn-Sham states=          104
     kinetic-energy cutoff     =      55.1240  Ry
     charge density cutoff     =     551.2396  Ry
     convergence threshold     =      1.0E-05
     mixing beta               =       0.1000
     number of iterations used =           10  plain     mixing
     Exchange-correlation= BEEF-VDW
                           (   1   4  43  14   2   0   0)

     celldm(1)=   1.889726  celldm(2)=   0.000000  celldm(3)=   0.000000
     celldm(4)=   0.000000  celldm(5)=   0.000000  celldm(6)=   0.000000

     crystal axes: (cart. coord. in units of alat)
               a(1) = (   5.549690   0.000000   0.000000 )
               a(2) = (   2.167400   5.108956   0.000000 )
               a(3) = (   0.000000   0.000000  24.592112 )

     reciprocal axes: (cart. coord. in units 2 pi/alat)
               b(1) = (  0.180190 -0.076443  0.000000 )
               b(2) = (  0.000000  0.195735  0.000000 )
               b(3) = (  0.000000  0.000000  0.040663 )

     PseudoPot. # 1 for Nb read from file:
     ../pseudo/Nb.pbe-spn-rrkjus_psl.1.0.0.UPF
     MD5 check sum: 6ee677a9f002bd3e3657f443f129faad
     Pseudo is Ultrasoft + core correction, Zval = 13.0
     Generated using "atomic" code by A. Dal Corso v.6.2.2
     Using radial grid of 1227 points,  6 beta functions with:
                l(1) =   0
                l(2) =   0
                l(3) =   1
                l(4) =   1
                l(5) =   2
                l(6) =   2
     Q(r) pseudized with 0 coefficients

     PseudoPot. # 2 for Os read from file:
     ../pseudo/Os.pbe-spn-rrkjus_psl.1.0.0.UPF
     MD5 check sum: 3e7416ed594f6513d36e5cb31ba709d9
     Pseudo is Ultrasoft + core correction, Zval = 16.0
     Generated using "atomic" code by A. Dal Corso v.6.2.2
     Using radial grid of 1275 points,  6 beta functions with:
                l(1) =   0
                l(2) =   0
                l(3) =   1
                l(4) =   1
                l(5) =   2
                l(6) =   2
     Q(r) pseudized with 0 coefficients

     atomic species   valence    mass     pseudopotential
        Nb            13.00    92.90637     Nb( 1.00)
        Os            16.00   190.23000     Os( 1.00)

     No symmetry found

   Cartesian axes

     site n.     atom                  positions (alat units)
         1           Nb  tau(   1) = (   0.0000000   0.0000000  10.0000000  )
         2           Nb  tau(   2) = (   3.8585449   2.5544781  10.0000000  )
         3           Os  tau(   3) = (   2.7748449   0.0000000  10.0000000  )
         4           Os  tau(   4) = (   1.0837001   2.5544781  10.0000000  )
         5           Nb  tau(   5) = (   5.5496897   3.6740691  12.2960562  )
         6           Nb  tau(   6) = (   1.6911448   1.1195910  12.2960562  )
         7           Os  tau(   7) = (   2.7748449   3.6740691  12.2960562  )
         8           Os  tau(   8) = (   4.4659897   1.1195910  12.2960562  )
         9           Nb  tau(   9) = (   3.6452338   2.4132636  14.6022911  )
        10           Nb  tau(  10) = (   7.5037855   4.9677350  14.6022933  )
        11           Os  tau(  11) = (   6.4288809   2.4190709  14.3925150  )
        12           Os  tau(  12) = (   4.7377430   4.9735825  14.3925215  )

     number of k points=    74  Fermi-Dirac smearing, width (Ry)=  0.0100
                       cart. coord. in units 2pi/alat
        k(    1) = (   0.0000000   0.0000000   0.0000000), wk =   0.0138889
        k(    2) = (   0.0000000   0.0163112   0.0000000), wk =   0.0277778
        k(    3) = (   0.0000000   0.0326225   0.0000000), wk =   0.0277778
        k(    4) = (   0.0000000   0.0489337   0.0000000), wk =   0.0277778
        k(    5) = (   0.0000000   0.0652449   0.0000000), wk =   0.0277778
        k(    6) = (   0.0000000   0.0815561   0.0000000), wk =   0.0277778
        k(    7) = (   0.0000000  -0.0978674   0.0000000), wk =   0.0138889
        k(    8) = (   0.0150159  -0.0063703   0.0000000), wk =   0.0277778
        k(    9) = (   0.0150159   0.0099410   0.0000000), wk =   0.0277778
        k(   10) = (   0.0150159   0.0262522   0.0000000), wk =   0.0277778
        k(   11) = (   0.0150159   0.0425634   0.0000000), wk =   0.0277778
        k(   12) = (   0.0150159   0.0588746   0.0000000), wk =   0.0277778
        k(   13) = (   0.0150159   0.0751859   0.0000000), wk =   0.0277778
        k(   14) = (   0.0150159  -0.1042376   0.0000000), wk =   0.0277778
        k(   15) = (   0.0150159  -0.0879264   0.0000000), wk =   0.0277778
        k(   16) = (   0.0150159  -0.0716152   0.0000000), wk =   0.0277778
        k(   17) = (   0.0150159  -0.0553039   0.0000000), wk =   0.0277778
        k(   18) = (   0.0150159  -0.0389927   0.0000000), wk =   0.0277778
        k(   19) = (   0.0150159  -0.0226815   0.0000000), wk =   0.0277778
        k(   20) = (   0.0300317  -0.0127405   0.0000000), wk =   0.0277778
        k(   21) = (   0.0300317   0.0035707   0.0000000), wk =   0.0277778
        k(   22) = (   0.0300317   0.0198819   0.0000000), wk =   0.0277778
        k(   23) = (   0.0300317   0.0361932   0.0000000), wk =   0.0277778
        k(   24) = (   0.0300317   0.0525044   0.0000000), wk =   0.0277778
        k(   25) = (   0.0300317   0.0688156   0.0000000), wk =   0.0277778
        k(   26) = (   0.0300317  -0.1106079   0.0000000), wk =   0.0277778
        k(   27) = (   0.0300317  -0.0942966   0.0000000), wk =   0.0277778
        k(   28) = (   0.0300317  -0.0779854   0.0000000), wk =   0.0277778
        k(   29) = (   0.0300317  -0.0616742   0.0000000), wk =   0.0277778
        k(   30) = (   0.0300317  -0.0453630   0.0000000), wk =   0.0277778
        k(   31) = (   0.0300317  -0.0290517   0.0000000), wk =   0.0277778
        k(   32) = (   0.0450476  -0.0191108   0.0000000), wk =   0.0277778
        k(   33) = (   0.0450476  -0.0027995   0.0000000), wk =   0.0277778
        k(   34) = (   0.0450476   0.0135117   0.0000000), wk =   0.0277778
        k(   35) = (   0.0450476   0.0298229   0.0000000), wk =   0.0277778
        k(   36) = (   0.0450476   0.0461341   0.0000000), wk =   0.0277778
        k(   37) = (   0.0450476   0.0624454   0.0000000), wk =   0.0277778
        k(   38) = (   0.0450476  -0.1169781   0.0000000), wk =   0.0277778
        k(   39) = (   0.0450476  -0.1006669   0.0000000), wk =   0.0277778
        k(   40) = (   0.0450476  -0.0843557   0.0000000), wk =   0.0277778
        k(   41) = (   0.0450476  -0.0680444   0.0000000), wk =   0.0277778
        k(   42) = (   0.0450476  -0.0517332   0.0000000), wk =   0.0277778
        k(   43) = (   0.0450476  -0.0354220   0.0000000), wk =   0.0277778
        k(   44) = (   0.0600634  -0.0254810   0.0000000), wk =   0.0277778
        k(   45) = (   0.0600634  -0.0091698   0.0000000), wk =   0.0277778
        k(   46) = (   0.0600634   0.0071414   0.0000000), wk =   0.0277778
        k(   47) = (   0.0600634   0.0234526   0.0000000), wk =   0.0277778
        k(   48) = (   0.0600634   0.0397639   0.0000000), wk =   0.0277778
        k(   49) = (   0.0600634   0.0560751   0.0000000), wk =   0.0277778
        k(   50) = (   0.0600634  -0.1233484   0.0000000), wk =   0.0277778
        k(   51) = (   0.0600634  -0.1070372   0.0000000), wk =   0.0277778
        k(   52) = (   0.0600634  -0.0907259   0.0000000), wk =   0.0277778
        k(   53) = (   0.0600634  -0.0744147   0.0000000), wk =   0.0277778
        k(   54) = (   0.0600634  -0.0581035   0.0000000), wk =   0.0277778
        k(   55) = (   0.0600634  -0.0417923   0.0000000), wk =   0.0277778
        k(   56) = (   0.0750793  -0.0318513   0.0000000), wk =   0.0277778
        k(   57) = (   0.0750793  -0.0155401   0.0000000), wk =   0.0277778
        k(   58) = (   0.0750793   0.0007712   0.0000000), wk =   0.0277778
        k(   59) = (   0.0750793   0.0170824   0.0000000), wk =   0.0277778
        k(   60) = (   0.0750793   0.0333936   0.0000000), wk =   0.0277778
        k(   61) = (   0.0750793   0.0497048   0.0000000), wk =   0.0277778
        k(   62) = (   0.0750793  -0.1297186   0.0000000), wk =   0.0277778
        k(   63) = (   0.0750793  -0.1134074   0.0000000), wk =   0.0277778
        k(   64) = (   0.0750793  -0.0970962   0.0000000), wk =   0.0277778
        k(   65) = (   0.0750793  -0.0807850   0.0000000), wk =   0.0277778
        k(   66) = (   0.0750793  -0.0644737   0.0000000), wk =   0.0277778
        k(   67) = (   0.0750793  -0.0481625   0.0000000), wk =   0.0277778
        k(   68) = (  -0.0900951   0.0382215   0.0000000), wk =   0.0138889
        k(   69) = (  -0.0900951   0.0545328   0.0000000), wk =   0.0277778
        k(   70) = (  -0.0900951   0.0708440   0.0000000), wk =   0.0277778
        k(   71) = (  -0.0900951   0.0871552   0.0000000), wk =   0.0277778
        k(   72) = (  -0.0900951   0.1034664   0.0000000), wk =   0.0277778
        k(   73) = (  -0.0900951   0.1197777   0.0000000), wk =   0.0277778
        k(   74) = (  -0.0900951  -0.0596458   0.0000000), wk =   0.0138889

     Initial potential from superposition of free atoms

     starting charge  173.99069, renormalised to  174.00000

     negative rho (up, down):  9.506E-04 0.000E+00

     %%%%%%%%%%%%%%%%%%%%%%%%%%%%%%%%%%%%%%%%%%%%%%%%%%%%%%%%%%%%%%%%%%%%%%%%
     %                                                                      %
     % You are using vdW-DF, which was implemented by the Thonhauser group. %
     % Please cite the following two papers that made this development      %
     % possible and the two reviews that describe the various versions:     %
     %                                                                      %
     %   T. Thonhauser et al., PRL 115, 136402 (2015).                      %
     %   T. Thonhauser et al., PRB 76, 125112 (2007).                       %
     %   K. Berland et al., Rep. Prog. Phys. 78, 066501 (2015).             %
     %   D.C. Langreth et al., J. Phys.: Condens. Matter 21, 084203 (2009). %
     %                                                                      %
     %                                                                      %
     % If you are calculating the stress with vdW-DF, please also cite:     %
     %                                                                      %
     %   R. Sabatini et al., J. Phys.: Condens. Matter 24, 424209 (2012).   %
     %                                                                      %
     %%%%%%%%%%%%%%%%%%%%%%%%%%%%%%%%%%%%%%%%%%%%%%%%%%%%%%%%%%%%%%%%%%%%%%%%

     Adding external electric field

     Computed dipole along edir(3) :
        Dipole                0.0005 Ry au,          0.0012 Debye
        Dipole field          0.0000 Ry au,

        Potential amp.       -0.0001 Ry
        Total length         45.3105 bohr

     Starting wfcs are  138 randomized atomic wfcs

     Self-consistent Calculation

     iteration #  1     ecut=    55.12 Ry     beta= 0.10
     Davidson diagonalization with overlap
     ethr =  1.00E-02,  avg # of iterations =  2.0

[...]

     total energy              =   -1915.49977814 Ry
     estimated scf accuracy    <       3.05977742 Ry

[...]

     iteration #  7     ecut=    55.12 Ry     beta= 0.10
     Davidson diagonalization with overlap
     c_bands:  1 eigenvalues not converged
     c_bands:  1 eigenvalues not converged
     c_bands:  1 eigenvalues not converged
     ethr =  2.71E-05,  avg # of iterations =  6.9

[...]

     iteration #  9     ecut=    55.12 Ry     beta= 0.10
     Davidson diagonalization with overlap
     c_bands:  1 eigenvalues not converged
     c_bands:  1 eigenvalues not converged
     ethr =  1.93E-06,  avg # of iterations =  8.2

[...]

     total energy              =   -1915.68576440 Ry
     estimated scf accuracy    <       0.00001309 Ry

     iteration # 15     ecut=    55.12 Ry     beta= 0.10
     Davidson diagonalization with overlap
     ethr =  7.52E-09,  avg # of iterations =  3.1

[...]

     Adding external electric field

     Computed dipole along edir(3) :
        Dipole                0.1063 Ry au,          0.2703 Debye
        Dipole field          0.0003 Ry au,

        Potential amp.       -0.0257 Ry
        Total length         45.3105 bohr

     End of self-consistent calculation

          k = 0.0000 0.0000 0.0000 ( 32561 PWs)   bands (ev):

   -84.1154 -84.1097 -83.6386 -83.6329 -83.4854 -83.4798 -53.1454 -53.1163
   -53.0969 -53.0707 -53.0414 -52.9979 -43.5410 -43.3934 -43.3834 -43.3774
   -43.3754 -43.3634 -43.0357 -42.9539 -42.9364 -42.9115 -42.9002 -42.8781
   -42.8469 -42.8271 -42.8100 -42.7198 -42.7062 -42.6920 -29.3843 -29.2781
   -29.2525 -29.2395 -29.2379 -29.1787 -29.1699 -29.1534 -29.1032 -29.0497
   -29.0378 -29.0150 -28.9997 -28.9431 -28.9134 -28.8911 -28.7825 -28.7124
    -5.1482  -3.3656  -3.2853  -3.1882  -2.8287  -2.8284  -2.5864  -2.5824
    -2.4563  -2.2984  -1.8833  -1.6386  -1.5914  -1.2442  -1.2078  -0.8371
    -0.8034  -0.6212  -0.5477  -0.3167  -0.2088  -0.1537   0.3907   0.4932
     0.6657   0.8081   0.8475   1.3633   1.4988   1.5630   1.8486   1.9783
     2.0616   2.2832   2.7792   2.8201   2.9462   3.0281   3.2428   3.3849
     3.4788   3.5547   3.6189   3.6695   3.8832   3.9634   4.1384   4.2928
     4.3210   4.3771   4.4803   4.4829   4.5578   4.6307   4.8420   4.9124

[...]

          k = 0.0751-0.0482 0.0000 ( 32491 PWs)   bands (ev):

[...]

          k =-0.0901 0.0382 0.0000 ( 32512 PWs)   bands (ev):

[...]

          k =-0.0901-0.0596 0.0000 ( 32526 PWs)   bands (ev):

   -84.1154 -84.1097 -83.6386 -83.6329 -83.4854 -83.4798 -53.1437 -53.1213
   -53.1029 -53.0685 -53.0451 -52.9969 -43.5347 -43.3834 -43.3828 -43.3734
   -43.3724 -43.3607 -43.0299 -42.9435 -42.9340 -42.9110 -42.9020 -42.8777
   -42.8406 -42.8159 -42.8071 -42.7189 -42.7063 -42.6915 -29.4113 -29.3361
   -29.2587 -29.2432 -29.2346 -29.2084 -29.1917 -29.1764 -29.1163 -29.0744
   -29.0595 -29.0262 -28.9978 -28.9419 -28.9191 -28.9187 -28.7884 -28.7186
    -3.4406  -3.0639  -2.2414  -2.2109  -1.8589  -1.7280  -1.5307  -1.4802
    -1.4033  -1.2860  -1.1594  -0.9207  -0.9072  -0.6996  -0.6526  -0.5594
    -0.5397  -0.1371  -0.0654   0.0852   0.3141   0.3577   0.3987   0.5188
     0.6503   0.8044   0.8522   0.9180   1.0251   1.1290   1.1494   1.2454
     1.3243   1.3440   1.4150   1.4456   1.6132   1.7097   2.0682   2.1823
     2.2350   2.2675   2.3341   2.4608   2.7066   2.7405   3.0301   3.1557
     3.5172   3.5493   3.7771   3.7792   3.8016   4.0123   4.1412   4.1712

     the Fermi energy is     2.5494 ev

!    total energy              =   -1915.68576799 Ry
     estimated scf accuracy    <       0.00000158 Ry
     smearing contrib. (-TS)   =      -0.04538255 Ry
     internal energy E=F+TS    =   -1915.64038545 Ry

     The total energy is F=E-TS. E is the sum of the following terms:
     one-electron contribution =  -16019.70510034 Ry
     hartree contribution      =    7996.94764429 Ry
     xc contribution           =    -350.93395630 Ry
     ewald contribution        =    6458.05099672 Ry
     electric field correction =       0.00003019 Ry

     convergence has been achieved in  15 iterations

     negative rho (up, down):  9.435E-04 0.000E+00

     Forces acting on atoms (cartesian axes, Ry/au):

     atom    1 type  1   force =    -0.01867656   -0.01236577   -0.02155280
     atom    2 type  1   force =    -0.01867806   -0.01236405   -0.02155253
     atom    3 type  2   force =     0.00365491    0.00241978    0.05084459
     atom    4 type  2   force =     0.00366001    0.00242256    0.05084243
     atom    5 type  1   force =     0.01060863    0.00702447   -0.03275563
     atom    6 type  1   force =     0.01061051    0.00702238   -0.03276105
     atom    7 type  2   force =     0.00384783    0.00254756    0.00153376
     atom    8 type  2   force =     0.00384569    0.00254680    0.00153478
     atom    9 type  1   force =     0.00016731    0.00010817    0.00125292
     atom   10 type  1   force =     0.00016152    0.00010961    0.00125179
     atom   11 type  2   force =     0.00039602    0.00027192    0.00068168
     atom   12 type  2   force =     0.00040219    0.00025656    0.00068006

     Total force =     0.098300     Total SCF correction =     0.005186

     Writing output data file ./Nb2Os2/Nb2Os2_beef.save/

     General routines

     Parallel routines

   This run was terminated on:  23:45:21  10Jul2022

   JOB DONE.