     Program PWSCF v.6.6 starts on 23Jun2022 at 20:42:51

     R & G space division:  proc/nbgrp/npool/nimage =      37
     Fft bands division:     nmany     =       1
     Reading input from Nb2Pd2.in
Warning: card &CELL ignored
Warning: card / ignored

     Current dimensions of program PWSCF are:
     Max number of different atomic species (ntypx) = 10
     Max number of k-points (npk) =  40000
     Max angular momentum in pseudopotentials (lmaxx) =  3
     Presently stress not available with electric field and gates

     Message from routine cell_base_init:
     DEPRECATED: use true lattice parameter, not A to a.u. conversion factor
     file Nb.pbe-spn-rrkjus_psl.1.0.0.UPF: wavefunction(s)  4S 4P renormalized
     file Pd.pbe-n-rrkjus_psl.1.0.0.UPF: wavefunction(s)  4D renormalized

     IMPORTANT: XC functional enforced from input :
     Exchange-correlation= BEEF-VDW
                           (   1   4  43  14   2   0   0)
     Any further DFT definition will be discarded
     Please, verify this is what you really want

     Subspace diagonalization in iterative solution of the eigenvalue problem:
     a serial algorithm will be used

     Found symmetry operation: I + ( -0.5000  0.0000  0.0000)
     This is a supercell, fractional translations are disabled

     bravais-lattice index     =            0
     lattice parameter (alat)  =       1.8897  a.u.
     unit-cell volume          =    4726.4738 (a.u.)^3
     number of atoms/cell      =           12
     number of atomic types    =            2
     number of electrons       =       138.00
     number of Kohn-Sham states=           83
     kinetic-energy cutoff     =      55.1240  Ry
     charge density cutoff     =     551.2396  Ry
     convergence threshold     =      1.0E-05
     mixing beta               =       0.1000
     number of iterations used =           10  plain     mixing
     Exchange-correlation= BEEF-VDW
                           (   1   4  43  14   2   0   0)

     celldm(1)=   1.889726  celldm(2)=   0.000000  celldm(3)=   0.000000
     celldm(4)=   0.000000  celldm(5)=   0.000000  celldm(6)=   0.000000

     crystal axes: (cart. coord. in units of alat)
               a(1) = (   5.651872   0.000000   0.000000 )
               a(2) = (  -2.825936   5.022690   0.000000 )
               a(3) = (   0.000000   0.000000  24.672437 )

     reciprocal axes: (cart. coord. in units 2 pi/alat)
               b(1) = (  0.176933  0.099548 -0.000000 )
               b(2) = (  0.000000  0.199097  0.000000 )
               b(3) = (  0.000000 -0.000000  0.040531 )

     PseudoPot. # 1 for Nb read from file:
     ../pseudo/Nb.pbe-spn-rrkjus_psl.1.0.0.UPF
     MD5 check sum: 6ee677a9f002bd3e3657f443f129faad
     Pseudo is Ultrasoft + core correction, Zval = 13.0
     Generated using "atomic" code by A. Dal Corso v.6.2.2
     Using radial grid of 1227 points,  6 beta functions with:
                l(1) =   0
                l(2) =   0
                l(3) =   1
                l(4) =   1
                l(5) =   2
                l(6) =   2
     Q(r) pseudized with 0 coefficients

     PseudoPot. # 2 for Pd read from file:
     ../pseudo/Pd.pbe-n-rrkjus_psl.1.0.0.UPF
     MD5 check sum: d9f693bf1c5b493397a6bd6f2231cfc3
     Pseudo is Ultrasoft + core correction, Zval = 10.0
     Generated using "atomic" code by A. Dal Corso v.6.3
     Using radial grid of 1235 points,  6 beta functions with:
                l(1) =   0
                l(2) =   0
                l(3) =   1
                l(4) =   1
                l(5) =   2
                l(6) =   2
     Q(r) pseudized with 0 coefficients

     atomic species   valence    mass     pseudopotential
        Nb            13.00    92.90637     Nb( 1.00)
        Pd            10.00   106.42000     Pd( 1.00)

     No symmetry found

   Cartesian axes

     site n.     atom                  positions (alat units)
         1           Nb  tau(   1) = (   0.0000000   0.0000000  10.0000000  )
         2           Nb  tau(   2) = (   2.8259361   0.0000000  10.0000000  )
         3           Pd  tau(   3) = (   1.4129680   2.5113452  10.0000000  )
         4           Pd  tau(   4) = (  -1.4129680   2.5113452  10.0000000  )
         5           Nb  tau(   5) = (   2.8259361   1.5899675  12.3362187  )
         6           Nb  tau(   6) = (   0.0000000   1.5899675  12.3362187  )
         7           Pd  tau(   7) = (  -1.4129680   4.1013128  12.3362187  )
         8           Pd  tau(   8) = (   1.4129680   4.1013128  12.3362187  )
         9           Nb  tau(   9) = (   0.0000020   3.2318289  14.5385216  )
        10           Nb  tau(  10) = (   2.8259371   3.2318346  14.5385233  )
        11           Pd  tau(  11) = (   4.2389040   0.7710525  14.6599191  )
        12           Pd  tau(  12) = (   1.4129655   0.7710526  14.6599210  )

     number of k points=    74  Fermi-Dirac smearing, width (Ry)=  0.0100
                       cart. coord. in units 2pi/alat
        k(    1) = (   0.0000000   0.0000000   0.0000000), wk =   0.0138889
        k(    2) = (   0.0000000   0.0165914   0.0000000), wk =   0.0277778
        k(    3) = (   0.0000000   0.0331828   0.0000000), wk =   0.0277778
        k(    4) = (   0.0000000   0.0497741   0.0000000), wk =   0.0277778
        k(    5) = (   0.0000000   0.0663655   0.0000000), wk =   0.0277778
        k(    6) = (   0.0000000   0.0829569   0.0000000), wk =   0.0277778
        k(    7) = (   0.0000000  -0.0995483   0.0000000), wk =   0.0138889
        k(    8) = (   0.0147444   0.0082957   0.0000000), wk =   0.0277778
        k(    9) = (   0.0147444   0.0248871   0.0000000), wk =   0.0277778
        k(   10) = (   0.0147444   0.0414784   0.0000000), wk =   0.0277778
        k(   11) = (   0.0147444   0.0580698   0.0000000), wk =   0.0277778
        k(   12) = (   0.0147444   0.0746612   0.0000000), wk =   0.0277778
        k(   13) = (   0.0147444   0.0912526   0.0000000), wk =   0.0277778
        k(   14) = (   0.0147444  -0.0912526   0.0000000), wk =   0.0277778
        k(   15) = (   0.0147444  -0.0746612   0.0000000), wk =   0.0277778
        k(   16) = (   0.0147444  -0.0580698   0.0000000), wk =   0.0277778
        k(   17) = (   0.0147444  -0.0414784   0.0000000), wk =   0.0277778
        k(   18) = (   0.0147444  -0.0248871   0.0000000), wk =   0.0277778
        k(   19) = (   0.0147444  -0.0082957   0.0000000), wk =   0.0277778
        k(   20) = (   0.0294888   0.0165914   0.0000000), wk =   0.0277778
        k(   21) = (   0.0294888   0.0331828   0.0000000), wk =   0.0277778
        k(   22) = (   0.0294888   0.0497741   0.0000000), wk =   0.0277778
        k(   23) = (   0.0294888   0.0663655   0.0000000), wk =   0.0277778
        k(   24) = (   0.0294888   0.0829569   0.0000000), wk =   0.0277778
        k(   25) = (   0.0294888   0.0995483   0.0000000), wk =   0.0277778
        k(   26) = (   0.0294888  -0.0829569   0.0000000), wk =   0.0277778
        k(   27) = (   0.0294888  -0.0663655   0.0000000), wk =   0.0277778
        k(   28) = (   0.0294888  -0.0497741   0.0000000), wk =   0.0277778
        k(   29) = (   0.0294888  -0.0331828   0.0000000), wk =   0.0277778
        k(   30) = (   0.0294888  -0.0165914   0.0000000), wk =   0.0277778
        k(   31) = (   0.0294888  -0.0000000   0.0000000), wk =   0.0277778
        k(   32) = (   0.0442331   0.0248871   0.0000000), wk =   0.0277778
        k(   33) = (   0.0442331   0.0414784   0.0000000), wk =   0.0277778
        k(   34) = (   0.0442331   0.0580698   0.0000000), wk =   0.0277778
        k(   35) = (   0.0442331   0.0746612   0.0000000), wk =   0.0277778
        k(   36) = (   0.0442331   0.0912526   0.0000000), wk =   0.0277778
        k(   37) = (   0.0442331   0.1078439   0.0000000), wk =   0.0277778
        k(   38) = (   0.0442331  -0.0746612   0.0000000), wk =   0.0277778
        k(   39) = (   0.0442331  -0.0580698   0.0000000), wk =   0.0277778
        k(   40) = (   0.0442331  -0.0414784   0.0000000), wk =   0.0277778
        k(   41) = (   0.0442331  -0.0248871   0.0000000), wk =   0.0277778
        k(   42) = (   0.0442331  -0.0082957   0.0000000), wk =   0.0277778
        k(   43) = (   0.0442331   0.0082957   0.0000000), wk =   0.0277778
        k(   44) = (   0.0589775   0.0331828   0.0000000), wk =   0.0277778
        k(   45) = (   0.0589775   0.0497741   0.0000000), wk =   0.0277778
        k(   46) = (   0.0589775   0.0663655   0.0000000), wk =   0.0277778
        k(   47) = (   0.0589775   0.0829569   0.0000000), wk =   0.0277778
        k(   48) = (   0.0589775   0.0995483   0.0000000), wk =   0.0277778
        k(   49) = (   0.0589775   0.1161396   0.0000000), wk =   0.0277778
        k(   50) = (   0.0589775  -0.0663655   0.0000000), wk =   0.0277778
        k(   51) = (   0.0589775  -0.0497741   0.0000000), wk =   0.0277778
        k(   52) = (   0.0589775  -0.0331828   0.0000000), wk =   0.0277778
        k(   53) = (   0.0589775  -0.0165914   0.0000000), wk =   0.0277778
        k(   54) = (   0.0589775   0.0000000   0.0000000), wk =   0.0277778
        k(   55) = (   0.0589775   0.0165914   0.0000000), wk =   0.0277778
        k(   56) = (   0.0737219   0.0414784   0.0000000), wk =   0.0277778
        k(   57) = (   0.0737219   0.0580698   0.0000000), wk =   0.0277778
        k(   58) = (   0.0737219   0.0746612   0.0000000), wk =   0.0277778
        k(   59) = (   0.0737219   0.0912526   0.0000000), wk =   0.0277778
        k(   60) = (   0.0737219   0.1078439   0.0000000), wk =   0.0277778
        k(   61) = (   0.0737219   0.1244353   0.0000000), wk =   0.0277778
        k(   62) = (   0.0737219  -0.0580698   0.0000000), wk =   0.0277778
        k(   63) = (   0.0737219  -0.0414784   0.0000000), wk =   0.0277778
        k(   64) = (   0.0737219  -0.0248871   0.0000000), wk =   0.0277778
        k(   65) = (   0.0737219  -0.0082957   0.0000000), wk =   0.0277778
        k(   66) = (   0.0737219   0.0082957   0.0000000), wk =   0.0277778
        k(   67) = (   0.0737219   0.0248871   0.0000000), wk =   0.0277778
        k(   68) = (  -0.0884663  -0.0497741   0.0000000), wk =   0.0138889
        k(   69) = (  -0.0884663  -0.0331828   0.0000000), wk =   0.0277778
        k(   70) = (  -0.0884663  -0.0165914   0.0000000), wk =   0.0277778
        k(   71) = (  -0.0884663   0.0000000   0.0000000), wk =   0.0277778
        k(   72) = (  -0.0884663   0.0165914   0.0000000), wk =   0.0277778
        k(   73) = (  -0.0884663   0.0331828   0.0000000), wk =   0.0277778
        k(   74) = (  -0.0884663  -0.1493224   0.0000000), wk =   0.0138889

     Initial potential from superposition of free atoms

     starting charge  137.98872, renormalised to  138.00000

     negative rho (up, down):  1.275E-03 0.000E+00

     %%%%%%%%%%%%%%%%%%%%%%%%%%%%%%%%%%%%%%%%%%%%%%%%%%%%%%%%%%%%%%%%%%%%%%%%
     %                                                                      %
     % You are using vdW-DF, which was implemented by the Thonhauser group. %
     % Please cite the following two papers that made this development      %
     % possible and the two reviews that describe the various versions:     %
     %                                                                      %
     %   T. Thonhauser et al., PRL 115, 136402 (2015).                      %
     %   T. Thonhauser et al., PRB 76, 125112 (2007).                       %
     %   K. Berland et al., Rep. Prog. Phys. 78, 066501 (2015).             %
     %   D.C. Langreth et al., J. Phys.: Condens. Matter 21, 084203 (2009). %
     %                                                                      %
     %                                                                      %
     % If you are calculating the stress with vdW-DF, please also cite:     %
     %                                                                      %
     %   R. Sabatini et al., J. Phys.: Condens. Matter 24, 424209 (2012).   %
     %                                                                      %
     %%%%%%%%%%%%%%%%%%%%%%%%%%%%%%%%%%%%%%%%%%%%%%%%%%%%%%%%%%%%%%%%%%%%%%%%

     Adding external electric field

     Computed dipole along edir(3) :
        Dipole               -0.0001 Ry au,         -0.0003 Debye
        Dipole field         -0.0000 Ry au,

        Potential amp.        0.0000 Ry
        Total length         45.4585 bohr

     Starting wfcs are  132 randomized atomic wfcs

     Self-consistent Calculation

     iteration #  1     ecut=    55.12 Ry     beta= 0.10
     Davidson diagonalization with overlap
     ethr =  1.00E-02,  avg # of iterations =  1.9

[...]

     total energy              =   -1122.79576346 Ry
     estimated scf accuracy    <       3.34728089 Ry

[...]

     iteration #  6     ecut=    55.12 Ry     beta= 0.10
     Davidson diagonalization with overlap
     c_bands:  1 eigenvalues not converged
     ethr =  9.09E-05,  avg # of iterations =  6.0

[...]

     iteration # 13     ecut=    55.12 Ry     beta= 0.10
     Davidson diagonalization with overlap
     ethr =  9.08E-08,  avg # of iterations =  2.0

[...]

     total energy              =   -1123.00715055 Ry
     estimated scf accuracy    <       0.00004108 Ry

     iteration # 14     ecut=    55.12 Ry     beta= 0.10
     Davidson diagonalization with overlap
     c_bands:  1 eigenvalues not converged
     ethr =  2.98E-08,  avg # of iterations =  4.1

[...]

     Adding external electric field

     Computed dipole along edir(3) :
        Dipole               -0.0014 Ry au,         -0.0035 Debye
        Dipole field         -0.0000 Ry au,

        Potential amp.        0.0003 Ry
        Total length         45.4585 bohr

     End of self-consistent calculation

          k = 0.0000 0.0000 0.0000 ( 32645 PWs)   bands (ev):

   -54.1223 -54.0581 -54.0091 -53.9439 -53.8877 -53.7727 -30.4542 -30.4103
   -30.3970 -30.3407 -30.2712 -30.2037 -30.1534 -30.1046 -30.0929 -30.0469
   -29.9945 -29.9754 -29.8548 -29.5546 -29.4846 -29.4563 -29.4511 -29.3946
    -4.8620  -3.7066  -3.6651  -3.5870  -3.5563  -3.5557  -3.4768  -3.3204
    -3.2583  -3.1673  -3.1165  -3.1129  -2.9616  -2.8514  -2.7374  -2.1297
    -2.0152  -1.9424  -1.8434  -1.7412  -1.6536  -1.4376  -1.4230  -1.3092
    -1.2610  -1.2565  -0.9253  -0.9026  -0.8532  -0.3705  -0.2191  -0.1989
    -0.0458   0.0585   0.2397   0.3740   0.5057   0.7790   0.8192   1.1929
     1.2198   1.2230   1.2345   1.4616   1.8160   2.0479   2.0544   2.1260
     2.3587   2.4756   2.7215   2.8409   3.2772   3.3070   3.4917   3.6349
     3.6680   3.6684   3.8935

[...]

          k = 0.0737 0.0249 0.0000 ( 32644 PWs)   bands (ev):

[...]

          k =-0.0885-0.0498 0.0000 ( 32624 PWs)   bands (ev):

[...]

          k =-0.0885-0.1493 0.0000 ( 32624 PWs)   bands (ev):

   -54.0659 -54.0659 -54.0013 -54.0012 -53.8304 -53.8303 -30.3374 -30.3374
   -30.1490 -30.1490 -30.1029 -30.1028 -30.0536 -30.0535 -29.9846 -29.9846
   -29.9461 -29.9460 -29.9171 -29.9171 -29.8821 -29.8820 -29.5061 -29.5060
    -3.4291  -3.4291  -2.9989  -2.9988  -2.8919  -2.8919  -2.6606  -2.6606
    -2.5667  -2.5667  -2.4916  -2.4916  -2.2794  -2.2794  -2.1786  -2.1786
    -1.8781  -1.8781  -1.7219  -1.7219  -1.6110  -1.6110  -1.4510  -1.4510
    -1.3711  -1.3711  -1.2665  -1.2665  -1.2058  -1.2058  -1.0236  -1.0236
    -0.8681  -0.8681   0.0378   0.0378   0.4460   0.4460   0.5126   0.5126
     0.8534   0.8534   1.0744   1.0744   1.6090   1.6091   1.7556   1.7556
     1.9698   1.9698   2.1857   2.1857   2.2246   2.2246   2.3856   2.3856
     2.5580   2.5580   3.5078

     the Fermi energy is     1.3328 ev

!    total energy              =   -1123.00714868 Ry
     estimated scf accuracy    <       0.00000588 Ry
     smearing contrib. (-TS)   =      -0.06007183 Ry
     internal energy E=F+TS    =   -1122.94707685 Ry

     The total energy is F=E-TS. E is the sum of the following terms:
     one-electron contribution =   -9837.76359295 Ry
     hartree contribution      =    4955.77086521 Ry
     xc contribution           =    -249.55852473 Ry
     ewald contribution        =    4008.60417561 Ry
     electric field correction =       0.00000000 Ry

     convergence has been achieved in  14 iterations

     negative rho (up, down):  1.234E-03 0.000E+00

     Forces acting on atoms (cartesian axes, Ry/au):

     atom    1 type  1   force =     0.00000370    0.00836984    0.02506803
     atom    2 type  1   force =     0.00000142    0.00836833    0.02506935
     atom    3 type  2   force =    -0.00000042   -0.01562497   -0.00285144
     atom    4 type  2   force =    -0.00000053   -0.01562715   -0.00285002
     atom    5 type  1   force =     0.00000468    0.00146114   -0.01274256
     atom    6 type  1   force =    -0.00000013    0.00145672   -0.01274985
     atom    7 type  2   force =    -0.00000009    0.00530901   -0.01293608
     atom    8 type  2   force =    -0.00000069    0.00530782   -0.01293633
     atom    9 type  1   force =    -0.00000410   -0.00029794    0.00137932
     atom   10 type  1   force =     0.00000026   -0.00029906    0.00137179
     atom   11 type  2   force =    -0.00000329    0.00078784    0.00208898
     atom   12 type  2   force =    -0.00000082    0.00078842    0.00208881

     Total force =     0.051339     Total SCF correction =     0.006175
     SCF correction compared to forces is large: reduce conv_thr to get better values

     Writing output data file ./Nb2Pd2/Nb2Pd2_beef.save/

     General routines

     Parallel routines

   This run was terminated on:  21: 9:32  23Jun2022

   JOB DONE.