     Program PWSCF v.6.6 starts on 24Jun2022 at 11: 3:46

     R & G space division:  proc/nbgrp/npool/nimage =      37
     Fft bands division:     nmany     =       1
     Reading input from Nb2Re2.in
Warning: card &CELL ignored
Warning: card / ignored

     Current dimensions of program PWSCF are:
     Max number of different atomic species (ntypx) = 10
     Max number of k-points (npk) =  40000
     Max angular momentum in pseudopotentials (lmaxx) =  3
     Presently stress not available with electric field and gates

     Message from routine cell_base_init:
     DEPRECATED: use true lattice parameter, not A to a.u. conversion factor
     file Nb.pbe-spn-rrkjus_psl.1.0.0.UPF: wavefunction(s)  4S 4P renormalized

     IMPORTANT: XC functional enforced from input :
     Exchange-correlation= BEEF-VDW
                           (   1   4  43  14   2   0   0)
     Any further DFT definition will be discarded
     Please, verify this is what you really want

     Subspace diagonalization in iterative solution of the eigenvalue problem:
     a serial algorithm will be used

     Found symmetry operation: I + (  0.5000  0.5000  0.0000)
     This is a supercell, fractional translations are disabled

     bravais-lattice index     =            0
     lattice parameter (alat)  =       1.8897  a.u.
     unit-cell volume          =    4797.4041 (a.u.)^3
     number of atoms/cell      =           12
     number of atomic types    =            2
     number of electrons       =       168.00
     number of Kohn-Sham states=          101
     kinetic-energy cutoff     =      55.1240  Ry
     charge density cutoff     =     551.2396  Ry
     convergence threshold     =      1.0E-05
     mixing beta               =       0.1000
     number of iterations used =           10  plain     mixing
     Exchange-correlation= BEEF-VDW
                           (   1   4  43  14   2   0   0)

     celldm(1)=   1.889726  celldm(2)=   0.000000  celldm(3)=   0.000000
     celldm(4)=   0.000000  celldm(5)=   0.000000  celldm(6)=   0.000000

     crystal axes: (cart. coord. in units of alat)
               a(1) = (   5.545213   0.000000   0.000000 )
               a(2) = (   1.852832   5.226510   0.000000 )
               a(3) = (   0.000000   0.000000  24.528996 )

     reciprocal axes: (cart. coord. in units 2 pi/alat)
               b(1) = (  0.180336 -0.063930  0.000000 )
               b(2) = (  0.000000  0.191332  0.000000 )
               b(3) = (  0.000000  0.000000  0.040768 )

     PseudoPot. # 1 for Nb read from file:
     ../pseudo/Nb.pbe-spn-rrkjus_psl.1.0.0.UPF
     MD5 check sum: 6ee677a9f002bd3e3657f443f129faad
     Pseudo is Ultrasoft + core correction, Zval = 13.0
     Generated using "atomic" code by A. Dal Corso v.6.2.2
     Using radial grid of 1227 points,  6 beta functions with:
                l(1) =   0
                l(2) =   0
                l(3) =   1
                l(4) =   1
                l(5) =   2
                l(6) =   2
     Q(r) pseudized with 0 coefficients

     PseudoPot. # 2 for Re read from file:
     ../pseudo/Re.pbe-spn-rrkjus_psl.1.0.0.UPF
     MD5 check sum: 1282f1ec51ad523723a04c61ae80a9e6
     Pseudo is Ultrasoft + core correction, Zval = 15.0
     Generated using "atomic" code by A. Dal Corso v.6.2.2
     Using radial grid of 1275 points,  6 beta functions with:
                l(1) =   0
                l(2) =   0
                l(3) =   1
                l(4) =   1
                l(5) =   2
                l(6) =   2
     Q(r) pseudized with 0 coefficients

     atomic species   valence    mass     pseudopotential
        Nb            13.00    92.90637     Nb( 1.00)
        Re            15.00   186.20700     Re( 1.00)

     No symmetry found

   Cartesian axes

     site n.     atom                  positions (alat units)
         1           Nb  tau(   1) = (   0.0000000   0.0000000  10.0000000  )
         2           Nb  tau(   2) = (   3.6990224   2.6132548  10.0000000  )
         3           Re  tau(   3) = (   2.7726066   0.0000000  10.0000000  )
         4           Re  tau(   4) = (   0.9264159   2.6132548  10.0000000  )
         5           Nb  tau(   5) = (   5.5452131   3.9175364  12.2644978  )
         6           Nb  tau(   6) = (   1.8461907   1.3042816  12.2644978  )
         7           Re  tau(   7) = (   2.7726066   3.9175364  12.2644978  )
         8           Re  tau(   8) = (   4.6187973   1.3042816  12.2644978  )
         9           Nb  tau(   9) = (   3.6942407   2.6098769  14.5421161  )
        10           Nb  tau(  10) = (   7.3932650   5.2231345  14.5421188  )
        11           Re  tau(  11) = (   6.4661898   2.6094180  14.3814643  )
        12           Re  tau(  12) = (   4.6200040   5.2226640  14.3814815  )

     number of k points=    74  Fermi-Dirac smearing, width (Ry)=  0.0100
                       cart. coord. in units 2pi/alat
        k(    1) = (   0.0000000   0.0000000   0.0000000), wk =   0.0138889
        k(    2) = (   0.0000000   0.0159444   0.0000000), wk =   0.0277778
        k(    3) = (   0.0000000   0.0318887   0.0000000), wk =   0.0277778
        k(    4) = (   0.0000000   0.0478331   0.0000000), wk =   0.0277778
        k(    5) = (   0.0000000   0.0637774   0.0000000), wk =   0.0277778
        k(    6) = (   0.0000000   0.0797218   0.0000000), wk =   0.0277778
        k(    7) = (   0.0000000  -0.0956661   0.0000000), wk =   0.0138889
        k(    8) = (   0.0150280  -0.0053275   0.0000000), wk =   0.0277778
        k(    9) = (   0.0150280   0.0106168   0.0000000), wk =   0.0277778
        k(   10) = (   0.0150280   0.0265612   0.0000000), wk =   0.0277778
        k(   11) = (   0.0150280   0.0425056   0.0000000), wk =   0.0277778
        k(   12) = (   0.0150280   0.0584499   0.0000000), wk =   0.0277778
        k(   13) = (   0.0150280   0.0743943   0.0000000), wk =   0.0277778
        k(   14) = (   0.0150280  -0.1009936   0.0000000), wk =   0.0277778
        k(   15) = (   0.0150280  -0.0850493   0.0000000), wk =   0.0277778
        k(   16) = (   0.0150280  -0.0691049   0.0000000), wk =   0.0277778
        k(   17) = (   0.0150280  -0.0531606   0.0000000), wk =   0.0277778
        k(   18) = (   0.0150280  -0.0372162   0.0000000), wk =   0.0277778
        k(   19) = (   0.0150280  -0.0212719   0.0000000), wk =   0.0277778
        k(   20) = (   0.0300560  -0.0106550   0.0000000), wk =   0.0277778
        k(   21) = (   0.0300560   0.0052893   0.0000000), wk =   0.0277778
        k(   22) = (   0.0300560   0.0212337   0.0000000), wk =   0.0277778
        k(   23) = (   0.0300560   0.0371780   0.0000000), wk =   0.0277778
        k(   24) = (   0.0300560   0.0531224   0.0000000), wk =   0.0277778
        k(   25) = (   0.0300560   0.0690667   0.0000000), wk =   0.0277778
        k(   26) = (   0.0300560  -0.1063212   0.0000000), wk =   0.0277778
        k(   27) = (   0.0300560  -0.0903768   0.0000000), wk =   0.0277778
        k(   28) = (   0.0300560  -0.0744325   0.0000000), wk =   0.0277778
        k(   29) = (   0.0300560  -0.0584881   0.0000000), wk =   0.0277778
        k(   30) = (   0.0300560  -0.0425437   0.0000000), wk =   0.0277778
        k(   31) = (   0.0300560  -0.0265994   0.0000000), wk =   0.0277778
        k(   32) = (   0.0450839  -0.0159825   0.0000000), wk =   0.0277778
        k(   33) = (   0.0450839  -0.0000382   0.0000000), wk =   0.0277778
        k(   34) = (   0.0450839   0.0159062   0.0000000), wk =   0.0277778
        k(   35) = (   0.0450839   0.0318505   0.0000000), wk =   0.0277778
        k(   36) = (   0.0450839   0.0477949   0.0000000), wk =   0.0277778
        k(   37) = (   0.0450839   0.0637392   0.0000000), wk =   0.0277778
        k(   38) = (   0.0450839  -0.1116487   0.0000000), wk =   0.0277778
        k(   39) = (   0.0450839  -0.0957043   0.0000000), wk =   0.0277778
        k(   40) = (   0.0450839  -0.0797600   0.0000000), wk =   0.0277778
        k(   41) = (   0.0450839  -0.0638156   0.0000000), wk =   0.0277778
        k(   42) = (   0.0450839  -0.0478713   0.0000000), wk =   0.0277778
        k(   43) = (   0.0450839  -0.0319269   0.0000000), wk =   0.0277778
        k(   44) = (   0.0601119  -0.0213101   0.0000000), wk =   0.0277778
        k(   45) = (   0.0601119  -0.0053657   0.0000000), wk =   0.0277778
        k(   46) = (   0.0601119   0.0105786   0.0000000), wk =   0.0277778
        k(   47) = (   0.0601119   0.0265230   0.0000000), wk =   0.0277778
        k(   48) = (   0.0601119   0.0424674   0.0000000), wk =   0.0277778
        k(   49) = (   0.0601119   0.0584117   0.0000000), wk =   0.0277778
        k(   50) = (   0.0601119  -0.1169762   0.0000000), wk =   0.0277778
        k(   51) = (   0.0601119  -0.1010318   0.0000000), wk =   0.0277778
        k(   52) = (   0.0601119  -0.0850875   0.0000000), wk =   0.0277778
        k(   53) = (   0.0601119  -0.0691431   0.0000000), wk =   0.0277778
        k(   54) = (   0.0601119  -0.0531988   0.0000000), wk =   0.0277778
        k(   55) = (   0.0601119  -0.0372544   0.0000000), wk =   0.0277778
        k(   56) = (   0.0751399  -0.0266376   0.0000000), wk =   0.0277778
        k(   57) = (   0.0751399  -0.0106932   0.0000000), wk =   0.0277778
        k(   58) = (   0.0751399   0.0052511   0.0000000), wk =   0.0277778
        k(   59) = (   0.0751399   0.0211955   0.0000000), wk =   0.0277778
        k(   60) = (   0.0751399   0.0371398   0.0000000), wk =   0.0277778
        k(   61) = (   0.0751399   0.0530842   0.0000000), wk =   0.0277778
        k(   62) = (   0.0751399  -0.1223037   0.0000000), wk =   0.0277778
        k(   63) = (   0.0751399  -0.1063594   0.0000000), wk =   0.0277778
        k(   64) = (   0.0751399  -0.0904150   0.0000000), wk =   0.0277778
        k(   65) = (   0.0751399  -0.0744706   0.0000000), wk =   0.0277778
        k(   66) = (   0.0751399  -0.0585263   0.0000000), wk =   0.0277778
        k(   67) = (   0.0751399  -0.0425819   0.0000000), wk =   0.0277778
        k(   68) = (  -0.0901679   0.0319651   0.0000000), wk =   0.0138889
        k(   69) = (  -0.0901679   0.0479095   0.0000000), wk =   0.0277778
        k(   70) = (  -0.0901679   0.0638538   0.0000000), wk =   0.0277778
        k(   71) = (  -0.0901679   0.0797982   0.0000000), wk =   0.0277778
        k(   72) = (  -0.0901679   0.0957425   0.0000000), wk =   0.0277778
        k(   73) = (  -0.0901679   0.1116869   0.0000000), wk =   0.0277778
        k(   74) = (  -0.0901679  -0.0637010   0.0000000), wk =   0.0138889

     Initial potential from superposition of free atoms

     starting charge  167.99035, renormalised to  168.00000

     negative rho (up, down):  8.902E-04 0.000E+00

     %%%%%%%%%%%%%%%%%%%%%%%%%%%%%%%%%%%%%%%%%%%%%%%%%%%%%%%%%%%%%%%%%%%%%%%%
     %                                                                      %
     % You are using vdW-DF, which was implemented by the Thonhauser group. %
     % Please cite the following two papers that made this development      %
     % possible and the two reviews that describe the various versions:     %
     %                                                                      %
     %   T. Thonhauser et al., PRL 115, 136402 (2015).                      %
     %   T. Thonhauser et al., PRB 76, 125112 (2007).                       %
     %   K. Berland et al., Rep. Prog. Phys. 78, 066501 (2015).             %
     %   D.C. Langreth et al., J. Phys.: Condens. Matter 21, 084203 (2009). %
     %                                                                      %
     %                                                                      %
     % If you are calculating the stress with vdW-DF, please also cite:     %
     %                                                                      %
     %   R. Sabatini et al., J. Phys.: Condens. Matter 24, 424209 (2012).   %
     %                                                                      %
     %%%%%%%%%%%%%%%%%%%%%%%%%%%%%%%%%%%%%%%%%%%%%%%%%%%%%%%%%%%%%%%%%%%%%%%%

     Adding external electric field

     Computed dipole along edir(3) :
        Dipole                0.0003 Ry au,          0.0009 Debye
        Dipole field          0.0000 Ry au,

        Potential amp.       -0.0001 Ry
        Total length         45.1943 bohr

     Starting wfcs are  138 randomized atomic wfcs

     Self-consistent Calculation

     iteration #  1     ecut=    55.12 Ry     beta= 0.10
     Davidson diagonalization with overlap
     ethr =  1.00E-02,  avg # of iterations =  2.0

[...]

     total energy              =   -1787.49413353 Ry
     estimated scf accuracy    <       3.14345878 Ry

[...]

     iteration #  9     ecut=    55.12 Ry     beta= 0.10
     Davidson diagonalization with overlap
     c_bands:  1 eigenvalues not converged
     c_bands:  1 eigenvalues not converged
     c_bands:  1 eigenvalues not converged
     ethr =  1.19E-05,  avg # of iterations = 10.0

[...]

     iteration # 10     ecut=    55.12 Ry     beta= 0.10
     Davidson diagonalization with overlap
     c_bands:  1 eigenvalues not converged
     ethr =  3.03E-06,  avg # of iterations =  8.4

[...]

     total energy              =   -1787.66038679 Ry
     estimated scf accuracy    <       0.00003489 Ry

     iteration # 15     ecut=    55.12 Ry     beta= 0.10
     Davidson diagonalization with overlap
     ethr =  2.08E-08,  avg # of iterations =  2.2

[...]

     Adding external electric field

     Computed dipole along edir(3) :
        Dipole                0.0485 Ry au,          0.1234 Debye
        Dipole field          0.0001 Ry au,

        Potential amp.       -0.0115 Ry
        Total length         45.1943 bohr

     End of self-consistent calculation

          k = 0.0000 0.0000 0.0000 ( 33159 PWs)   bands (ev):

   -78.1047 -78.1001 -77.7520 -77.7475 -77.6852 -77.6806 -52.9760 -52.9587
   -52.9482 -52.9305 -52.8648 -52.8401 -39.9241 -39.8827 -39.8718 -39.8228
   -39.8148 -39.7800 -39.5302 -39.5187 -39.5177 -39.4935 -39.4666 -39.4495
   -39.4473 -39.4347 -39.4283 -39.4092 -39.3777 -39.3510 -29.1196 -29.1099
   -29.0890 -29.0612 -29.0513 -29.0253 -29.0095 -29.0090 -28.9735 -28.9096
   -28.8916 -28.8466 -28.8359 -28.8208 -28.7634 -28.7505 -28.7239 -28.7144
    -5.0030  -3.2141  -3.0448  -2.9594  -2.6534  -2.5853  -2.3063  -2.2656
    -2.1482  -2.1402  -1.5684  -1.4746  -1.1457  -0.6945  -0.6476  -0.6136
    -0.4986  -0.4729  -0.3246  -0.1735  -0.1717  -0.0204   0.3205   0.9080
     0.9875   0.9944   1.2258   1.4523   1.7439   1.8346   2.1657   2.3667
     2.5691   2.6837   3.0695   3.1276   3.3030   3.6177   3.9290   3.9358
     4.0329   4.1127   4.1663   4.2536   4.2558   4.2756   4.4502   4.4635
     4.5174   4.5457   4.6451   4.6771   4.7419

[...]

          k = 0.0751-0.0426 0.0000 ( 33148 PWs)   bands (ev):

[...]

          k =-0.0902 0.0320 0.0000 ( 33158 PWs)   bands (ev):

[...]

          k =-0.0902-0.0637 0.0000 ( 33142 PWs)   bands (ev):

   -78.1047 -78.1001 -77.7520 -77.7475 -77.6852 -77.6806 -52.9765 -52.9590
   -52.9512 -52.9333 -52.8705 -52.8369 -39.9125 -39.8651 -39.8574 -39.8226
   -39.8099 -39.7780 -39.5318 -39.5202 -39.5071 -39.4821 -39.4483 -39.4453
   -39.4426 -39.4387 -39.4101 -39.4047 -39.3762 -39.3497 -29.1841 -29.1100
   -29.1025 -29.0732 -29.0570 -29.0462 -29.0422 -29.0415 -29.0362 -28.9593
   -28.9231 -28.8929 -28.8248 -28.8061 -28.7783 -28.7569 -28.7336 -28.7283
    -3.0844  -2.8282  -2.1366  -1.8733  -1.4917  -1.3841  -1.2135  -1.1980
    -1.0388  -0.9847  -0.5888  -0.5826  -0.4661  -0.4002  -0.3644  -0.1846
    -0.1266   0.0183   0.1473   0.4642   0.5722   0.6482   0.6663   0.7600
     1.0460   1.0593   1.2232   1.2452   1.2596   1.3428   1.4168   1.4382
     1.4926   1.5699   1.6686   1.8212   1.8511   1.8912   2.2935   2.4948
     2.6100   2.7513   2.8482   2.9220   3.0700   3.2881   3.3349   3.4091
     3.4585   3.6006   3.7016   3.8431   4.3157

     the Fermi energy is     2.3161 ev

!    total energy              =   -1787.66038700 Ry
     estimated scf accuracy    <       0.00000804 Ry
     smearing contrib. (-TS)   =      -0.05504374 Ry
     internal energy E=F+TS    =   -1787.60534325 Ry

     The total energy is F=E-TS. E is the sum of the following terms:
     one-electron contribution =  -14577.54328740 Ry
     hartree contribution      =    7276.17697279 Ry
     xc contribution           =    -360.67977289 Ry
     ewald contribution        =    5874.44073807 Ry
     electric field correction =       0.00000617 Ry

     convergence has been achieved in  15 iterations

     negative rho (up, down):  8.887E-04 0.000E+00

     Forces acting on atoms (cartesian axes, Ry/au):

     atom    1 type  1   force =    -0.00049003   -0.00034585   -0.00724236
     atom    2 type  1   force =    -0.00049040   -0.00034643   -0.00724216
     atom    3 type  2   force =    -0.00011419   -0.00008101    0.04263644
     atom    4 type  2   force =    -0.00011337   -0.00008177    0.04263495
     atom    5 type  1   force =     0.00018566    0.00013447   -0.02014206
     atom    6 type  1   force =     0.00019060    0.00013272   -0.02014287
     atom    7 type  2   force =     0.00003994    0.00002445   -0.01128955
     atom    8 type  2   force =     0.00003610    0.00002926   -0.01128882
     atom    9 type  1   force =     0.00015627    0.00011049   -0.00172869
     atom   10 type  1   force =     0.00015810    0.00011105   -0.00173148
     atom   11 type  2   force =     0.00022213    0.00015484   -0.00222840
     atom   12 type  2   force =     0.00021918    0.00015778   -0.00223499

     Total force =     0.069454     Total SCF correction =     0.012438
     SCF correction compared to forces is large: reduce conv_thr to get better values

     Writing output data file ./Nb2Re2/Nb2Re2_beef.save/

     General routines

     Parallel routines

   This run was terminated on:  12: 4: 8  24Jun2022

   JOB DONE.