     Program PWSCF v.6.6 starts on 10Jul2022 at 16:46:33

     R & G space division:  proc/nbgrp/npool/nimage =      37
     Fft bands division:     nmany     =       1
     Reading input from Nb2Ru2.in
Warning: card &CELL ignored
Warning: card / ignored

     Current dimensions of program PWSCF are:
     Max number of different atomic species (ntypx) = 10
     Max number of k-points (npk) =  40000
     Max angular momentum in pseudopotentials (lmaxx) =  3
     Presently stress not available with electric field and gates

     Message from routine cell_base_init:
     DEPRECATED: use true lattice parameter, not A to a.u. conversion factor
     file Nb.pbe-spn-rrkjus_psl.1.0.0.UPF: wavefunction(s)  4S 4P renormalized

     IMPORTANT: XC functional enforced from input :
     Exchange-correlation= BEEF-VDW
                           (   1   4  43  14   2   0   0)
     Any further DFT definition will be discarded
     Please, verify this is what you really want

     Subspace diagonalization in iterative solution of the eigenvalue problem:
     a serial algorithm will be used

     Found symmetry operation: I + (  0.5000 -0.5000  0.0000)
     This is a supercell, fractional translations are disabled

     bravais-lattice index     =            0
     lattice parameter (alat)  =       1.8897  a.u.
     unit-cell volume          =    4667.2611 (a.u.)^3
     number of atoms/cell      =           12
     number of atomic types    =            2
     number of electrons       =       174.00
     number of Kohn-Sham states=          104
     kinetic-energy cutoff     =      55.1240  Ry
     charge density cutoff     =     551.2396  Ry
     convergence threshold     =      1.0E-05
     mixing beta               =       0.1000
     number of iterations used =           10  plain     mixing
     Exchange-correlation= BEEF-VDW
                           (   1   4  43  14   2   0   0)

     celldm(1)=   1.889726  celldm(2)=   0.000000  celldm(3)=   0.000000
     celldm(4)=   0.000000  celldm(5)=   0.000000  celldm(6)=   0.000000

     crystal axes: (cart. coord. in units of alat)
               a(1) = (   5.519834   0.000000   0.000000 )
               a(2) = (   2.108937   5.101074   0.000000 )
               a(3) = (   0.000000   0.000000  24.562804 )

     reciprocal axes: (cart. coord. in units 2 pi/alat)
               b(1) = (  0.181165 -0.074899  0.000000 )
               b(2) = (  0.000000  0.196037  0.000000 )
               b(3) = (  0.000000  0.000000  0.040712 )

     PseudoPot. # 1 for Nb read from file:
     ../pseudo/Nb.pbe-spn-rrkjus_psl.1.0.0.UPF
     MD5 check sum: 6ee677a9f002bd3e3657f443f129faad
     Pseudo is Ultrasoft + core correction, Zval = 13.0
     Generated using "atomic" code by A. Dal Corso v.6.2.2
     Using radial grid of 1227 points,  6 beta functions with:
                l(1) =   0
                l(2) =   0
                l(3) =   1
                l(4) =   1
                l(5) =   2
                l(6) =   2
     Q(r) pseudized with 0 coefficients

     PseudoPot. # 2 for Ru read from file:
     ../pseudo/Ru.pbe-spn-rrkjus_psl.1.0.0.UPF
     MD5 check sum: fbaca725316a1a65f98761fd4ac95971
     Pseudo is Ultrasoft + core correction, Zval = 16.0
     Generated using "atomic" code by A. Dal Corso v.6.2.2
     Using radial grid of 1233 points,  6 beta functions with:
                l(1) =   0
                l(2) =   0
                l(3) =   1
                l(4) =   1
                l(5) =   2
                l(6) =   2
     Q(r) pseudized with 0 coefficients

     atomic species   valence    mass     pseudopotential
        Nb            13.00    92.90637     Nb( 1.00)
        Ru            16.00   101.07000     Ru( 1.00)

     No symmetry found

   Cartesian axes

     site n.     atom                  positions (alat units)
         1           Nb  tau(   1) = (   0.0000000   0.0000000  10.0000000  )
         2           Nb  tau(   2) = (   3.8143855   2.5505372  10.0000000  )
         3           Ru  tau(   3) = (   2.7599172   0.0000000  10.0000000  )
         4           Ru  tau(   4) = (   1.0544683   2.5505372  10.0000000  )
         5           Nb  tau(   5) = (   5.5198345   3.6909072  12.2814022  )
         6           Nb  tau(   6) = (   1.7054490   1.1403701  12.2814022  )
         7           Ru  tau(   7) = (   2.7599172   3.6909072  12.2814022  )
         8           Ru  tau(   8) = (   4.4653662   1.1403701  12.2814022  )
         9           Nb  tau(   9) = (   3.6393005   2.4334644  14.5678088  )
        10           Nb  tau(  10) = (   7.4536838   4.9840013  14.5678090  )
        11           Ru  tau(  11) = (   6.4093601   2.4402491  14.3661809  )
        12           Ru  tau(  12) = (   4.7039217   4.9907874  14.3661815  )

     number of k points=    74  Fermi-Dirac smearing, width (Ry)=  0.0100
                       cart. coord. in units 2pi/alat
        k(    1) = (   0.0000000   0.0000000   0.0000000), wk =   0.0138889
        k(    2) = (   0.0000000   0.0163364   0.0000000), wk =   0.0277778
        k(    3) = (   0.0000000   0.0326729   0.0000000), wk =   0.0277778
        k(    4) = (   0.0000000   0.0490093   0.0000000), wk =   0.0277778
        k(    5) = (   0.0000000   0.0653457   0.0000000), wk =   0.0277778
        k(    6) = (   0.0000000   0.0816821   0.0000000), wk =   0.0277778
        k(    7) = (   0.0000000  -0.0980186   0.0000000), wk =   0.0138889
        k(    8) = (   0.0150971  -0.0062416   0.0000000), wk =   0.0277778
        k(    9) = (   0.0150971   0.0100948   0.0000000), wk =   0.0277778
        k(   10) = (   0.0150971   0.0264313   0.0000000), wk =   0.0277778
        k(   11) = (   0.0150971   0.0427677   0.0000000), wk =   0.0277778
        k(   12) = (   0.0150971   0.0591041   0.0000000), wk =   0.0277778
        k(   13) = (   0.0150971   0.0754406   0.0000000), wk =   0.0277778
        k(   14) = (   0.0150971  -0.1042602   0.0000000), wk =   0.0277778
        k(   15) = (   0.0150971  -0.0879237   0.0000000), wk =   0.0277778
        k(   16) = (   0.0150971  -0.0715873   0.0000000), wk =   0.0277778
        k(   17) = (   0.0150971  -0.0552509   0.0000000), wk =   0.0277778
        k(   18) = (   0.0150971  -0.0389144   0.0000000), wk =   0.0277778
        k(   19) = (   0.0150971  -0.0225780   0.0000000), wk =   0.0277778
        k(   20) = (   0.0301941  -0.0124832   0.0000000), wk =   0.0277778
        k(   21) = (   0.0301941   0.0038533   0.0000000), wk =   0.0277778
        k(   22) = (   0.0301941   0.0201897   0.0000000), wk =   0.0277778
        k(   23) = (   0.0301941   0.0365261   0.0000000), wk =   0.0277778
        k(   24) = (   0.0301941   0.0528626   0.0000000), wk =   0.0277778
        k(   25) = (   0.0301941   0.0691990   0.0000000), wk =   0.0277778
        k(   26) = (   0.0301941  -0.1105017   0.0000000), wk =   0.0277778
        k(   27) = (   0.0301941  -0.0941653   0.0000000), wk =   0.0277778
        k(   28) = (   0.0301941  -0.0778289   0.0000000), wk =   0.0277778
        k(   29) = (   0.0301941  -0.0614925   0.0000000), wk =   0.0277778
        k(   30) = (   0.0301941  -0.0451560   0.0000000), wk =   0.0277778
        k(   31) = (   0.0301941  -0.0288196   0.0000000), wk =   0.0277778
        k(   32) = (   0.0452912  -0.0187247   0.0000000), wk =   0.0277778
        k(   33) = (   0.0452912  -0.0023883   0.0000000), wk =   0.0277778
        k(   34) = (   0.0452912   0.0139481   0.0000000), wk =   0.0277778
        k(   35) = (   0.0452912   0.0302845   0.0000000), wk =   0.0277778
        k(   36) = (   0.0452912   0.0466210   0.0000000), wk =   0.0277778
        k(   37) = (   0.0452912   0.0629574   0.0000000), wk =   0.0277778
        k(   38) = (   0.0452912  -0.1167433   0.0000000), wk =   0.0277778
        k(   39) = (   0.0452912  -0.1004069   0.0000000), wk =   0.0277778
        k(   40) = (   0.0452912  -0.0840705   0.0000000), wk =   0.0277778
        k(   41) = (   0.0452912  -0.0677340   0.0000000), wk =   0.0277778
        k(   42) = (   0.0452912  -0.0513976   0.0000000), wk =   0.0277778
        k(   43) = (   0.0452912  -0.0350612   0.0000000), wk =   0.0277778
        k(   44) = (   0.0603883  -0.0249663   0.0000000), wk =   0.0277778
        k(   45) = (   0.0603883  -0.0086299   0.0000000), wk =   0.0277778
        k(   46) = (   0.0603883   0.0077065   0.0000000), wk =   0.0277778
        k(   47) = (   0.0603883   0.0240430   0.0000000), wk =   0.0277778
        k(   48) = (   0.0603883   0.0403794   0.0000000), wk =   0.0277778
        k(   49) = (   0.0603883   0.0567158   0.0000000), wk =   0.0277778
        k(   50) = (   0.0603883  -0.1229849   0.0000000), wk =   0.0277778
        k(   51) = (   0.0603883  -0.1066485   0.0000000), wk =   0.0277778
        k(   52) = (   0.0603883  -0.0903120   0.0000000), wk =   0.0277778
        k(   53) = (   0.0603883  -0.0739756   0.0000000), wk =   0.0277778
        k(   54) = (   0.0603883  -0.0576392   0.0000000), wk =   0.0277778
        k(   55) = (   0.0603883  -0.0413028   0.0000000), wk =   0.0277778
        k(   56) = (   0.0754854  -0.0312079   0.0000000), wk =   0.0277778
        k(   57) = (   0.0754854  -0.0148715   0.0000000), wk =   0.0277778
        k(   58) = (   0.0754854   0.0014649   0.0000000), wk =   0.0277778
        k(   59) = (   0.0754854   0.0178014   0.0000000), wk =   0.0277778
        k(   60) = (   0.0754854   0.0341378   0.0000000), wk =   0.0277778
        k(   61) = (   0.0754854   0.0504742   0.0000000), wk =   0.0277778
        k(   62) = (   0.0754854  -0.1292265   0.0000000), wk =   0.0277778
        k(   63) = (   0.0754854  -0.1128901   0.0000000), wk =   0.0277778
        k(   64) = (   0.0754854  -0.0965536   0.0000000), wk =   0.0277778
        k(   65) = (   0.0754854  -0.0802172   0.0000000), wk =   0.0277778
        k(   66) = (   0.0754854  -0.0638808   0.0000000), wk =   0.0277778
        k(   67) = (   0.0754854  -0.0475443   0.0000000), wk =   0.0277778
        k(   68) = (  -0.0905824   0.0374495   0.0000000), wk =   0.0138889
        k(   69) = (  -0.0905824   0.0537859   0.0000000), wk =   0.0277778
        k(   70) = (  -0.0905824   0.0701224   0.0000000), wk =   0.0277778
        k(   71) = (  -0.0905824   0.0864588   0.0000000), wk =   0.0277778
        k(   72) = (  -0.0905824   0.1027952   0.0000000), wk =   0.0277778
        k(   73) = (  -0.0905824   0.1191316   0.0000000), wk =   0.0277778
        k(   74) = (  -0.0905824  -0.0605691   0.0000000), wk =   0.0138889

     Initial potential from superposition of free atoms

     starting charge  173.98832, renormalised to  174.00000

     negative rho (up, down):  1.551E-03 0.000E+00

     %%%%%%%%%%%%%%%%%%%%%%%%%%%%%%%%%%%%%%%%%%%%%%%%%%%%%%%%%%%%%%%%%%%%%%%%
     %                                                                      %
     % You are using vdW-DF, which was implemented by the Thonhauser group. %
     % Please cite the following two papers that made this development      %
     % possible and the two reviews that describe the various versions:     %
     %                                                                      %
     %   T. Thonhauser et al., PRL 115, 136402 (2015).                      %
     %   T. Thonhauser et al., PRB 76, 125112 (2007).                       %
     %   K. Berland et al., Rep. Prog. Phys. 78, 066501 (2015).             %
     %   D.C. Langreth et al., J. Phys.: Condens. Matter 21, 084203 (2009). %
     %                                                                      %
     %                                                                      %
     % If you are calculating the stress with vdW-DF, please also cite:     %
     %                                                                      %
     %   R. Sabatini et al., J. Phys.: Condens. Matter 24, 424209 (2012).   %
     %                                                                      %
     %%%%%%%%%%%%%%%%%%%%%%%%%%%%%%%%%%%%%%%%%%%%%%%%%%%%%%%%%%%%%%%%%%%%%%%%

     Adding external electric field

     Computed dipole along edir(3) :
        Dipole                0.0003 Ry au,          0.0008 Debye
        Dipole field          0.0000 Ry au,

        Potential amp.       -0.0001 Ry
        Total length         45.2565 bohr

     Starting wfcs are  138 randomized atomic wfcs

     Self-consistent Calculation

     iteration #  1     ecut=    55.12 Ry     beta= 0.10
     Davidson diagonalization with overlap
     ethr =  1.00E-02,  avg # of iterations =  2.0

[...]

     total energy              =   -1899.61257241 Ry
     estimated scf accuracy    <       9.44195771 Ry

[...]

     iteration # 10     ecut=    55.12 Ry     beta= 0.10
     Davidson diagonalization with overlap
     c_bands:  1 eigenvalues not converged
     c_bands:  1 eigenvalues not converged
     c_bands:  1 eigenvalues not converged
     c_bands:  1 eigenvalues not converged
     ethr =  7.17E-06,  avg # of iterations =  7.0

[...]

     iteration # 12     ecut=    55.12 Ry     beta= 0.10
     Davidson diagonalization with overlap
     c_bands:  1 eigenvalues not converged
     ethr =  1.19E-06,  avg # of iterations =  5.9

[...]

     total energy              =   -1900.31310196 Ry
     estimated scf accuracy    <       0.00032296 Ry

     iteration # 15     ecut=    55.12 Ry     beta= 0.10
     Davidson diagonalization with overlap
     ethr =  1.48E-07,  avg # of iterations =  2.3

[...]

     Adding external electric field

     Computed dipole along edir(3) :
        Dipole                0.0728 Ry au,          0.1852 Debye
        Dipole field          0.0002 Ry au,

        Potential amp.       -0.0178 Ry
        Total length         45.2565 bohr

     End of self-consistent calculation

          k = 0.0000 0.0000 0.0000 ( 32325 PWs)   bands (ev):

   -70.7878 -70.7771 -70.3552 -70.3445 -70.1893 -70.1789 -53.4443 -53.4132
   -53.3977 -53.3695 -53.3638 -53.3232 -40.8737 -40.7521 -40.7487 -40.7387
   -40.7342 -40.7232 -40.4251 -40.3626 -40.3445 -40.3098 -40.2973 -40.2738
   -40.2438 -40.2287 -40.2258 -40.0977 -40.0842 -40.0810 -29.6490 -29.5612
   -29.5375 -29.5287 -29.5215 -29.4819 -29.4700 -29.4458 -29.4004 -29.3505
   -29.3257 -29.3100 -29.3007 -29.2546 -29.2031 -29.1986 -29.0841 -29.0374
    -4.0957  -2.7393  -2.6572  -2.6408  -2.5209  -2.4914  -2.4423  -2.3579
    -2.3540  -2.2261  -1.6173  -1.5642  -1.5316  -1.2101  -1.1792  -0.8981
    -0.8699  -0.7149  -0.6512  -0.4160  -0.3530  -0.3035   0.1172   0.3056
     0.5250   0.5989   0.8086   0.9506   1.4453   1.5042   1.5774   1.6675
     1.6796   1.9326   2.5088   2.6448   2.7651   2.7770   2.9379   2.9834
     3.0521   3.0893   3.2706   3.3068   3.3920   3.6443   3.6647   3.7321
     3.7845   3.8191   3.9705   4.3159   4.3196   4.4390   4.4988   4.5028

[...]

          k = 0.0755-0.0475 0.0000 ( 32239 PWs)   bands (ev):

[...]

          k =-0.0906 0.0374 0.0000 ( 32256 PWs)   bands (ev):

[...]

          k =-0.0906-0.0606 0.0000 ( 32258 PWs)   bands (ev):

   -70.7876 -70.7772 -70.3551 -70.3444 -70.1892 -70.1789 -53.4426 -53.4168
   -53.4033 -53.3683 -53.3681 -53.3204 -40.8658 -40.7502 -40.7357 -40.7356
   -40.7274 -40.7222 -40.4176 -40.3497 -40.3401 -40.3094 -40.3001 -40.2731
   -40.2295 -40.2209 -40.2207 -40.0974 -40.0847 -40.0801 -29.6755 -29.6153
   -29.5477 -29.5309 -29.5231 -29.5035 -29.4936 -29.4661 -29.4145 -29.3744
   -29.3531 -29.3311 -29.2920 -29.2440 -29.2301 -29.2042 -29.0902 -29.0439
    -2.4218  -2.2827  -1.7896  -1.6838  -1.5803  -1.4546  -1.4331  -1.3263
    -1.2498  -1.1219  -1.1195  -0.8866  -0.7486  -0.6824  -0.6001  -0.5914
    -0.5807  -0.2068  -0.1370   0.0030   0.1172   0.2318   0.2729   0.2792
     0.4503   0.6466   0.7184   0.7443   0.7672   0.9516   0.9558   1.1662
     1.1889   1.1900   1.2728   1.2938   1.4771   1.5127   1.5237   1.7710
     1.8651   1.9151   2.1410   2.2303   2.3979   2.5153   2.5925   2.9642
     2.9675   3.1595   3.2149   3.2204   3.4703   3.5151   3.7426   3.7535

     the Fermi energy is     2.3091 ev

!    total energy              =   -1900.31312978 Ry
     estimated scf accuracy    <       0.00000823 Ry
     smearing contrib. (-TS)   =      -0.05447122 Ry
     internal energy E=F+TS    =   -1900.25865856 Ry

     The total energy is F=E-TS. E is the sum of the following terms:
     one-electron contribution =  -16258.80559165 Ry
     hartree contribution      =    8125.30803361 Ry
     xc contribution           =    -295.04256665 Ry
     ewald contribution        =    6528.28145185 Ry
     electric field correction =       0.00001429 Ry

     convergence has been achieved in  15 iterations

     negative rho (up, down):  1.463E-03 0.000E+00

     Forces acting on atoms (cartesian axes, Ry/au):

     atom    1 type  1   force =    -0.01446516   -0.00966930   -0.01403605
     atom    2 type  1   force =    -0.01446134   -0.00967363   -0.01403749
     atom    3 type  2   force =     0.00291239    0.00194693    0.04207011
     atom    4 type  2   force =     0.00290884    0.00194596    0.04207085
     atom    5 type  1   force =     0.00832457    0.00555804   -0.02907423
     atom    6 type  1   force =     0.00831772    0.00556849   -0.02907594
     atom    7 type  2   force =     0.00318369    0.00212883   -0.00044618
     atom    8 type  2   force =     0.00319151    0.00213544   -0.00044718
     atom    9 type  1   force =    -0.00017021   -0.00011215    0.00061927
     atom   10 type  1   force =    -0.00017124   -0.00011412    0.00062027
     atom   11 type  2   force =     0.00021512    0.00014290    0.00086784
     atom   12 type  2   force =     0.00021411    0.00014262    0.00086873

     Total force =     0.080544     Total SCF correction =     0.005468

     Writing output data file ./Nb2Ru2/Nb2Ru2_beef.save/

     General routines

     Parallel routines

   This run was terminated on:  17:48: 7  10Jul2022

   JOB DONE.