     Program PWSCF v.6.6 starts on 10Jul2022 at 23:45:26

     R & G space division:  proc/nbgrp/npool/nimage =      37
     Fft bands division:     nmany     =       1
     Reading input from Nb2Rh2.in
Warning: card &CELL ignored
Warning: card / ignored

     Current dimensions of program PWSCF are:
     Max number of different atomic species (ntypx) = 10
     Max number of k-points (npk) =  40000
     Max angular momentum in pseudopotentials (lmaxx) =  3
     Presently stress not available with electric field and gates

     Message from routine cell_base_init:
     DEPRECATED: use true lattice parameter, not A to a.u. conversion factor
     file Nb.pbe-spn-rrkjus_psl.1.0.0.UPF: wavefunction(s)  4S 4P renormalized
     file Rh.pbe-spn-rrkjus_psl.1.0.0.UPF: wavefunction(s)  4S 5S renormalized

     IMPORTANT: XC functional enforced from input :
     Exchange-correlation= BEEF-VDW
                           (   1   4  43  14   2   0   0)
     Any further DFT definition will be discarded
     Please, verify this is what you really want

     Subspace diagonalization in iterative solution of the eigenvalue problem:
     a serial algorithm will be used

     Found symmetry operation: I + (  0.5000  0.5000  0.0000)
     This is a supercell, fractional translations are disabled

     bravais-lattice index     =            0
     lattice parameter (alat)  =       1.8897  a.u.
     unit-cell volume          =    4606.6516 (a.u.)^3
     number of atoms/cell      =           12
     number of atomic types    =            2
     number of electrons       =       180.00
     number of Kohn-Sham states=          108
     kinetic-energy cutoff     =      55.1240  Ry
     charge density cutoff     =     551.2396  Ry
     convergence threshold     =      1.0E-05
     mixing beta               =       0.1000
     number of iterations used =           10  plain     mixing
     Exchange-correlation= BEEF-VDW
                           (   1   4  43  14   2   0   0)

     celldm(1)=   1.889726  celldm(2)=   0.000000  celldm(3)=   0.000000
     celldm(4)=   0.000000  celldm(5)=   0.000000  celldm(6)=   0.000000

     crystal axes: (cart. coord. in units of alat)
               a(1) = (   5.619370   0.000000   0.000000 )
               a(2) = (   2.688136   4.934698   0.000000 )
               a(3) = (   0.000000   0.000000  24.617313 )

     reciprocal axes: (cart. coord. in units 2 pi/alat)
               b(1) = (  0.177956 -0.096940  0.000000 )
               b(2) = (  0.000000  0.202647  0.000000 )
               b(3) = (  0.000000  0.000000  0.040622 )

     PseudoPot. # 1 for Nb read from file:
     ../pseudo/Nb.pbe-spn-rrkjus_psl.1.0.0.UPF
     MD5 check sum: 6ee677a9f002bd3e3657f443f129faad
     Pseudo is Ultrasoft + core correction, Zval = 13.0
     Generated using "atomic" code by A. Dal Corso v.6.2.2
     Using radial grid of 1227 points,  6 beta functions with:
                l(1) =   0
                l(2) =   0
                l(3) =   1
                l(4) =   1
                l(5) =   2
                l(6) =   2
     Q(r) pseudized with 0 coefficients

     PseudoPot. # 2 for Rh read from file:
     ../pseudo/Rh.pbe-spn-rrkjus_psl.1.0.0.UPF
     MD5 check sum: 912a852783f0c9b7bd5e9eb06cc0cc10
     Pseudo is Ultrasoft + core correction, Zval = 17.0
     Generated using "atomic" code by A. Dal Corso v.6.3
     Using radial grid of 1233 points,  6 beta functions with:
                l(1) =   0
                l(2) =   0
                l(3) =   1
                l(4) =   1
                l(5) =   2
                l(6) =   2
     Q(r) pseudized with 0 coefficients

     atomic species   valence    mass     pseudopotential
        Nb            13.00    92.90637     Nb( 1.00)
        Rh            17.00   102.90550     Rh( 1.00)

     No symmetry found

   Cartesian axes

     site n.     atom                  positions (alat units)
         1           Nb  tau(   1) = (   0.0000000   0.0000000  10.0000000  )
         2           Nb  tau(   2) = (   4.1537528   2.4673489  10.0000000  )
         3           Rh  tau(   3) = (   2.8096849   0.0000000  10.0000000  )
         4           Rh  tau(   4) = (   1.3440679   2.4673489  10.0000000  )
         5           Nb  tau(   5) = (   5.6193698   3.3379324  12.3086566  )
         6           Nb  tau(   6) = (   1.4656170   0.8705834  12.3086566  )
         7           Rh  tau(   7) = (   2.8096849   3.3379324  12.3086566  )
         8           Rh  tau(   8) = (   4.2753019   0.8705834  12.3086566  )
         9           Nb  tau(   9) = (   2.9485009   1.7514235  14.5136372  )
        10           Nb  tau(  10) = (   7.1022557   4.2187738  14.5136387  )
        11           Rh  tau(  11) = (   5.7619851   1.7536795  14.5493143  )
        12           Rh  tau(  12) = (   4.2963680   4.2210294  14.5493146  )

     number of k points=    74  Fermi-Dirac smearing, width (Ry)=  0.0100
                       cart. coord. in units 2pi/alat
        k(    1) = (   0.0000000   0.0000000   0.0000000), wk =   0.0138889
        k(    2) = (   0.0000000   0.0168872   0.0000000), wk =   0.0277778
        k(    3) = (   0.0000000   0.0337744   0.0000000), wk =   0.0277778
        k(    4) = (   0.0000000   0.0506617   0.0000000), wk =   0.0277778
        k(    5) = (   0.0000000   0.0675489   0.0000000), wk =   0.0277778
        k(    6) = (   0.0000000   0.0844361   0.0000000), wk =   0.0277778
        k(    7) = (   0.0000000  -0.1013233   0.0000000), wk =   0.0138889
        k(    8) = (   0.0148297  -0.0080783   0.0000000), wk =   0.0277778
        k(    9) = (   0.0148297   0.0088089   0.0000000), wk =   0.0277778
        k(   10) = (   0.0148297   0.0256961   0.0000000), wk =   0.0277778
        k(   11) = (   0.0148297   0.0425833   0.0000000), wk =   0.0277778
        k(   12) = (   0.0148297   0.0594705   0.0000000), wk =   0.0277778
        k(   13) = (   0.0148297   0.0763578   0.0000000), wk =   0.0277778
        k(   14) = (   0.0148297  -0.1094017   0.0000000), wk =   0.0277778
        k(   15) = (   0.0148297  -0.0925144   0.0000000), wk =   0.0277778
        k(   16) = (   0.0148297  -0.0756272   0.0000000), wk =   0.0277778
        k(   17) = (   0.0148297  -0.0587400   0.0000000), wk =   0.0277778
        k(   18) = (   0.0148297  -0.0418528   0.0000000), wk =   0.0277778
        k(   19) = (   0.0148297  -0.0249656   0.0000000), wk =   0.0277778
        k(   20) = (   0.0296593  -0.0161567   0.0000000), wk =   0.0277778
        k(   21) = (   0.0296593   0.0007306   0.0000000), wk =   0.0277778
        k(   22) = (   0.0296593   0.0176178   0.0000000), wk =   0.0277778
        k(   23) = (   0.0296593   0.0345050   0.0000000), wk =   0.0277778
        k(   24) = (   0.0296593   0.0513922   0.0000000), wk =   0.0277778
        k(   25) = (   0.0296593   0.0682794   0.0000000), wk =   0.0277778
        k(   26) = (   0.0296593  -0.1174800   0.0000000), wk =   0.0277778
        k(   27) = (   0.0296593  -0.1005928   0.0000000), wk =   0.0277778
        k(   28) = (   0.0296593  -0.0837055   0.0000000), wk =   0.0277778
        k(   29) = (   0.0296593  -0.0668183   0.0000000), wk =   0.0277778
        k(   30) = (   0.0296593  -0.0499311   0.0000000), wk =   0.0277778
        k(   31) = (   0.0296593  -0.0330439   0.0000000), wk =   0.0277778
        k(   32) = (   0.0444890  -0.0242350   0.0000000), wk =   0.0277778
        k(   33) = (   0.0444890  -0.0073478   0.0000000), wk =   0.0277778
        k(   34) = (   0.0444890   0.0095394   0.0000000), wk =   0.0277778
        k(   35) = (   0.0444890   0.0264267   0.0000000), wk =   0.0277778
        k(   36) = (   0.0444890   0.0433139   0.0000000), wk =   0.0277778
        k(   37) = (   0.0444890   0.0602011   0.0000000), wk =   0.0277778
        k(   38) = (   0.0444890  -0.1255583   0.0000000), wk =   0.0277778
        k(   39) = (   0.0444890  -0.1086711   0.0000000), wk =   0.0277778
        k(   40) = (   0.0444890  -0.0917839   0.0000000), wk =   0.0277778
        k(   41) = (   0.0444890  -0.0748967   0.0000000), wk =   0.0277778
        k(   42) = (   0.0444890  -0.0580094   0.0000000), wk =   0.0277778
        k(   43) = (   0.0444890  -0.0411222   0.0000000), wk =   0.0277778
        k(   44) = (   0.0593186  -0.0323133   0.0000000), wk =   0.0277778
        k(   45) = (   0.0593186  -0.0154261   0.0000000), wk =   0.0277778
        k(   46) = (   0.0593186   0.0014611   0.0000000), wk =   0.0277778
        k(   47) = (   0.0593186   0.0183483   0.0000000), wk =   0.0277778
        k(   48) = (   0.0593186   0.0352355   0.0000000), wk =   0.0277778
        k(   49) = (   0.0593186   0.0521228   0.0000000), wk =   0.0277778
        k(   50) = (   0.0593186  -0.1336367   0.0000000), wk =   0.0277778
        k(   51) = (   0.0593186  -0.1167494   0.0000000), wk =   0.0277778
        k(   52) = (   0.0593186  -0.0998622   0.0000000), wk =   0.0277778
        k(   53) = (   0.0593186  -0.0829750   0.0000000), wk =   0.0277778
        k(   54) = (   0.0593186  -0.0660878   0.0000000), wk =   0.0277778
        k(   55) = (   0.0593186  -0.0492006   0.0000000), wk =   0.0277778
        k(   56) = (   0.0741483  -0.0403917   0.0000000), wk =   0.0277778
        k(   57) = (   0.0741483  -0.0235044   0.0000000), wk =   0.0277778
        k(   58) = (   0.0741483  -0.0066172   0.0000000), wk =   0.0277778
        k(   59) = (   0.0741483   0.0102700   0.0000000), wk =   0.0277778
        k(   60) = (   0.0741483   0.0271572   0.0000000), wk =   0.0277778
        k(   61) = (   0.0741483   0.0440444   0.0000000), wk =   0.0277778
        k(   62) = (   0.0741483  -0.1417150   0.0000000), wk =   0.0277778
        k(   63) = (   0.0741483  -0.1248278   0.0000000), wk =   0.0277778
        k(   64) = (   0.0741483  -0.1079406   0.0000000), wk =   0.0277778
        k(   65) = (   0.0741483  -0.0910533   0.0000000), wk =   0.0277778
        k(   66) = (   0.0741483  -0.0741661   0.0000000), wk =   0.0277778
        k(   67) = (   0.0741483  -0.0572789   0.0000000), wk =   0.0277778
        k(   68) = (  -0.0889779   0.0484700   0.0000000), wk =   0.0138889
        k(   69) = (  -0.0889779   0.0653572   0.0000000), wk =   0.0277778
        k(   70) = (  -0.0889779   0.0822444   0.0000000), wk =   0.0277778
        k(   71) = (  -0.0889779   0.0991317   0.0000000), wk =   0.0277778
        k(   72) = (  -0.0889779   0.1160189   0.0000000), wk =   0.0277778
        k(   73) = (  -0.0889779   0.1329061   0.0000000), wk =   0.0277778
        k(   74) = (  -0.0889779  -0.0528533   0.0000000), wk =   0.0138889

     Initial potential from superposition of free atoms

     starting charge  179.98921, renormalised to  180.00000

     negative rho (up, down):  1.405E-03 0.000E+00

     %%%%%%%%%%%%%%%%%%%%%%%%%%%%%%%%%%%%%%%%%%%%%%%%%%%%%%%%%%%%%%%%%%%%%%%%
     %                                                                      %
     % You are using vdW-DF, which was implemented by the Thonhauser group. %
     % Please cite the following two papers that made this development      %
     % possible and the two reviews that describe the various versions:     %
     %                                                                      %
     %   T. Thonhauser et al., PRL 115, 136402 (2015).                      %
     %   T. Thonhauser et al., PRB 76, 125112 (2007).                       %
     %   K. Berland et al., Rep. Prog. Phys. 78, 066501 (2015).             %
     %   D.C. Langreth et al., J. Phys.: Condens. Matter 21, 084203 (2009). %
     %                                                                      %
     %                                                                      %
     % If you are calculating the stress with vdW-DF, please also cite:     %
     %                                                                      %
     %   R. Sabatini et al., J. Phys.: Condens. Matter 24, 424209 (2012).   %
     %                                                                      %
     %%%%%%%%%%%%%%%%%%%%%%%%%%%%%%%%%%%%%%%%%%%%%%%%%%%%%%%%%%%%%%%%%%%%%%%%

     Adding external electric field

     Computed dipole along edir(3) :
        Dipole               -0.0001 Ry au,         -0.0002 Debye
        Dipole field         -0.0000 Ry au,

        Potential amp.        0.0000 Ry
        Total length         45.3570 bohr

     Starting wfcs are  138 randomized atomic wfcs

     Self-consistent Calculation

     iteration #  1     ecut=    55.12 Ry     beta= 0.10
     Davidson diagonalization with overlap
     ethr =  1.00E-02,  avg # of iterations =  2.0

[...]

     total energy              =   -2076.33613105 Ry
     estimated scf accuracy    <       8.50030101 Ry

[...]

     total energy              =   -2076.86016300 Ry
     estimated scf accuracy    <       0.00001892 Ry

     iteration # 15     ecut=    55.12 Ry     beta= 0.10
     Davidson diagonalization with overlap
     ethr =  1.05E-08,  avg # of iterations =  3.8

[...]

     Adding external electric field

     Computed dipole along edir(3) :
        Dipole                0.0265 Ry au,          0.0673 Debye
        Dipole field          0.0001 Ry au,

        Potential amp.       -0.0065 Ry
        Total length         45.3570 bohr

     End of self-consistent calculation

          k = 0.0000 0.0000 0.0000 ( 31853 PWs)   bands (ev):

   -76.5670 -76.5511 -76.0988 -76.0830 -76.0604 -76.0447 -53.2023 -53.1288
   -53.1061 -53.0311 -52.9806 -52.8828 -44.5105 -44.4916 -44.4915 -44.3876
   -44.3666 -44.2942 -44.0526 -44.0314 -44.0274 -44.0203 -43.9990 -43.9862
   -43.9070 -43.8891 -43.8557 -43.8373 -43.8309 -43.7904 -29.4997 -29.4640
   -29.4428 -29.3974 -29.3410 -29.2698 -29.1855 -29.1729 -29.1294 -29.1040
   -29.0432 -29.0387 -28.9337 -28.7089 -28.6612 -28.6242 -28.6190 -28.5644
    -3.9266  -2.6676  -2.6217  -2.5672  -2.5361  -2.5160  -2.2423  -2.2225
    -2.2076  -2.0361  -2.0219  -1.9172  -1.6907  -1.6692  -1.6616  -0.7094
    -0.6758  -0.5440  -0.2169  -0.2044  -0.1216  -0.0152   0.1028   0.1054
     0.2648   0.2955   0.4842   0.5469   0.7267   1.3320   1.4019   1.5293
     1.5602   1.5615   1.7752   2.0195   2.0461   2.0469   2.1426   2.1462
     2.6476   2.8097   3.1318   3.1392   3.1935   3.3342   3.5712   3.6048
     3.6100   3.6831   4.2298   4.5006   4.5854   4.6278   4.6378   4.6883
     4.7111   4.8920   5.0307   5.3506

[...]

          k = 0.0741-0.0573 0.0000 ( 31836 PWs)   bands (ev):

[...]

          k =-0.0890 0.0485 0.0000 ( 31818 PWs)   bands (ev):

[...]

          k =-0.0890-0.0529 0.0000 ( 31814 PWs)   bands (ev):

   -76.5670 -76.5511 -76.0988 -76.0830 -76.0604 -76.0447 -53.2038 -53.1300
   -53.1069 -53.0322 -52.9827 -52.8822 -44.5080 -44.4909 -44.4888 -44.3821
   -44.3656 -44.2941 -44.0464 -44.0303 -44.0248 -44.0136 -43.9977 -43.9835
   -43.9077 -43.8894 -43.8553 -43.8374 -43.8308 -43.7903 -29.5178 -29.4708
   -29.4635 -29.4046 -29.3506 -29.2607 -29.2191 -29.1673 -29.1552 -29.1082
   -29.0497 -29.0362 -28.9539 -28.7104 -28.6639 -28.6257 -28.6208 -28.5663
    -2.5030  -2.2381  -1.8641  -1.7946  -1.6556  -1.5750  -1.5689  -1.3915
    -1.3568  -1.3228  -1.1838  -1.0643  -1.0008  -0.7954  -0.7258  -0.7151
    -0.6587  -0.4847  -0.3791  -0.0510   0.0889   0.1324   0.2671   0.3012
     0.3263   0.4246   0.4965   0.5685   0.6520   0.6638   0.7140   0.7861
     0.8747   1.0470   1.1474   1.2165   1.2489   1.2559   1.4226   1.4494
     1.5612   1.6339   1.6618   1.6756   1.8091   1.8699   2.0607   2.3242
     2.9145   3.1420   3.3025   3.4732   3.4972   3.7761   3.9250   4.3623
     4.3914   4.5601   4.7298   4.8274

     the Fermi energy is     2.2015 ev

!    total energy              =   -2076.86016138 Ry
     estimated scf accuracy    <       0.00000851 Ry
     smearing contrib. (-TS)   =      -0.06676527 Ry
     internal energy E=F+TS    =   -2076.79339610 Ry

     The total energy is F=E-TS. E is the sum of the following terms:
     one-electron contribution =  -17641.69907308 Ry
     hartree contribution      =    8819.88331331 Ry
     xc contribution           =    -299.52728859 Ry
     ewald contribution        =    7044.54965035 Ry
     electric field correction =       0.00000191 Ry

     convergence has been achieved in  15 iterations

     negative rho (up, down):  1.454E-03 0.000E+00

     Forces acting on atoms (cartesian axes, Ry/au):

     atom    1 type  1   force =    -0.00011704   -0.00007014    0.01775588
     atom    2 type  1   force =    -0.00011465   -0.00006930    0.01775841
     atom    3 type  2   force =    -0.00378903   -0.00225306    0.01048170
     atom    4 type  2   force =    -0.00379126   -0.00224908    0.01048149
     atom    5 type  1   force =     0.00011962    0.00007075   -0.01351042
     atom    6 type  1   force =     0.00012032    0.00007148   -0.01350970
     atom    7 type  2   force =     0.00094332    0.00055983   -0.01598644
     atom    8 type  2   force =     0.00094400    0.00056060   -0.01598627
     atom    9 type  1   force =     0.00168332    0.00100041    0.00078840
     atom   10 type  1   force =     0.00168010    0.00099853    0.00078533
     atom   11 type  2   force =     0.00115912    0.00069358    0.00047039
     atom   12 type  2   force =     0.00116218    0.00068640    0.00047124

     Total force =     0.042200     Total SCF correction =     0.015146
     SCF correction compared to forces is large: reduce conv_thr to get better values

     Writing output data file ./Nb2Rh2/Nb2Rh2_beef.save/

     General routines

     Parallel routines

   This run was terminated on:   0:26:24  11Jul2022

   JOB DONE.