     Program PWSCF v.6.6 starts on 24Jun2022 at 13:51: 0

     R & G space division:  proc/nbgrp/npool/nimage =      37
     Fft bands division:     nmany     =       1
     Reading input from Nb2Tc2.in
Warning: card &CELL ignored
Warning: card / ignored

     Current dimensions of program PWSCF are:
     Max number of different atomic species (ntypx) = 10
     Max number of k-points (npk) =  40000
     Max angular momentum in pseudopotentials (lmaxx) =  3
     Presently stress not available with electric field and gates

     Message from routine cell_base_init:
     DEPRECATED: use true lattice parameter, not A to a.u. conversion factor
     file Nb.pbe-spn-rrkjus_psl.1.0.0.UPF: wavefunction(s)  4S 4P renormalized
     file Tc.pbe-spn-rrkjus_psl.0.3.0.UPF: wavefunction(s)  4S 4P renormalized

     IMPORTANT: XC functional enforced from input :
     Exchange-correlation= BEEF-VDW
                           (   1   4  43  14   2   0   0)
     Any further DFT definition will be discarded
     Please, verify this is what you really want

     Subspace diagonalization in iterative solution of the eigenvalue problem:
     a serial algorithm will be used

     Found symmetry operation: I + (  0.5000 -0.5000  0.0000)
     This is a supercell, fractional translations are disabled

     bravais-lattice index     =            0
     lattice parameter (alat)  =       1.8897  a.u.
     unit-cell volume          =    4742.9219 (a.u.)^3
     number of atoms/cell      =           12
     number of atomic types    =            2
     number of electrons       =       168.00
     number of Kohn-Sham states=          101
     kinetic-energy cutoff     =      55.1240  Ry
     charge density cutoff     =     551.2396  Ry
     convergence threshold     =      1.0E-05
     mixing beta               =       0.1000
     number of iterations used =           10  plain     mixing
     Exchange-correlation= BEEF-VDW
                           (   1   4  43  14   2   0   0)

     celldm(1)=   1.889726  celldm(2)=   0.000000  celldm(3)=   0.000000
     celldm(4)=   0.000000  celldm(5)=   0.000000  celldm(6)=   0.000000

     crystal axes: (cart. coord. in units of alat)
               a(1) = (   5.511233   0.000000   0.000000 )
               a(2) = (   1.804676   5.207382   0.000000 )
               a(3) = (   0.000000   0.000000  24.489575 )

     reciprocal axes: (cart. coord. in units 2 pi/alat)
               b(1) = (  0.181448 -0.062883  0.000000 )
               b(2) = (  0.000000  0.192035  0.000000 )
               b(3) = (  0.000000  0.000000  0.040834 )

     PseudoPot. # 1 for Nb read from file:
     ../pseudo/Nb.pbe-spn-rrkjus_psl.1.0.0.UPF
     MD5 check sum: 6ee677a9f002bd3e3657f443f129faad
     Pseudo is Ultrasoft + core correction, Zval = 13.0
     Generated using "atomic" code by A. Dal Corso v.6.2.2
     Using radial grid of 1227 points,  6 beta functions with:
                l(1) =   0
                l(2) =   0
                l(3) =   1
                l(4) =   1
                l(5) =   2
                l(6) =   2
     Q(r) pseudized with 0 coefficients

     PseudoPot. # 2 for Tc read from file:
     ../pseudo/Tc.pbe-spn-rrkjus_psl.0.3.0.UPF
     MD5 check sum: 5f147c0bf103030af994b79b1f5562e4
     Pseudo is Ultrasoft + core correction, Zval = 15.0
     Generated using "atomic" code by A. Dal Corso v.6.2.2
     Using radial grid of 1231 points,  6 beta functions with:
                l(1) =   0
                l(2) =   0
                l(3) =   1
                l(4) =   1
                l(5) =   2
                l(6) =   2
     Q(r) pseudized with 0 coefficients

     atomic species   valence    mass     pseudopotential
        Nb            13.00    92.90637     Nb( 1.00)
        Tc            15.00    97.90721     Tc( 1.00)

     No symmetry found

   Cartesian axes

     site n.     atom                  positions (alat units)
         1           Nb  tau(   1) = (   0.0000000   0.0000000  10.0000000  )
         2           Nb  tau(   2) = (   3.6579545   2.6036911  10.0000000  )
         3           Tc  tau(   3) = (   2.7556164   0.0000000  10.0000000  )
         4           Tc  tau(   4) = (   0.9023382   2.6036911  10.0000000  )
         5           Nb  tau(   5) = (   5.5112328   3.9228338  12.2447873  )
         6           Nb  tau(   6) = (   1.8532782   1.3191427  12.2447873  )
         7           Tc  tau(   7) = (   2.7556164   3.9228338  12.2447873  )
         8           Tc  tau(   8) = (   4.6088946   1.3191427  12.2447873  )
         9           Nb  tau(   9) = (   3.6860484   2.6236879  14.4832697  )
        10           Nb  tau(  10) = (   0.0280931   0.0199962  14.4832701  )
        11           Tc  tau(  11) = (   0.9330288   2.6255382  14.3674075  )
        12           Tc  tau(  12) = (   2.7863049   0.0218436  14.3674060  )

     number of k points=    74  Fermi-Dirac smearing, width (Ry)=  0.0100
                       cart. coord. in units 2pi/alat
        k(    1) = (   0.0000000   0.0000000   0.0000000), wk =   0.0138889
        k(    2) = (   0.0000000   0.0160029   0.0000000), wk =   0.0277778
        k(    3) = (   0.0000000   0.0320058   0.0000000), wk =   0.0277778
        k(    4) = (   0.0000000   0.0480088   0.0000000), wk =   0.0277778
        k(    5) = (   0.0000000   0.0640117   0.0000000), wk =   0.0277778
        k(    6) = (   0.0000000   0.0800146   0.0000000), wk =   0.0277778
        k(    7) = (   0.0000000  -0.0960175   0.0000000), wk =   0.0138889
        k(    8) = (   0.0151206  -0.0052402   0.0000000), wk =   0.0277778
        k(    9) = (   0.0151206   0.0107627   0.0000000), wk =   0.0277778
        k(   10) = (   0.0151206   0.0267656   0.0000000), wk =   0.0277778
        k(   11) = (   0.0151206   0.0427685   0.0000000), wk =   0.0277778
        k(   12) = (   0.0151206   0.0587715   0.0000000), wk =   0.0277778
        k(   13) = (   0.0151206   0.0747744   0.0000000), wk =   0.0277778
        k(   14) = (   0.0151206  -0.1012578   0.0000000), wk =   0.0277778
        k(   15) = (   0.0151206  -0.0852548   0.0000000), wk =   0.0277778
        k(   16) = (   0.0151206  -0.0692519   0.0000000), wk =   0.0277778
        k(   17) = (   0.0151206  -0.0532490   0.0000000), wk =   0.0277778
        k(   18) = (   0.0151206  -0.0372461   0.0000000), wk =   0.0277778
        k(   19) = (   0.0151206  -0.0212431   0.0000000), wk =   0.0277778
        k(   20) = (   0.0302413  -0.0104804   0.0000000), wk =   0.0277778
        k(   21) = (   0.0302413   0.0055225   0.0000000), wk =   0.0277778
        k(   22) = (   0.0302413   0.0215254   0.0000000), wk =   0.0277778
        k(   23) = (   0.0302413   0.0375283   0.0000000), wk =   0.0277778
        k(   24) = (   0.0302413   0.0535312   0.0000000), wk =   0.0277778
        k(   25) = (   0.0302413   0.0695342   0.0000000), wk =   0.0277778
        k(   26) = (   0.0302413  -0.1064980   0.0000000), wk =   0.0277778
        k(   27) = (   0.0302413  -0.0904951   0.0000000), wk =   0.0277778
        k(   28) = (   0.0302413  -0.0744921   0.0000000), wk =   0.0277778
        k(   29) = (   0.0302413  -0.0584892   0.0000000), wk =   0.0277778
        k(   30) = (   0.0302413  -0.0424863   0.0000000), wk =   0.0277778
        k(   31) = (   0.0302413  -0.0264834   0.0000000), wk =   0.0277778
        k(   32) = (   0.0453619  -0.0157207   0.0000000), wk =   0.0277778
        k(   33) = (   0.0453619   0.0002823   0.0000000), wk =   0.0277778
        k(   34) = (   0.0453619   0.0162852   0.0000000), wk =   0.0277778
        k(   35) = (   0.0453619   0.0322881   0.0000000), wk =   0.0277778
        k(   36) = (   0.0453619   0.0482910   0.0000000), wk =   0.0277778
        k(   37) = (   0.0453619   0.0642939   0.0000000), wk =   0.0277778
        k(   38) = (   0.0453619  -0.1117382   0.0000000), wk =   0.0277778
        k(   39) = (   0.0453619  -0.0957353   0.0000000), wk =   0.0277778
        k(   40) = (   0.0453619  -0.0797324   0.0000000), wk =   0.0277778
        k(   41) = (   0.0453619  -0.0637294   0.0000000), wk =   0.0277778
        k(   42) = (   0.0453619  -0.0477265   0.0000000), wk =   0.0277778
        k(   43) = (   0.0453619  -0.0317236   0.0000000), wk =   0.0277778
        k(   44) = (   0.0604825  -0.0209609   0.0000000), wk =   0.0277778
        k(   45) = (   0.0604825  -0.0049580   0.0000000), wk =   0.0277778
        k(   46) = (   0.0604825   0.0110450   0.0000000), wk =   0.0277778
        k(   47) = (   0.0604825   0.0270479   0.0000000), wk =   0.0277778
        k(   48) = (   0.0604825   0.0430508   0.0000000), wk =   0.0277778
        k(   49) = (   0.0604825   0.0590537   0.0000000), wk =   0.0277778
        k(   50) = (   0.0604825  -0.1169784   0.0000000), wk =   0.0277778
        k(   51) = (   0.0604825  -0.1009755   0.0000000), wk =   0.0277778
        k(   52) = (   0.0604825  -0.0849726   0.0000000), wk =   0.0277778
        k(   53) = (   0.0604825  -0.0689697   0.0000000), wk =   0.0277778
        k(   54) = (   0.0604825  -0.0529667   0.0000000), wk =   0.0277778
        k(   55) = (   0.0604825  -0.0369638   0.0000000), wk =   0.0277778
        k(   56) = (   0.0756032  -0.0262011   0.0000000), wk =   0.0277778
        k(   57) = (   0.0756032  -0.0101982   0.0000000), wk =   0.0277778
        k(   58) = (   0.0756032   0.0058047   0.0000000), wk =   0.0277778
        k(   59) = (   0.0756032   0.0218077   0.0000000), wk =   0.0277778
        k(   60) = (   0.0756032   0.0378106   0.0000000), wk =   0.0277778
        k(   61) = (   0.0756032   0.0538135   0.0000000), wk =   0.0277778
        k(   62) = (   0.0756032  -0.1222187   0.0000000), wk =   0.0277778
        k(   63) = (   0.0756032  -0.1062157   0.0000000), wk =   0.0277778
        k(   64) = (   0.0756032  -0.0902128   0.0000000), wk =   0.0277778
        k(   65) = (   0.0756032  -0.0742099   0.0000000), wk =   0.0277778
        k(   66) = (   0.0756032  -0.0582070   0.0000000), wk =   0.0277778
        k(   67) = (   0.0756032  -0.0422040   0.0000000), wk =   0.0277778
        k(   68) = (  -0.0907238   0.0314413   0.0000000), wk =   0.0138889
        k(   69) = (  -0.0907238   0.0474443   0.0000000), wk =   0.0277778
        k(   70) = (  -0.0907238   0.0634472   0.0000000), wk =   0.0277778
        k(   71) = (  -0.0907238   0.0794501   0.0000000), wk =   0.0277778
        k(   72) = (  -0.0907238   0.0954530   0.0000000), wk =   0.0277778
        k(   73) = (  -0.0907238   0.1114560   0.0000000), wk =   0.0277778
        k(   74) = (  -0.0907238  -0.0645762   0.0000000), wk =   0.0138889

     Initial potential from superposition of free atoms

     starting charge  167.98836, renormalised to  168.00000

     negative rho (up, down):  6.030E-03 0.000E+00

     %%%%%%%%%%%%%%%%%%%%%%%%%%%%%%%%%%%%%%%%%%%%%%%%%%%%%%%%%%%%%%%%%%%%%%%%
     %                                                                      %
     % You are using vdW-DF, which was implemented by the Thonhauser group. %
     % Please cite the following two papers that made this development      %
     % possible and the two reviews that describe the various versions:     %
     %                                                                      %
     %   T. Thonhauser et al., PRL 115, 136402 (2015).                      %
     %   T. Thonhauser et al., PRB 76, 125112 (2007).                       %
     %   K. Berland et al., Rep. Prog. Phys. 78, 066501 (2015).             %
     %   D.C. Langreth et al., J. Phys.: Condens. Matter 21, 084203 (2009). %
     %                                                                      %
     %                                                                      %
     % If you are calculating the stress with vdW-DF, please also cite:     %
     %                                                                      %
     %   R. Sabatini et al., J. Phys.: Condens. Matter 24, 424209 (2012).   %
     %                                                                      %
     %%%%%%%%%%%%%%%%%%%%%%%%%%%%%%%%%%%%%%%%%%%%%%%%%%%%%%%%%%%%%%%%%%%%%%%%

     Adding external electric field

     Computed dipole along edir(3) :
        Dipole                0.0002 Ry au,          0.0005 Debye
        Dipole field          0.0000 Ry au,

        Potential amp.       -0.0000 Ry
        Total length         45.1216 bohr

     Starting wfcs are  156 randomized atomic wfcs

     Self-consistent Calculation

     iteration #  1     ecut=    55.12 Ry     beta= 0.10
     Davidson diagonalization with overlap
     ethr =  1.00E-02,  avg # of iterations =  2.0

[...]

     total energy              =   -1799.21576319 Ry
     estimated scf accuracy    <       7.34144828 Ry

[...]

     iteration # 10     ecut=    55.12 Ry     beta= 0.10
     Davidson diagonalization with overlap
     c_bands:  1 eigenvalues not converged
     ethr =  2.52E-06,  avg # of iterations = 11.8

[...]

     total energy              =   -1799.71015838 Ry
     estimated scf accuracy    <       0.00002254 Ry

     iteration # 17     ecut=    55.12 Ry     beta= 0.10
     Davidson diagonalization with overlap
     ethr =  1.34E-08,  avg # of iterations =  4.1

[...]

     Adding external electric field

     Computed dipole along edir(3) :
        Dipole                0.0240 Ry au,          0.0609 Debye
        Dipole field          0.0001 Ry au,

        Potential amp.       -0.0057 Ry
        Total length         45.1216 bohr

     End of self-consistent calculation

          k = 0.0000 0.0000 0.0000 ( 32819 PWs)   bands (ev):

   -64.8861 -64.8752 -64.4511 -64.4409 -64.4375 -64.4270 -53.2506 -53.2480
   -53.2222 -53.2216 -53.1549 -53.1328 -36.9090 -36.8391 -36.8243 -36.7850
   -36.7778 -36.7466 -36.4558 -36.4318 -36.4154 -36.3996 -36.3952 -36.3803
   -36.3729 -36.3633 -36.3609 -36.3454 -36.2912 -36.2766 -29.3709 -29.3690
   -29.3571 -29.3279 -29.2986 -29.2960 -29.2770 -29.2739 -29.2454 -29.1756
   -29.1625 -29.1072 -29.0943 -29.0780 -29.0299 -29.0174 -29.0036 -28.9914
    -3.9320  -2.5483  -2.4818  -2.3823  -2.3540  -2.2540  -2.2159  -2.1470
    -2.1058  -2.0890  -1.4795  -1.1431  -1.1283  -0.7919  -0.7709  -0.6672
    -0.5795  -0.5095  -0.3381  -0.3315  -0.2303  -0.1094   0.1064   0.7081
     0.8610   1.0095   1.1164   1.4242   1.5110   1.8166   1.9388   2.1848
     2.2514   2.7535   2.8301   3.0766   3.2856   3.4363   3.4490   3.5678
     3.6834   3.7316   3.8771   3.9561   3.9619   3.9652   4.0662   4.0924
     4.1113   4.2612   4.2668   4.3006   4.4070

[...]

          k = 0.0756-0.0422 0.0000 ( 32804 PWs)   bands (ev):

[...]

          k =-0.0907 0.0314 0.0000 ( 32788 PWs)   bands (ev):

[...]

          k =-0.0907-0.0646 0.0000 ( 32762 PWs)   bands (ev):

   -64.8855 -64.8755 -64.4509 -64.4409 -64.4373 -64.4270 -53.2503 -53.2492
   -53.2280 -53.2224 -53.1616 -53.1281 -36.8896 -36.8093 -36.8006 -36.7855
   -36.7681 -36.7426 -36.4357 -36.4116 -36.3873 -36.3863 -36.3787 -36.3718
   -36.3699 -36.3642 -36.3529 -36.3467 -36.2884 -36.2733 -29.4521 -29.3770
   -29.3634 -29.3341 -29.3289 -29.3214 -29.3183 -29.3094 -29.3069 -29.2348
   -29.2035 -29.1516 -29.0938 -29.0662 -29.0382 -29.0249 -29.0179 -29.0064
    -2.1277  -2.0099  -1.4129  -1.3667  -1.3239  -1.1202  -1.0850  -0.9822
    -0.9437  -0.6995  -0.5922  -0.5879  -0.3520  -0.3310  -0.3138  -0.2571
    -0.1320   0.0161   0.0511   0.3050   0.4147   0.5315   0.6639   0.7447
     0.9956   1.0040   1.0140   1.1387   1.2313   1.2321   1.3151   1.3642
     1.4228   1.5347   1.5509   1.5660   1.6366   1.7338   1.9265   2.0117
     2.2945   2.4909   2.5079   2.7433   2.8899   3.0051   3.0627   3.0991
     3.2555   3.2824   3.3908   3.5586   3.5953

     the Fermi energy is     2.1715 ev

!    total energy              =   -1799.71017399 Ry
     estimated scf accuracy    <       0.00000818 Ry
     smearing contrib. (-TS)   =      -0.05497220 Ry
     internal energy E=F+TS    =   -1799.65520180 Ry

     The total energy is F=E-TS. E is the sum of the following terms:
     one-electron contribution =  -14806.61052559 Ry
     hartree contribution      =    7400.45790958 Ry
     xc contribution           =    -352.17994857 Ry
     ewald contribution        =    5958.67736126 Ry
     electric field correction =       0.00000152 Ry

     convergence has been achieved in  17 iterations

     negative rho (up, down):  5.968E-03 0.000E+00

     Forces acting on atoms (cartesian axes, Ry/au):

     atom    1 type  1   force =     0.00322699    0.00229552   -0.00535901
     atom    2 type  1   force =     0.00322558    0.00229710   -0.00535827
     atom    3 type  2   force =     0.00137894    0.00098156    0.02831242
     atom    4 type  2   force =     0.00137985    0.00098160    0.02831244
     atom    5 type  1   force =    -0.00202689   -0.00144225   -0.01459495
     atom    6 type  1   force =    -0.00202598   -0.00144274   -0.01459528
     atom    7 type  2   force =    -0.00145771   -0.00103714   -0.01119579
     atom    8 type  2   force =    -0.00145802   -0.00103734   -0.01119522
     atom    9 type  1   force =    -0.00040308   -0.00028587    0.00215191
     atom   10 type  1   force =    -0.00040161   -0.00028697    0.00215226
     atom   11 type  2   force =    -0.00071905   -0.00051202    0.00068477
     atom   12 type  2   force =    -0.00071902   -0.00051146    0.00068473

     Total force =     0.049045     Total SCF correction =     0.016516
     SCF correction compared to forces is large: reduce conv_thr to get better values

     Writing output data file ./Nb2Tc2/Nb2Tc2_beef.save/

     General routines

     Parallel routines

   This run was terminated on:  15: 8:15  24Jun2022

   JOB DONE.