     Program PWSCF v.6.6 starts on 25Jun2022 at  7:13:18

     R & G space division:  proc/nbgrp/npool/nimage =      37
     Fft bands division:     nmany     =       1
     Reading input from Nb2Ta2.in
Warning: card &CELL ignored
Warning: card / ignored

     Current dimensions of program PWSCF are:
     Max number of different atomic species (ntypx) = 10
     Max number of k-points (npk) =  40000
     Max angular momentum in pseudopotentials (lmaxx) =  3
     Presently stress not available with electric field and gates

     Message from routine cell_base_init:
     DEPRECATED: use true lattice parameter, not A to a.u. conversion factor
     file Nb.pbe-spn-rrkjus_psl.1.0.0.UPF: wavefunction(s)  4S 4P renormalized
     file Ta.pbe-spfn-rrkjus_psl.1.0.0.UPF: wavefunction(s)  5S 5P renormalized

     IMPORTANT: XC functional enforced from input :
     Exchange-correlation= BEEF-VDW
                           (   1   4  43  14   2   0   0)
     Any further DFT definition will be discarded
     Please, verify this is what you really want

     Subspace diagonalization in iterative solution of the eigenvalue problem:
     a serial algorithm will be used

     Found symmetry operation: I + (  0.5000  0.0000  0.0000)
     This is a supercell, fractional translations are disabled

     bravais-lattice index     =            0
     lattice parameter (alat)  =       1.8897  a.u.
     unit-cell volume          =    5216.8886 (a.u.)^3
     number of atoms/cell      =           12
     number of atomic types    =            2
     number of electrons       =       240.00
     number of Kohn-Sham states=          144
     kinetic-energy cutoff     =      55.1240  Ry
     charge density cutoff     =     551.2396  Ry
     convergence threshold     =      1.0E-05
     mixing beta               =       0.1000
     number of iterations used =           10  plain     mixing
     Exchange-correlation= BEEF-VDW
                           (   1   4  43  14   2   0   0)

     celldm(1)=   1.889726  celldm(2)=   0.000000  celldm(3)=   0.000000
     celldm(4)=   0.000000  celldm(5)=   0.000000  celldm(6)=   0.000000

     crystal axes: (cart. coord. in units of alat)
               a(1) = (   5.511200   0.000000   0.000000 )
               a(2) = (  -2.755600   5.653327   0.000000 )
               a(3) = (   0.000000   0.000000  24.812171 )

     reciprocal axes: (cart. coord. in units 2 pi/alat)
               b(1) = (  0.181449  0.088443 -0.000000 )
               b(2) = (  0.000000  0.176887  0.000000 )
               b(3) = (  0.000000 -0.000000  0.040303 )

     PseudoPot. # 1 for Nb read from file:
     ../pseudo/Nb.pbe-spn-rrkjus_psl.1.0.0.UPF
     MD5 check sum: 6ee677a9f002bd3e3657f443f129faad
     Pseudo is Ultrasoft + core correction, Zval = 13.0
     Generated using "atomic" code by A. Dal Corso v.6.2.2
     Using radial grid of 1227 points,  6 beta functions with:
                l(1) =   0
                l(2) =   0
                l(3) =   1
                l(4) =   1
                l(5) =   2
                l(6) =   2
     Q(r) pseudized with 0 coefficients

     PseudoPot. # 2 for Ta read from file:
     ../pseudo/Ta.pbe-spfn-rrkjus_psl.1.0.0.UPF
     MD5 check sum: 39d7d349fe394e56adf8454eb9315fbb
     Pseudo is Ultrasoft + core correction, Zval = 27.0
     Generated using "atomic" code by A. Dal Corso v.6.3
     Using radial grid of 1273 points,  8 beta functions with:
                l(1) =   0
                l(2) =   0
                l(3) =   1
                l(4) =   1
                l(5) =   2
                l(6) =   2
                l(7) =   3
                l(8) =   3
     Q(r) pseudized with 0 coefficients

     atomic species   valence    mass     pseudopotential
        Nb            13.00    92.90637     Nb( 1.00)
        Ta            27.00   180.94788     Ta( 1.00)

     No symmetry found

   Cartesian axes

     site n.     atom                  positions (alat units)
         1           Nb  tau(   1) = (   0.0000000   0.0000000  10.0000000  )
         2           Nb  tau(   2) = (   2.7555999   0.0000000  10.0000000  )
         3           Ta  tau(   3) = (   1.3778000   2.8266634  10.0000000  )
         4           Ta  tau(   4) = (  -1.3778000   2.8266634  10.0000000  )
         5           Nb  tau(   5) = (   2.7555999   1.3431615  12.4060857  )
         6           Nb  tau(   6) = (   0.0000000   1.3431615  12.4060857  )
         7           Ta  tau(   7) = (  -1.3778000   4.1698249  12.4060857  )
         8           Ta  tau(   8) = (   1.3778000   4.1698249  12.4060857  )
         9           Nb  tau(   9) = (   0.0001725   2.7365131  14.7266520  )
        10           Nb  tau(  10) = (   2.7557762   2.7365086  14.7266573  )
        11           Ta  tau(  11) = (   1.3778480   5.5733130  14.7550042  )
        12           Ta  tau(  12) = (  -1.3777539   5.5733016  14.7549896  )

     number of k points=    74  Fermi-Dirac smearing, width (Ry)=  0.0100
                       cart. coord. in units 2pi/alat
        k(    1) = (   0.0000000   0.0000000   0.0000000), wk =   0.0138889
        k(    2) = (   0.0000000   0.0147406   0.0000000), wk =   0.0277778
        k(    3) = (   0.0000000   0.0294812   0.0000000), wk =   0.0277778
        k(    4) = (   0.0000000   0.0442217   0.0000000), wk =   0.0277778
        k(    5) = (   0.0000000   0.0589623   0.0000000), wk =   0.0277778
        k(    6) = (   0.0000000   0.0737029   0.0000000), wk =   0.0277778
        k(    7) = (   0.0000000  -0.0884435   0.0000000), wk =   0.0138889
        k(    8) = (   0.0151207   0.0073703   0.0000000), wk =   0.0277778
        k(    9) = (   0.0151207   0.0221109   0.0000000), wk =   0.0277778
        k(   10) = (   0.0151207   0.0368515   0.0000000), wk =   0.0277778
        k(   11) = (   0.0151207   0.0515920   0.0000000), wk =   0.0277778
        k(   12) = (   0.0151207   0.0663326   0.0000000), wk =   0.0277778
        k(   13) = (   0.0151207   0.0810732   0.0000000), wk =   0.0277778
        k(   14) = (   0.0151207  -0.0810732   0.0000000), wk =   0.0277778
        k(   15) = (   0.0151207  -0.0663326   0.0000000), wk =   0.0277778
        k(   16) = (   0.0151207  -0.0515920   0.0000000), wk =   0.0277778
        k(   17) = (   0.0151207  -0.0368515   0.0000000), wk =   0.0277778
        k(   18) = (   0.0151207  -0.0221109   0.0000000), wk =   0.0277778
        k(   19) = (   0.0151207  -0.0073703   0.0000000), wk =   0.0277778
        k(   20) = (   0.0302414   0.0147406   0.0000000), wk =   0.0277778
        k(   21) = (   0.0302414   0.0294812   0.0000000), wk =   0.0277778
        k(   22) = (   0.0302414   0.0442217   0.0000000), wk =   0.0277778
        k(   23) = (   0.0302414   0.0589623   0.0000000), wk =   0.0277778
        k(   24) = (   0.0302414   0.0737029   0.0000000), wk =   0.0277778
        k(   25) = (   0.0302414   0.0884435   0.0000000), wk =   0.0277778
        k(   26) = (   0.0302414  -0.0737029   0.0000000), wk =   0.0277778
        k(   27) = (   0.0302414  -0.0589623   0.0000000), wk =   0.0277778
        k(   28) = (   0.0302414  -0.0442217   0.0000000), wk =   0.0277778
        k(   29) = (   0.0302414  -0.0294812   0.0000000), wk =   0.0277778
        k(   30) = (   0.0302414  -0.0147406   0.0000000), wk =   0.0277778
        k(   31) = (   0.0302414  -0.0000000   0.0000000), wk =   0.0277778
        k(   32) = (   0.0453622   0.0221109   0.0000000), wk =   0.0277778
        k(   33) = (   0.0453622   0.0368515   0.0000000), wk =   0.0277778
        k(   34) = (   0.0453622   0.0515920   0.0000000), wk =   0.0277778
        k(   35) = (   0.0453622   0.0663326   0.0000000), wk =   0.0277778
        k(   36) = (   0.0453622   0.0810732   0.0000000), wk =   0.0277778
        k(   37) = (   0.0453622   0.0958138   0.0000000), wk =   0.0277778
        k(   38) = (   0.0453622  -0.0663326   0.0000000), wk =   0.0277778
        k(   39) = (   0.0453622  -0.0515920   0.0000000), wk =   0.0277778
        k(   40) = (   0.0453622  -0.0368515   0.0000000), wk =   0.0277778
        k(   41) = (   0.0453622  -0.0221109   0.0000000), wk =   0.0277778
        k(   42) = (   0.0453622  -0.0073703   0.0000000), wk =   0.0277778
        k(   43) = (   0.0453622   0.0073703   0.0000000), wk =   0.0277778
        k(   44) = (   0.0604829   0.0294812   0.0000000), wk =   0.0277778
        k(   45) = (   0.0604829   0.0442217   0.0000000), wk =   0.0277778
        k(   46) = (   0.0604829   0.0589623   0.0000000), wk =   0.0277778
        k(   47) = (   0.0604829   0.0737029   0.0000000), wk =   0.0277778
        k(   48) = (   0.0604829   0.0884435   0.0000000), wk =   0.0277778
        k(   49) = (   0.0604829   0.1031841   0.0000000), wk =   0.0277778
        k(   50) = (   0.0604829  -0.0589623   0.0000000), wk =   0.0277778
        k(   51) = (   0.0604829  -0.0442217   0.0000000), wk =   0.0277778
        k(   52) = (   0.0604829  -0.0294812   0.0000000), wk =   0.0277778
        k(   53) = (   0.0604829  -0.0147406   0.0000000), wk =   0.0277778
        k(   54) = (   0.0604829   0.0000000   0.0000000), wk =   0.0277778
        k(   55) = (   0.0604829   0.0147406   0.0000000), wk =   0.0277778
        k(   56) = (   0.0756036   0.0368515   0.0000000), wk =   0.0277778
        k(   57) = (   0.0756036   0.0515920   0.0000000), wk =   0.0277778
        k(   58) = (   0.0756036   0.0663326   0.0000000), wk =   0.0277778
        k(   59) = (   0.0756036   0.0810732   0.0000000), wk =   0.0277778
        k(   60) = (   0.0756036   0.0958138   0.0000000), wk =   0.0277778
        k(   61) = (   0.0756036   0.1105544   0.0000000), wk =   0.0277778
        k(   62) = (   0.0756036  -0.0515920   0.0000000), wk =   0.0277778
        k(   63) = (   0.0756036  -0.0368515   0.0000000), wk =   0.0277778
        k(   64) = (   0.0756036  -0.0221109   0.0000000), wk =   0.0277778
        k(   65) = (   0.0756036  -0.0073703   0.0000000), wk =   0.0277778
        k(   66) = (   0.0756036   0.0073703   0.0000000), wk =   0.0277778
        k(   67) = (   0.0756036   0.0221109   0.0000000), wk =   0.0277778
        k(   68) = (  -0.0907243  -0.0442217   0.0000000), wk =   0.0138889
        k(   69) = (  -0.0907243  -0.0294812   0.0000000), wk =   0.0277778
        k(   70) = (  -0.0907243  -0.0147406   0.0000000), wk =   0.0277778
        k(   71) = (  -0.0907243   0.0000000   0.0000000), wk =   0.0277778
        k(   72) = (  -0.0907243   0.0147406   0.0000000), wk =   0.0277778
        k(   73) = (  -0.0907243   0.0294812   0.0000000), wk =   0.0277778
        k(   74) = (  -0.0907243  -0.1326652   0.0000000), wk =   0.0138889

     Initial potential from superposition of free atoms

     starting charge  239.98708, renormalised to  240.00000

     negative rho (up, down):  9.152E-04 0.000E+00

     %%%%%%%%%%%%%%%%%%%%%%%%%%%%%%%%%%%%%%%%%%%%%%%%%%%%%%%%%%%%%%%%%%%%%%%%
     %                                                                      %
     % You are using vdW-DF, which was implemented by the Thonhauser group. %
     % Please cite the following two papers that made this development      %
     % possible and the two reviews that describe the various versions:     %
     %                                                                      %
     %   T. Thonhauser et al., PRL 115, 136402 (2015).                      %
     %   T. Thonhauser et al., PRB 76, 125112 (2007).                       %
     %   K. Berland et al., Rep. Prog. Phys. 78, 066501 (2015).             %
     %   D.C. Langreth et al., J. Phys.: Condens. Matter 21, 084203 (2009). %
     %                                                                      %
     %                                                                      %
     % If you are calculating the stress with vdW-DF, please also cite:     %
     %                                                                      %
     %   R. Sabatini et al., J. Phys.: Condens. Matter 24, 424209 (2012).   %
     %                                                                      %
     %%%%%%%%%%%%%%%%%%%%%%%%%%%%%%%%%%%%%%%%%%%%%%%%%%%%%%%%%%%%%%%%%%%%%%%%

     Adding external electric field

     Computed dipole along edir(3) :
        Dipole               -0.0001 Ry au,         -0.0002 Debye
        Dipole field         -0.0000 Ry au,

        Potential amp.        0.0000 Ry
        Total length         45.7160 bohr

     Starting wfcs are  180 randomized atomic wfcs

     Self-consistent Calculation

     iteration #  1     ecut=    55.12 Ry     beta= 0.10
     Davidson diagonalization with overlap
     ethr =  1.00E-02,  avg # of iterations =  2.0

[...]

     total energy              =   -4802.94604997 Ry
     estimated scf accuracy    <       7.18310584 Ry

[...]

     iteration #  7     ecut=    55.12 Ry     beta= 0.10
     Davidson diagonalization with overlap
     c_bands:  1 eigenvalues not converged
     ethr =  1.89E-05,  avg # of iterations = 10.6

[...]

     iteration #  9     ecut=    55.12 Ry     beta= 0.10
     Davidson diagonalization with overlap
     c_bands:  1 eigenvalues not converged
     c_bands:  1 eigenvalues not converged
     c_bands:  2 eigenvalues not converged
     ethr =  3.13E-06,  avg # of iterations = 10.4

[...]

     total energy              =   -4803.53385525 Ry
     estimated scf accuracy    <       0.00002639 Ry

     iteration # 15     ecut=    55.12 Ry     beta= 0.10
     Davidson diagonalization with overlap
     ethr =  1.10E-08,  avg # of iterations =  2.7

[...]

     Adding external electric field

     Computed dipole along edir(3) :
        Dipole                0.0146 Ry au,          0.0372 Debye
        Dipole field          0.0000 Ry au,

        Potential amp.       -0.0032 Ry
        Total length         45.7160 bohr

     End of self-consistent calculation

          k = 0.0000 0.0000 0.0000 ( 36039 PWs)   bands (ev):

   -66.0049 -65.9984 -65.9301 -65.9235 -65.7278 -65.6519 -52.7627 -52.7324
   -52.6109 -52.5809 -52.5480 -52.3966 -32.7252 -32.7035 -32.6522 -32.5456
   -32.5124 -32.4116 -32.3298 -32.2934 -32.2889 -32.1949 -32.1581 -32.0667
   -31.9281 -31.7990 -31.6916 -31.6697 -31.6593 -31.4965 -29.2729 -29.2455
   -29.1648 -29.1221 -29.0139 -28.8357 -28.7142 -28.6935 -28.6879 -28.5890
   -28.5585 -28.5381 -28.4081 -28.2278 -28.1073 -28.0878 -28.0625 -27.9505
   -17.6906 -17.6871 -17.6842 -17.6825 -17.6822 -17.6818 -17.6774 -17.6767
   -17.6757 -17.6754 -17.6645 -17.6629 -17.6612 -17.6554 -17.6537 -17.6519
   -17.6506 -17.6415 -17.6311 -17.6280 -17.6269 -17.6218 -17.6173 -17.6172
   -17.5848 -17.5747 -17.5745 -17.5638 -17.3791 -17.3772 -17.3690 -17.3688
   -17.3608 -17.3566 -17.3482 -17.3464 -17.3399 -17.3399 -17.3384 -17.3255
   -17.3231 -17.3092  -4.2344  -2.7580  -2.0133  -1.5458  -1.4299  -1.3850
    -1.3807  -1.0920  -0.9904  -0.6273  -0.6046  -0.4309  -0.4219  -0.3581
    -0.3144   0.4845   0.5097   0.8055   0.9333   1.1319   1.1585   1.5149
     1.6799   1.7471   1.7584   1.8069   2.2447   2.6026   2.7639   2.7731
     2.9180   3.1063   3.1523   3.2277   3.5638   3.5819   3.8861   4.0689
     4.1504   4.1556   4.1829   4.3618   4.3876   4.5959   4.6010   4.7564
     4.8804   5.0850   5.0937   5.1987   5.3648   5.6356   5.9491   6.3535

[...]

          k = 0.0756 0.0221 0.0000 ( 36056 PWs)   bands (ev):

[...]

          k =-0.0907-0.0442 0.0000 ( 36052 PWs)   bands (ev):

[...]

          k =-0.0907-0.1327 0.0000 ( 36052 PWs)   bands (ev):

   -65.9676 -65.9676 -65.9611 -65.9610 -65.6900 -65.6900 -52.6875 -52.6875
   -52.6574 -52.6573 -52.4731 -52.4731 -32.5797 -32.5797 -32.3552 -32.3552
   -32.2549 -32.2549 -32.2198 -32.2198 -32.2118 -32.2118 -32.1984 -32.1984
   -32.0383 -32.0383 -31.9941 -31.9941 -31.7455 -31.7455 -29.0962 -29.0962
   -28.7624 -28.7624 -28.7074 -28.7074 -28.6770 -28.6770 -28.6625 -28.6625
   -28.6292 -28.6292 -28.5575 -28.5575 -28.4771 -28.4770 -28.1679 -28.1678
   -17.6851 -17.6851 -17.6830 -17.6830 -17.6779 -17.6778 -17.6765 -17.6765
   -17.6726 -17.6725 -17.6629 -17.6628 -17.6568 -17.6568 -17.6483 -17.6482
   -17.6476 -17.6476 -17.6380 -17.6379 -17.6077 -17.6076 -17.6066 -17.6065
   -17.5976 -17.5975 -17.5967 -17.5967 -17.3629 -17.3629 -17.3589 -17.3588
   -17.3546 -17.3546 -17.3487 -17.3487 -17.3471 -17.3471 -17.3382 -17.3382
   -17.3353 -17.3353  -2.3812  -2.3812  -1.1581  -1.1581  -0.6494  -0.6494
    -0.2976  -0.2976  -0.1488  -0.1488   0.2831   0.2831   0.6490   0.6490
     0.7544   0.7544   0.9669   0.9669   1.2139   1.2139   1.3797   1.3797
     1.7436   1.7436   1.8083   1.8083   2.0169   2.0169   2.1469   2.1469
     2.2252   2.2252   2.5237   2.5237   2.6297   2.6297   2.7751   2.7751
     3.5372   3.5372   3.9062   3.9063   4.0307   4.0307   4.1026   4.1026
     4.3393   4.3393   4.5500   4.5500   4.5825   4.5825   4.7041   4.7041

     the Fermi energy is     2.2873 ev

!    total energy              =   -4803.53385775 Ry
     estimated scf accuracy    <       0.00000479 Ry
     smearing contrib. (-TS)   =      -0.07652173 Ry
     internal energy E=F+TS    =   -4803.45733602 Ry

     The total energy is F=E-TS. E is the sum of the following terms:
     one-electron contribution =  -29986.12230887 Ry
     hartree contribution      =   15090.36732510 Ry
     xc contribution           =    -528.70277936 Ry
     ewald contribution        =   10621.00042660 Ry
     electric field correction =       0.00000051 Ry

     convergence has been achieved in  15 iterations

     negative rho (up, down):  9.492E-04 0.000E+00

     Forces acting on atoms (cartesian axes, Ry/au):

     atom    1 type  1   force =    -0.00000075   -0.00484034    0.01585311
     atom    2 type  1   force =    -0.00000085   -0.00484201    0.01585139
     atom    3 type  2   force =     0.00000963   -0.00542074    0.00848140
     atom    4 type  2   force =    -0.00001075   -0.00542523    0.00848312
     atom    5 type  1   force =    -0.00000396    0.00299295   -0.01322250
     atom    6 type  1   force =    -0.00000874    0.00299286   -0.01322324
     atom    7 type  2   force =     0.00000775    0.00561892   -0.01287073
     atom    8 type  2   force =     0.00001210    0.00560363   -0.01289088
     atom    9 type  1   force =     0.00000143    0.00141026    0.00066227
     atom   10 type  1   force =     0.00000292    0.00141260    0.00066345
     atom   11 type  2   force =    -0.00001088    0.00024360    0.00110318
     atom   12 type  2   force =     0.00000210    0.00025351    0.00110942

     Total force =     0.039013     Total SCF correction =     0.014378
     SCF correction compared to forces is large: reduce conv_thr to get better values

     Writing output data file ./Nb2Ta2/Nb2Ta2_beef.save/

     General routines

     Parallel routines

   This run was terminated on:  10: 9:10  25Jun2022

   JOB DONE.