     Program PWSCF v.6.6 starts on 11Jul2022 at  0:26:27

     R & G space division:  proc/nbgrp/npool/nimage =      37
     Fft bands division:     nmany     =       1
     Reading input from Nb2Y2.in
Warning: card &CELL ignored
Warning: card / ignored

     Current dimensions of program PWSCF are:
     Max number of different atomic species (ntypx) = 10
     Max number of k-points (npk) =  40000
     Max angular momentum in pseudopotentials (lmaxx) =  3
     Presently stress not available with electric field and gates

     Message from routine cell_base_init:
     DEPRECATED: use true lattice parameter, not A to a.u. conversion factor
     file Nb.pbe-spn-rrkjus_psl.1.0.0.UPF: wavefunction(s)  4S 4P renormalized
     file Y.pbe-spn-rrkjus_psl.1.0.0.UPF: wavefunction(s)  4S renormalized

     IMPORTANT: XC functional enforced from input :
     Exchange-correlation= BEEF-VDW
                           (   1   4  43  14   2   0   0)
     Any further DFT definition will be discarded
     Please, verify this is what you really want

     Subspace diagonalization in iterative solution of the eigenvalue problem:
     a serial algorithm will be used

     Found symmetry operation: I + (  0.5000  0.0000  0.0000)
     This is a supercell, fractional translations are disabled

     bravais-lattice index     =            0
     lattice parameter (alat)  =       1.8897  a.u.
     unit-cell volume          =    6094.9173 (a.u.)^3
     number of atoms/cell      =           12
     number of atomic types    =            2
     number of electrons       =       144.00
     number of Kohn-Sham states=           86
     kinetic-energy cutoff     =      55.1240  Ry
     charge density cutoff     =     551.2396  Ry
     convergence threshold     =      1.0E-05
     mixing beta               =       0.1000
     number of iterations used =           10  plain     mixing
     Exchange-correlation= BEEF-VDW
                           (   1   4  43  14   2   0   0)

     celldm(1)=   1.889726  celldm(2)=   0.000000  celldm(3)=   0.000000
     celldm(4)=   0.000000  celldm(5)=   0.000000  celldm(6)=   0.000000

     crystal axes: (cart. coord. in units of alat)
               a(1) = (   6.089043   0.000000   0.000000 )
               a(2) = (  -3.044521   5.883583   0.000000 )
               a(3) = (   0.000000   0.000000  25.210437 )

     reciprocal axes: (cart. coord. in units 2 pi/alat)
               b(1) = (  0.164229  0.084982 -0.000000 )
               b(2) = (  0.000000  0.169964  0.000000 )
               b(3) = (  0.000000 -0.000000  0.039666 )

     PseudoPot. # 1 for Nb read from file:
     ../pseudo/Nb.pbe-spn-rrkjus_psl.1.0.0.UPF
     MD5 check sum: 6ee677a9f002bd3e3657f443f129faad
     Pseudo is Ultrasoft + core correction, Zval = 13.0
     Generated using "atomic" code by A. Dal Corso v.6.2.2
     Using radial grid of 1227 points,  6 beta functions with:
                l(1) =   0
                l(2) =   0
                l(3) =   1
                l(4) =   1
                l(5) =   2
                l(6) =   2
     Q(r) pseudized with 0 coefficients

     PseudoPot. # 2 for Y  read from file:
     ../pseudo/Y.pbe-spn-rrkjus_psl.1.0.0.UPF
     MD5 check sum: 5fe32e6a006803c2ec2edff47948a3c8
     Pseudo is Ultrasoft + core correction, Zval = 11.0
     Generated using "atomic" code by A. Dal Corso v.6.2.2
     Using radial grid of 1223 points,  6 beta functions with:
                l(1) =   0
                l(2) =   0
                l(3) =   1
                l(4) =   1
                l(5) =   2
                l(6) =   2
     Q(r) pseudized with 0 coefficients

     atomic species   valence    mass     pseudopotential
        Nb            13.00    92.90637     Nb( 1.00)
        Y             11.00    88.90584     Y ( 1.00)

     No symmetry found

   Cartesian axes

     site n.     atom                  positions (alat units)
         1           Nb  tau(   1) = (   0.0000000   0.0000000  10.0000000  )
         2           Nb  tau(   2) = (   3.0445214   0.0000000  10.0000000  )
         3           Y   tau(   3) = (   1.5222607   2.9417913  10.0000000  )
         4           Y   tau(   4) = (  -1.5222607   2.9417913  10.0000000  )
         5           Nb  tau(   5) = (   3.0445214   1.5754195  12.6052186  )
         6           Nb  tau(   6) = (  -0.0000000   1.5754195  12.6052186  )
         7           Y   tau(   7) = (  -1.5222607   4.5172108  12.6052186  )
         8           Y   tau(   8) = (   1.5222607   4.5172108  12.6052186  )
         9           Nb  tau(   9) = (  -0.0000899   3.0186132  14.8839960  )
        10           Nb  tau(  10) = (   3.0444386   3.0186215  14.8839964  )
        11           Y   tau(  11) = (   4.5665232   0.3239129  15.3735717  )
        12           Y   tau(  12) = (   1.5219582   0.3238954  15.3735489  )

     number of k points=    74  Fermi-Dirac smearing, width (Ry)=  0.0100
                       cart. coord. in units 2pi/alat
        k(    1) = (   0.0000000   0.0000000   0.0000000), wk =   0.0138889
        k(    2) = (   0.0000000   0.0141637   0.0000000), wk =   0.0277778
        k(    3) = (   0.0000000   0.0283274   0.0000000), wk =   0.0277778
        k(    4) = (   0.0000000   0.0424911   0.0000000), wk =   0.0277778
        k(    5) = (   0.0000000   0.0566548   0.0000000), wk =   0.0277778
        k(    6) = (   0.0000000   0.0708185   0.0000000), wk =   0.0277778
        k(    7) = (   0.0000000  -0.0849822   0.0000000), wk =   0.0138889
        k(    8) = (   0.0136858   0.0070819   0.0000000), wk =   0.0277778
        k(    9) = (   0.0136858   0.0212456   0.0000000), wk =   0.0277778
        k(   10) = (   0.0136858   0.0354093   0.0000000), wk =   0.0277778
        k(   11) = (   0.0136858   0.0495730   0.0000000), wk =   0.0277778
        k(   12) = (   0.0136858   0.0637367   0.0000000), wk =   0.0277778
        k(   13) = (   0.0136858   0.0779004   0.0000000), wk =   0.0277778
        k(   14) = (   0.0136858  -0.0779004   0.0000000), wk =   0.0277778
        k(   15) = (   0.0136858  -0.0637367   0.0000000), wk =   0.0277778
        k(   16) = (   0.0136858  -0.0495730   0.0000000), wk =   0.0277778
        k(   17) = (   0.0136858  -0.0354093   0.0000000), wk =   0.0277778
        k(   18) = (   0.0136858  -0.0212456   0.0000000), wk =   0.0277778
        k(   19) = (   0.0136858  -0.0070819   0.0000000), wk =   0.0277778
        k(   20) = (   0.0273716   0.0141637   0.0000000), wk =   0.0277778
        k(   21) = (   0.0273716   0.0283274   0.0000000), wk =   0.0277778
        k(   22) = (   0.0273716   0.0424911   0.0000000), wk =   0.0277778
        k(   23) = (   0.0273716   0.0566548   0.0000000), wk =   0.0277778
        k(   24) = (   0.0273716   0.0708185   0.0000000), wk =   0.0277778
        k(   25) = (   0.0273716   0.0849822   0.0000000), wk =   0.0277778
        k(   26) = (   0.0273716  -0.0708185   0.0000000), wk =   0.0277778
        k(   27) = (   0.0273716  -0.0566548   0.0000000), wk =   0.0277778
        k(   28) = (   0.0273716  -0.0424911   0.0000000), wk =   0.0277778
        k(   29) = (   0.0273716  -0.0283274   0.0000000), wk =   0.0277778
        k(   30) = (   0.0273716  -0.0141637   0.0000000), wk =   0.0277778
        k(   31) = (   0.0273716  -0.0000000   0.0000000), wk =   0.0277778
        k(   32) = (   0.0410574   0.0212456   0.0000000), wk =   0.0277778
        k(   33) = (   0.0410574   0.0354093   0.0000000), wk =   0.0277778
        k(   34) = (   0.0410574   0.0495730   0.0000000), wk =   0.0277778
        k(   35) = (   0.0410574   0.0637367   0.0000000), wk =   0.0277778
        k(   36) = (   0.0410574   0.0779004   0.0000000), wk =   0.0277778
        k(   37) = (   0.0410574   0.0920641   0.0000000), wk =   0.0277778
        k(   38) = (   0.0410574  -0.0637367   0.0000000), wk =   0.0277778
        k(   39) = (   0.0410574  -0.0495730   0.0000000), wk =   0.0277778
        k(   40) = (   0.0410574  -0.0354093   0.0000000), wk =   0.0277778
        k(   41) = (   0.0410574  -0.0212456   0.0000000), wk =   0.0277778
        k(   42) = (   0.0410574  -0.0070819   0.0000000), wk =   0.0277778
        k(   43) = (   0.0410574   0.0070818   0.0000000), wk =   0.0277778
        k(   44) = (   0.0547431   0.0283274   0.0000000), wk =   0.0277778
        k(   45) = (   0.0547431   0.0424911   0.0000000), wk =   0.0277778
        k(   46) = (   0.0547431   0.0566548   0.0000000), wk =   0.0277778
        k(   47) = (   0.0547431   0.0708185   0.0000000), wk =   0.0277778
        k(   48) = (   0.0547431   0.0849822   0.0000000), wk =   0.0277778
        k(   49) = (   0.0547431   0.0991459   0.0000000), wk =   0.0277778
        k(   50) = (   0.0547431  -0.0566548   0.0000000), wk =   0.0277778
        k(   51) = (   0.0547431  -0.0424911   0.0000000), wk =   0.0277778
        k(   52) = (   0.0547431  -0.0283274   0.0000000), wk =   0.0277778
        k(   53) = (   0.0547431  -0.0141637   0.0000000), wk =   0.0277778
        k(   54) = (   0.0547431  -0.0000000   0.0000000), wk =   0.0277778
        k(   55) = (   0.0547431   0.0141637   0.0000000), wk =   0.0277778
        k(   56) = (   0.0684289   0.0354093   0.0000000), wk =   0.0277778
        k(   57) = (   0.0684289   0.0495730   0.0000000), wk =   0.0277778
        k(   58) = (   0.0684289   0.0637367   0.0000000), wk =   0.0277778
        k(   59) = (   0.0684289   0.0779004   0.0000000), wk =   0.0277778
        k(   60) = (   0.0684289   0.0920641   0.0000000), wk =   0.0277778
        k(   61) = (   0.0684289   0.1062278   0.0000000), wk =   0.0277778
        k(   62) = (   0.0684289  -0.0495730   0.0000000), wk =   0.0277778
        k(   63) = (   0.0684289  -0.0354093   0.0000000), wk =   0.0277778
        k(   64) = (   0.0684289  -0.0212456   0.0000000), wk =   0.0277778
        k(   65) = (   0.0684289  -0.0070819   0.0000000), wk =   0.0277778
        k(   66) = (   0.0684289   0.0070818   0.0000000), wk =   0.0277778
        k(   67) = (   0.0684289   0.0212456   0.0000000), wk =   0.0277778
        k(   68) = (  -0.0821147  -0.0424911   0.0000000), wk =   0.0138889
        k(   69) = (  -0.0821147  -0.0283274   0.0000000), wk =   0.0277778
        k(   70) = (  -0.0821147  -0.0141637   0.0000000), wk =   0.0277778
        k(   71) = (  -0.0821147   0.0000000   0.0000000), wk =   0.0277778
        k(   72) = (  -0.0821147   0.0141637   0.0000000), wk =   0.0277778
        k(   73) = (  -0.0821147   0.0283274   0.0000000), wk =   0.0277778
        k(   74) = (  -0.0821147  -0.1274733   0.0000000), wk =   0.0138889

     Initial potential from superposition of free atoms

     starting charge  143.96764, renormalised to  144.00000

     negative rho (up, down):  9.469E-04 0.000E+00

     %%%%%%%%%%%%%%%%%%%%%%%%%%%%%%%%%%%%%%%%%%%%%%%%%%%%%%%%%%%%%%%%%%%%%%%%
     %                                                                      %
     % You are using vdW-DF, which was implemented by the Thonhauser group. %
     % Please cite the following two papers that made this development      %
     % possible and the two reviews that describe the various versions:     %
     %                                                                      %
     %   T. Thonhauser et al., PRL 115, 136402 (2015).                      %
     %   T. Thonhauser et al., PRB 76, 125112 (2007).                       %
     %   K. Berland et al., Rep. Prog. Phys. 78, 066501 (2015).             %
     %   D.C. Langreth et al., J. Phys.: Condens. Matter 21, 084203 (2009). %
     %                                                                      %
     %                                                                      %
     % If you are calculating the stress with vdW-DF, please also cite:     %
     %                                                                      %
     %   R. Sabatini et al., J. Phys.: Condens. Matter 24, 424209 (2012).   %
     %                                                                      %
     %%%%%%%%%%%%%%%%%%%%%%%%%%%%%%%%%%%%%%%%%%%%%%%%%%%%%%%%%%%%%%%%%%%%%%%%

     Adding external electric field

     Computed dipole along edir(3) :
        Dipole                0.0030 Ry au,          0.0076 Debye
        Dipole field          0.0000 Ry au,

        Potential amp.       -0.0006 Ry
        Total length         46.4498 bohr

     Starting wfcs are  156 randomized atomic wfcs

     Self-consistent Calculation

     iteration #  1     ecut=    55.12 Ry     beta= 0.10
     Davidson diagonalization with overlap
     ethr =  1.00E-02,  avg # of iterations =  2.0

[...]

     total energy              =   -1215.40880051 Ry
     estimated scf accuracy    <       8.15778500 Ry

[...]

     total energy              =   -1216.13402502 Ry
     estimated scf accuracy    <       0.00002920 Ry

     iteration # 18     ecut=    55.12 Ry     beta= 0.10
     Davidson diagonalization with overlap
     ethr =  1.43E-08,  avg # of iterations =  3.7

[...]

     Adding external electric field

     Computed dipole along edir(3) :
        Dipole                0.1796 Ry au,          0.4565 Debye
        Dipole field          0.0004 Ry au,

        Potential amp.       -0.0344 Ry
        Total length         46.4498 bohr

     End of self-consistent calculation

          k = 0.0000 0.0000 0.0000 ( 42163 PWs)   bands (ev):

   -53.5227 -53.4750 -53.3477 -53.2986 -53.2518 -53.2039 -41.4148 -41.3005
   -41.2756 -41.1604 -40.6794 -40.5372 -29.7303 -29.7146 -29.6653 -29.6194
   -29.5446 -29.5185 -29.4963 -29.4913 -29.4380 -29.3463 -29.2864 -29.2501
   -29.2216 -29.1909 -29.1085 -29.0318 -28.9508 -28.9048 -21.9671 -21.8886
   -21.5187 -21.4023 -21.3579 -21.3109 -21.2783 -21.2514 -21.1429 -21.1352
   -20.9962 -20.8061 -20.7215 -20.6060 -20.5550 -20.4683 -20.4064 -20.1299
    -3.1420  -2.0048  -1.2338  -1.0644  -0.8934  -0.7998  -0.7624  -0.7214
    -0.6862  -0.3388  -0.2403  -0.2249  -0.1693  -0.0927  -0.0198   0.5188
     0.8141   0.8939   1.1013   1.2161   1.2267   1.5467   1.8364   2.0419
     2.0920   2.2519   2.2760   2.3433   2.4876   2.6486   2.7764   2.8375
     2.8985   3.0576   3.0859   3.0965   3.1162   3.2779

[...]

          k = 0.0684 0.0212 0.0000 ( 42119 PWs)   bands (ev):

[...]

          k =-0.0821-0.0425 0.0000 ( 42110 PWs)   bands (ev):

[...]

          k =-0.0821-0.1275 0.0000 ( 42110 PWs)   bands (ev):

   -53.4989 -53.4989 -53.3232 -53.3232 -53.2278 -53.2278 -41.3460 -41.3460
   -41.2313 -41.2313 -40.6092 -40.6092 -29.6968 -29.6968 -29.5185 -29.5185
   -29.4720 -29.4720 -29.4651 -29.4651 -29.3679 -29.3679 -29.3145 -29.3144
   -29.2793 -29.2793 -29.2203 -29.2203 -28.9278 -28.9278 -21.4428 -21.4428
   -21.4136 -21.4135 -21.3335 -21.3335 -21.3259 -21.3259 -21.2132 -21.2132
   -21.0762 -21.0762 -20.7485 -20.7485 -20.5366 -20.5366 -20.4873 -20.4873
    -1.6308  -1.6308  -0.7110  -0.7110  -0.2050  -0.2050  -0.1245  -0.1245
     0.0831   0.0831   0.3537   0.3537   0.6764   0.6764   0.8060   0.8061
     0.9073   0.9073   1.0544   1.0545   1.3181   1.3181   1.4089   1.4090
     1.5460   1.5461   1.6415   1.6415   1.9834   1.9834   2.1587   2.1587
     2.2985   2.2985   2.3957   2.3957   2.8061   2.8061

     the Fermi energy is     1.5812 ev

!    total energy              =   -1216.13402720 Ry
     estimated scf accuracy    <       0.00000324 Ry
     smearing contrib. (-TS)   =      -0.08464489 Ry
     internal energy E=F+TS    =   -1216.04938231 Ry

     The total energy is F=E-TS. E is the sum of the following terms:
     one-electron contribution =   -8318.84521406 Ry
     hartree contribution      =    4153.11454929 Ry
     xc contribution           =    -226.23386835 Ry
     ewald contribution        =    3175.91508429 Ry
     electric field correction =       0.00006652 Ry

     convergence has been achieved in  18 iterations

     negative rho (up, down):  8.060E-04 0.000E+00

     Forces acting on atoms (cartesian axes, Ry/au):

     atom    1 type  1   force =     0.00000147    0.01847490    0.04156219
     atom    2 type  1   force =     0.00000260    0.01847462    0.04156255
     atom    3 type  2   force =     0.00000179   -0.01714113   -0.02360339
     atom    4 type  2   force =     0.00000078   -0.01714137   -0.02360374
     atom    5 type  1   force =    -0.00000718   -0.01425580   -0.01207262
     atom    6 type  1   force =    -0.00000609   -0.01425455   -0.01207390
     atom    7 type  2   force =    -0.00000005    0.01511103   -0.00640282
     atom    8 type  2   force =    -0.00000048    0.01511171   -0.00640078
     atom    9 type  1   force =    -0.00000785   -0.00133428    0.00023234
     atom   10 type  1   force =    -0.00000780   -0.00133687    0.00023270
     atom   11 type  2   force =     0.00000102   -0.00085449    0.00028354
     atom   12 type  2   force =     0.00002181   -0.00085376    0.00028392

     Total force =     0.084151     Total SCF correction =     0.007790

     Writing output data file ./Nb2Y2/Nb2Y2_beef.save/

     General routines

     Parallel routines

   This run was terminated on:   1:15:25  11Jul2022

   JOB DONE.