     Program PWSCF v.6.6 starts on 26Jun2022 at 22:50:39

     R & G space division:  proc/nbgrp/npool/nimage =      37
     Fft bands division:     nmany     =       1
     Reading input from Ni2Cd2.in
Warning: card &CELL ignored
Warning: card / ignored

     Current dimensions of program PWSCF are:
     Max number of different atomic species (ntypx) = 10
     Max number of k-points (npk) =  40000
     Max angular momentum in pseudopotentials (lmaxx) =  3
     Presently stress not available with electric field and gates

     Message from routine cell_base_init:
     DEPRECATED: use true lattice parameter, not A to a.u. conversion factor
     file Ni.pbe-n-rrkjus_psl.1.0.0.UPF: wavefunction(s)  3D renormalized
     file Cd.pbe-n-rrkjus_psl.1.0.0.UPF: wavefunction(s)  4D renormalized

     IMPORTANT: XC functional enforced from input :
     Exchange-correlation= BEEF-VDW
                           (   1   4  43  14   2   0   0)
     Any further DFT definition will be discarded
     Please, verify this is what you really want

     Subspace diagonalization in iterative solution of the eigenvalue problem:
     a serial algorithm will be used

     bravais-lattice index     =            0
     lattice parameter (alat)  =       1.8897  a.u.
     unit-cell volume          =    4568.6721 (a.u.)^3
     number of atoms/cell      =           12
     number of atomic types    =            2
     number of electrons       =       132.00
     number of Kohn-Sham states=           79
     kinetic-energy cutoff     =      55.1240  Ry
     charge density cutoff     =     551.2396  Ry
     convergence threshold     =      1.0E-05
     mixing beta               =       0.1000
     number of iterations used =           10  plain     mixing
     Exchange-correlation= BEEF-VDW
                           (   1   4  43  14   2   0   0)

     celldm(1)=   1.889726  celldm(2)=   0.000000  celldm(3)=   0.000000
     celldm(4)=   0.000000  celldm(5)=   0.000000  celldm(6)=   0.000000

     crystal axes: (cart. coord. in units of alat)
               a(1) = (   5.490363   0.000000   0.000000 )
               a(2) = (   2.215990   5.023294   0.000000 )
               a(3) = (   0.000000   0.000000  24.547305 )

     reciprocal axes: (cart. coord. in units 2 pi/alat)
               b(1) = (  0.182137 -0.080349  0.000000 )
               b(2) = (  0.000000  0.199073  0.000000 )
               b(3) = (  0.000000  0.000000  0.040738 )

     PseudoPot. # 1 for Ni read from file:
     ../pseudo/Ni.pbe-n-rrkjus_psl.1.0.0.UPF
     MD5 check sum: 9f76af1bddcd5839b31985483df98d0a
     Pseudo is Ultrasoft + core correction, Zval = 10.0
     Generated using "atomic" code by A. Dal Corso v.6.5
     Using radial grid of 1195 points,  6 beta functions with:
                l(1) =   0
                l(2) =   0
                l(3) =   1
                l(4) =   1
                l(5) =   2
                l(6) =   2
     Q(r) pseudized with 0 coefficients

     PseudoPot. # 2 for Cd read from file:
     ../pseudo/Cd.pbe-n-rrkjus_psl.1.0.0.UPF
     MD5 check sum: a744746c89d2344a134ead0d8ab94e7a
     Pseudo is Ultrasoft + core correction, Zval = 12.0
     Generated using "atomic" code by A. Dal Corso v.6.3
     Using radial grid of 1239 points,  6 beta functions with:
                l(1) =   0
                l(2) =   0
                l(3) =   1
                l(4) =   1
                l(5) =   2
                l(6) =   2
     Q(r) pseudized with 0 coefficients

     atomic species   valence    mass     pseudopotential
        Ni            10.00    58.69340     Ni( 1.00)
        Cd            12.00   112.41400     Cd( 1.00)

     Starting magnetic structure
     atomic species   magnetization
        Ni           0.500
        Cd           0.000

     No symmetry found

   Cartesian axes

     site n.     atom                  positions (alat units)
         1           Ni  tau(   1) = (   0.0000000   0.0000000  10.0000000  )
         2           Ni  tau(   2) = (   3.8531764   2.5116468  10.0000000  )
         3           Cd  tau(   3) = (   2.7451817   0.0000000  10.0000000  )
         4           Cd  tau(   4) = (   1.1079948   2.5116468  10.0000000  )
         5           Ni  tau(   5) = (   5.4903633   3.5788275  12.2736524  )
         6           Ni  tau(   6) = (   1.6371869   1.0671806  12.2736524  )
         7           Cd  tau(   7) = (   2.7451817   3.5788275  12.2736524  )
         8           Cd  tau(   8) = (   4.3823685   1.0671806  12.2736524  )
         9           Ni  tau(   9) = (   2.9224627   1.9049708  14.3611843  )
        10           Ni  tau(  10) = (   6.7759281   4.4168201  14.3605390  )
        11           Cd  tau(  11) = (   5.7206691   1.9390972  14.7861168  )
        12           Cd  tau(  12) = (   4.0830766   4.4513513  14.7860952  )

     number of k points=    74  Fermi-Dirac smearing, width (Ry)=  0.0100
                       cart. coord. in units 2pi/alat
        k(    1) = (   0.0000000   0.0000000   0.0000000), wk =   0.0069444
        k(    2) = (   0.0000000   0.0165894   0.0000000), wk =   0.0138889
        k(    3) = (   0.0000000   0.0331788   0.0000000), wk =   0.0138889
        k(    4) = (   0.0000000   0.0497681   0.0000000), wk =   0.0138889
        k(    5) = (   0.0000000   0.0663575   0.0000000), wk =   0.0138889
        k(    6) = (   0.0000000   0.0829469   0.0000000), wk =   0.0138889
        k(    7) = (   0.0000000  -0.0995363   0.0000000), wk =   0.0069444
        k(    8) = (   0.0151781  -0.0066957   0.0000000), wk =   0.0138889
        k(    9) = (   0.0151781   0.0098937   0.0000000), wk =   0.0138889
        k(   10) = (   0.0151781   0.0264830   0.0000000), wk =   0.0138889
        k(   11) = (   0.0151781   0.0430724   0.0000000), wk =   0.0138889
        k(   12) = (   0.0151781   0.0596618   0.0000000), wk =   0.0138889
        k(   13) = (   0.0151781   0.0762512   0.0000000), wk =   0.0138889
        k(   14) = (   0.0151781  -0.1062320   0.0000000), wk =   0.0138889
        k(   15) = (   0.0151781  -0.0896426   0.0000000), wk =   0.0138889
        k(   16) = (   0.0151781  -0.0730532   0.0000000), wk =   0.0138889
        k(   17) = (   0.0151781  -0.0564639   0.0000000), wk =   0.0138889
        k(   18) = (   0.0151781  -0.0398745   0.0000000), wk =   0.0138889
        k(   19) = (   0.0151781  -0.0232851   0.0000000), wk =   0.0138889
        k(   20) = (   0.0303562  -0.0133914   0.0000000), wk =   0.0138889
        k(   21) = (   0.0303562   0.0031980   0.0000000), wk =   0.0138889
        k(   22) = (   0.0303562   0.0197873   0.0000000), wk =   0.0138889
        k(   23) = (   0.0303562   0.0363767   0.0000000), wk =   0.0138889
        k(   24) = (   0.0303562   0.0529661   0.0000000), wk =   0.0138889
        k(   25) = (   0.0303562   0.0695555   0.0000000), wk =   0.0138889
        k(   26) = (   0.0303562  -0.1129277   0.0000000), wk =   0.0138889
        k(   27) = (   0.0303562  -0.0963383   0.0000000), wk =   0.0138889
        k(   28) = (   0.0303562  -0.0797489   0.0000000), wk =   0.0138889
        k(   29) = (   0.0303562  -0.0631596   0.0000000), wk =   0.0138889
        k(   30) = (   0.0303562  -0.0465702   0.0000000), wk =   0.0138889
        k(   31) = (   0.0303562  -0.0299808   0.0000000), wk =   0.0138889
        k(   32) = (   0.0455343  -0.0200871   0.0000000), wk =   0.0138889
        k(   33) = (   0.0455343  -0.0034978   0.0000000), wk =   0.0138889
        k(   34) = (   0.0455343   0.0130916   0.0000000), wk =   0.0138889
        k(   35) = (   0.0455343   0.0296810   0.0000000), wk =   0.0138889
        k(   36) = (   0.0455343   0.0462704   0.0000000), wk =   0.0138889
        k(   37) = (   0.0455343   0.0628598   0.0000000), wk =   0.0138889
        k(   38) = (   0.0455343  -0.1196234   0.0000000), wk =   0.0138889
        k(   39) = (   0.0455343  -0.1030340   0.0000000), wk =   0.0138889
        k(   40) = (   0.0455343  -0.0864447   0.0000000), wk =   0.0138889
        k(   41) = (   0.0455343  -0.0698553   0.0000000), wk =   0.0138889
        k(   42) = (   0.0455343  -0.0532659   0.0000000), wk =   0.0138889
        k(   43) = (   0.0455343  -0.0366765   0.0000000), wk =   0.0138889
        k(   44) = (   0.0607124  -0.0267829   0.0000000), wk =   0.0138889
        k(   45) = (   0.0607124  -0.0101935   0.0000000), wk =   0.0138889
        k(   46) = (   0.0607124   0.0063959   0.0000000), wk =   0.0138889
        k(   47) = (   0.0607124   0.0229853   0.0000000), wk =   0.0138889
        k(   48) = (   0.0607124   0.0395747   0.0000000), wk =   0.0138889
        k(   49) = (   0.0607124   0.0561640   0.0000000), wk =   0.0138889
        k(   50) = (   0.0607124  -0.1263191   0.0000000), wk =   0.0138889
        k(   51) = (   0.0607124  -0.1097298   0.0000000), wk =   0.0138889
        k(   52) = (   0.0607124  -0.0931404   0.0000000), wk =   0.0138889
        k(   53) = (   0.0607124  -0.0765510   0.0000000), wk =   0.0138889
        k(   54) = (   0.0607124  -0.0599616   0.0000000), wk =   0.0138889
        k(   55) = (   0.0607124  -0.0433722   0.0000000), wk =   0.0138889
        k(   56) = (   0.0758905  -0.0334786   0.0000000), wk =   0.0138889
        k(   57) = (   0.0758905  -0.0168892   0.0000000), wk =   0.0138889
        k(   58) = (   0.0758905  -0.0002998   0.0000000), wk =   0.0138889
        k(   59) = (   0.0758905   0.0162896   0.0000000), wk =   0.0138889
        k(   60) = (   0.0758905   0.0328790   0.0000000), wk =   0.0138889
        k(   61) = (   0.0758905   0.0494683   0.0000000), wk =   0.0138889
        k(   62) = (   0.0758905  -0.1330149   0.0000000), wk =   0.0138889
        k(   63) = (   0.0758905  -0.1164255   0.0000000), wk =   0.0138889
        k(   64) = (   0.0758905  -0.0998361   0.0000000), wk =   0.0138889
        k(   65) = (   0.0758905  -0.0832467   0.0000000), wk =   0.0138889
        k(   66) = (   0.0758905  -0.0666573   0.0000000), wk =   0.0138889
        k(   67) = (   0.0758905  -0.0500679   0.0000000), wk =   0.0138889
        k(   68) = (  -0.0910687   0.0401743   0.0000000), wk =   0.0069444
        k(   69) = (  -0.0910687   0.0567637   0.0000000), wk =   0.0138889
        k(   70) = (  -0.0910687   0.0733530   0.0000000), wk =   0.0138889
        k(   71) = (  -0.0910687   0.0899424   0.0000000), wk =   0.0138889
        k(   72) = (  -0.0910687   0.1065318   0.0000000), wk =   0.0138889
        k(   73) = (  -0.0910687   0.1231212   0.0000000), wk =   0.0138889
        k(   74) = (  -0.0910687  -0.0593620   0.0000000), wk =   0.0069444

     Initial potential from superposition of free atoms

     starting charge  131.96922, renormalised to  132.00000

     %%%%%%%%%%%%%%%%%%%%%%%%%%%%%%%%%%%%%%%%%%%%%%%%%%%%%%%%%%%%%%%%%%%%%%%%
     %                                                                      %
     % You are using vdW-DF, which was implemented by the Thonhauser group. %
     % Please cite the following two papers that made this development      %
     % possible and the two reviews that describe the various versions:     %
     %                                                                      %
     %   T. Thonhauser et al., PRL 115, 136402 (2015).                      %
     %   T. Thonhauser et al., PRB 76, 125112 (2007).                       %
     %   K. Berland et al., Rep. Prog. Phys. 78, 066501 (2015).             %
     %   D.C. Langreth et al., J. Phys.: Condens. Matter 21, 084203 (2009). %
     %                                                                      %
     %                                                                      %
     % If you are calculating the stress with vdW-DF, please also cite:     %
     %                                                                      %
     %   R. Sabatini et al., J. Phys.: Condens. Matter 24, 424209 (2012).   %
     %                                                                      %
     %%%%%%%%%%%%%%%%%%%%%%%%%%%%%%%%%%%%%%%%%%%%%%%%%%%%%%%%%%%%%%%%%%%%%%%%

     Adding external electric field

     Computed dipole along edir(3) :
        Dipole                0.0034 Ry au,          0.0085 Debye
        Dipole field          0.0000 Ry au,

        Potential amp.       -0.0008 Ry
        Total length         45.2280 bohr

[...]

     Starting wfcs are  108 randomized atomic wfcs

     Self-consistent Calculation

     iteration #  1     ecut=    55.12 Ry     beta= 0.10
     Davidson diagonalization with overlap
     ethr =  1.00E-02,  avg # of iterations =  2.4

[...]

     total energy              =   -1217.14182700 Ry
     estimated scf accuracy    <       8.14674886 Ry

     total magnetization       =     3.73 Bohr mag/cell
     absolute magnetization    =     3.95 Bohr mag/cell

[...]

     iteration # 14     ecut=    55.12 Ry     beta= 0.10
     Davidson diagonalization with overlap
     c_bands:  1 eigenvalues not converged
     c_bands:  2 eigenvalues not converged
     c_bands:  2 eigenvalues not converged
     c_bands:  1 eigenvalues not converged
     ethr =  1.40E-04,  avg # of iterations =  2.9

[...]

     iteration # 25     ecut=    55.12 Ry     beta= 0.10
     Davidson diagonalization with overlap
     c_bands:  1 eigenvalues not converged
     c_bands:  1 eigenvalues not converged
     ethr =  1.88E-08,  avg # of iterations =  2.3

[...]

     total energy              =   -1218.69812548 Ry
     estimated scf accuracy    <       0.00001200 Ry

[...]

     iteration # 27     ecut=    55.12 Ry     beta= 0.10
     Davidson diagonalization with overlap
     ethr =  9.09E-09,  avg # of iterations =  2.2

[...]

     Adding external electric field

     Computed dipole along edir(3) :
        Dipole                0.0407 Ry au,          0.1035 Debye
        Dipole field          0.0001 Ry au,

        Potential amp.       -0.0101 Ry
        Total length         45.2280 bohr

     Magnetic moment per site:
     atom:    1    charge:    8.7657    magn:    0.0173    constr:    0.0000
     atom:    2    charge:    8.7660    magn:    0.0148    constr:    0.0000
     atom:    3    charge:   10.0366    magn:   -0.0005    constr:    0.0000
     atom:    4    charge:   10.0366    magn:   -0.0005    constr:    0.0000
     atom:    5    charge:    8.8067    magn:   -0.0013    constr:    0.0000
     atom:    6    charge:    8.8072    magn:    0.0023    constr:    0.0000
     atom:    7    charge:   10.0752    magn:   -0.0003    constr:    0.0000
     atom:    8    charge:   10.0753    magn:   -0.0003    constr:    0.0000
     atom:    9    charge:    8.7849    magn:    0.0158    constr:    0.0000
     atom:   10    charge:    8.7852    magn:    0.0138    constr:    0.0000
     atom:   11    charge:   10.0107    magn:   -0.0004    constr:    0.0000
     atom:   12    charge:   10.0107    magn:   -0.0004    constr:    0.0000

     End of self-consistent calculation

     Number of k-points >= 100: set verbosity='high' to print the bands.

     the Fermi energy is     0.0739 ev

!    total energy              =   -1218.08029761 Ry
     estimated scf accuracy    <       0.00000899 Ry
     smearing contrib. (-TS)   =      -0.04374156 Ry
     internal energy E=F+TS    =   -1218.03655605 Ry

     The total energy is F=E-TS. E is the sum of the following terms:
     one-electron contribution =   -9344.68082159 Ry
     hartree contribution      =    4777.73941694 Ry
     xc contribution           =    -401.26450705 Ry
     ewald contribution        =    3750.16935108 Ry
     electric field correction =       0.00000456 Ry

     total magnetization       =     0.03 Bohr mag/cell
     absolute magnetization    =     0.11 Bohr mag/cell

     convergence has been achieved in  27 iterations

     Forces acting on atoms (cartesian axes, Ry/au):

     atom    1 type  1   force =     0.00493870    0.00321741    0.01772490
     atom    2 type  1   force =     0.00499897    0.00326064    0.01773790
     atom    3 type  2   force =    -0.00533490   -0.00353705   -0.01870855
     atom    4 type  2   force =    -0.00537971   -0.00345113   -0.01870631
     atom    5 type  1   force =    -0.00344103   -0.00225089    0.01309776
     atom    6 type  1   force =    -0.00342752   -0.00222884    0.01311797
     atom    7 type  2   force =     0.00300776    0.00190772   -0.01078056
     atom    8 type  2   force =     0.00295768    0.00198100   -0.01078353
     atom    9 type  1   force =     0.00066479    0.00042898   -0.00137585
     atom   10 type  1   force =     0.00044496    0.00029342   -0.00130944
     atom   11 type  2   force =     0.00019646    0.00033001   -0.00000592
     atom   12 type  2   force =     0.00037385    0.00004874   -0.00000838

     Total force =     0.046053     Total SCF correction =     0.007526
     SCF correction compared to forces is large: reduce conv_thr to get better values

     Writing output data file ./Ni2Cd2/Ni2Cd2_beef.save/

     General routines

     Parallel routines

   This run was terminated on:   1:32:38  27Jun2022

   JOB DONE.