     Program PWSCF v.6.6 starts on 27Jun2022 at  1:32:40

     R & G space division:  proc/nbgrp/npool/nimage =      37
     Fft bands division:     nmany     =       1
     Reading input from Ni2Cu2.in
Warning: card &CELL ignored
Warning: card / ignored

     Current dimensions of program PWSCF are:
     Max number of different atomic species (ntypx) = 10
     Max number of k-points (npk) =  40000
     Max angular momentum in pseudopotentials (lmaxx) =  3
     Presently stress not available with electric field and gates

     Message from routine cell_base_init:
     DEPRECATED: use true lattice parameter, not A to a.u. conversion factor
     file Ni.pbe-n-rrkjus_psl.1.0.0.UPF: wavefunction(s)  3D renormalized
     file Cu.pbe-dn-rrkjus_psl.1.0.0.UPF: wavefunction(s)  3D renormalized

     IMPORTANT: XC functional enforced from input :
     Exchange-correlation= BEEF-VDW
                           (   1   4  43  14   2   0   0)
     Any further DFT definition will be discarded
     Please, verify this is what you really want

     Subspace diagonalization in iterative solution of the eigenvalue problem:
     a serial algorithm will be used

     bravais-lattice index     =            0
     lattice parameter (alat)  =       1.8897  a.u.
     unit-cell volume          =    3645.3338 (a.u.)^3
     number of atoms/cell      =           12
     number of atomic types    =            2
     number of electrons       =       126.00
     number of Kohn-Sham states=           76
     kinetic-energy cutoff     =      55.1240  Ry
     charge density cutoff     =     551.2396  Ry
     convergence threshold     =      1.0E-05
     mixing beta               =       0.1000
     number of iterations used =           10  plain     mixing
     Exchange-correlation= BEEF-VDW
                           (   1   4  43  14   2   0   0)

     celldm(1)=   1.889726  celldm(2)=   0.000000  celldm(3)=   0.000000
     celldm(4)=   0.000000  celldm(5)=   0.000000  celldm(6)=   0.000000

     crystal axes: (cart. coord. in units of alat)
               a(1) = (   5.005819   0.000000   0.000000 )
               a(2) = (  -2.502909   4.468911   0.000000 )
               a(3) = (   0.000000   0.000000  24.147042 )

     reciprocal axes: (cart. coord. in units 2 pi/alat)
               b(1) = (  0.199768  0.111884 -0.000000 )
               b(2) = (  0.000000  0.223768  0.000000 )
               b(3) = (  0.000000 -0.000000  0.041413 )

     PseudoPot. # 1 for Ni read from file:
     ../pseudo/Ni.pbe-n-rrkjus_psl.1.0.0.UPF
     MD5 check sum: 9f76af1bddcd5839b31985483df98d0a
     Pseudo is Ultrasoft + core correction, Zval = 10.0
     Generated using "atomic" code by A. Dal Corso v.6.5
     Using radial grid of 1195 points,  6 beta functions with:
                l(1) =   0
                l(2) =   0
                l(3) =   1
                l(4) =   1
                l(5) =   2
                l(6) =   2
     Q(r) pseudized with 0 coefficients

     PseudoPot. # 2 for Cu read from file:
     ../pseudo/Cu.pbe-dn-rrkjus_psl.1.0.0.UPF
     MD5 check sum: 8469560995d0c2df1ffe68c099c04a63
     Pseudo is Ultrasoft + core correction, Zval = 11.0
     Generated using "atomic" code by A. Dal Corso v.6.3
     Using radial grid of 1199 points,  6 beta functions with:
                l(1) =   0
                l(2) =   0
                l(3) =   1
                l(4) =   1
                l(5) =   2
                l(6) =   2
     Q(r) pseudized with 0 coefficients

     atomic species   valence    mass     pseudopotential
        Ni            10.00    58.69340     Ni( 1.00)
        Cu            11.00    63.54600     Cu( 1.00)

     Starting magnetic structure
     atomic species   magnetization
        Ni           0.500
        Cu           0.000

     No symmetry found

   Cartesian axes

     site n.     atom                  positions (alat units)
         1           Ni  tau(   1) = (   0.0000000   0.0000000  10.0000000  )
         2           Ni  tau(   2) = (   2.5029094   0.0000000  10.0000000  )
         3           Cu  tau(   3) = (   1.2514547   2.2344554  10.0000000  )
         4           Cu  tau(   4) = (  -1.2514547   2.2344554  10.0000000  )
         5           Ni  tau(   5) = (   2.5029094   1.4018081  12.0735210  )
         6           Ni  tau(   6) = (  -0.0000000   1.4018081  12.0735210  )
         7           Cu  tau(   7) = (  -1.2514547   3.6362635  12.0735210  )
         8           Cu  tau(   8) = (   1.2514547   3.6362635  12.0735210  )
         9           Ni  tau(   9) = (  -0.0000165   2.7956798  14.0994330  )
        10           Ni  tau(  10) = (   2.5029189   2.7953720  14.0992731  )
        11           Cu  tau(  11) = (   3.7540512   0.5773498  14.1737809  )
        12           Cu  tau(  12) = (   1.2517745   0.5773413  14.1737812  )

     number of k points=    74  Fermi-Dirac smearing, width (Ry)=  0.0100
                       cart. coord. in units 2pi/alat
        k(    1) = (   0.0000000   0.0000000   0.0000000), wk =   0.0069444
        k(    2) = (   0.0000000   0.0186473   0.0000000), wk =   0.0138889
        k(    3) = (   0.0000000   0.0372947   0.0000000), wk =   0.0138889
        k(    4) = (   0.0000000   0.0559420   0.0000000), wk =   0.0138889
        k(    5) = (   0.0000000   0.0745894   0.0000000), wk =   0.0138889
        k(    6) = (   0.0000000   0.0932367   0.0000000), wk =   0.0138889
        k(    7) = (   0.0000000  -0.1118841   0.0000000), wk =   0.0069444
        k(    8) = (   0.0166473   0.0093237   0.0000000), wk =   0.0138889
        k(    9) = (   0.0166473   0.0279710   0.0000000), wk =   0.0138889
        k(   10) = (   0.0166473   0.0466184   0.0000000), wk =   0.0138889
        k(   11) = (   0.0166473   0.0652657   0.0000000), wk =   0.0138889
        k(   12) = (   0.0166473   0.0839131   0.0000000), wk =   0.0138889
        k(   13) = (   0.0166473   0.1025604   0.0000000), wk =   0.0138889
        k(   14) = (   0.0166473  -0.1025604   0.0000000), wk =   0.0138889
        k(   15) = (   0.0166473  -0.0839131   0.0000000), wk =   0.0138889
        k(   16) = (   0.0166473  -0.0652657   0.0000000), wk =   0.0138889
        k(   17) = (   0.0166473  -0.0466184   0.0000000), wk =   0.0138889
        k(   18) = (   0.0166473  -0.0279710   0.0000000), wk =   0.0138889
        k(   19) = (   0.0166473  -0.0093237   0.0000000), wk =   0.0138889
        k(   20) = (   0.0332946   0.0186473   0.0000000), wk =   0.0138889
        k(   21) = (   0.0332946   0.0372947   0.0000000), wk =   0.0138889
        k(   22) = (   0.0332946   0.0559420   0.0000000), wk =   0.0138889
        k(   23) = (   0.0332946   0.0745894   0.0000000), wk =   0.0138889
        k(   24) = (   0.0332946   0.0932367   0.0000000), wk =   0.0138889
        k(   25) = (   0.0332946   0.1118841   0.0000000), wk =   0.0138889
        k(   26) = (   0.0332946  -0.0932367   0.0000000), wk =   0.0138889
        k(   27) = (   0.0332946  -0.0745894   0.0000000), wk =   0.0138889
        k(   28) = (   0.0332946  -0.0559420   0.0000000), wk =   0.0138889
        k(   29) = (   0.0332946  -0.0372947   0.0000000), wk =   0.0138889
        k(   30) = (   0.0332946  -0.0186474   0.0000000), wk =   0.0138889
        k(   31) = (   0.0332946  -0.0000000   0.0000000), wk =   0.0138889
        k(   32) = (   0.0499419   0.0279710   0.0000000), wk =   0.0138889
        k(   33) = (   0.0499419   0.0466184   0.0000000), wk =   0.0138889
        k(   34) = (   0.0499419   0.0652657   0.0000000), wk =   0.0138889
        k(   35) = (   0.0499419   0.0839131   0.0000000), wk =   0.0138889
        k(   36) = (   0.0499419   0.1025604   0.0000000), wk =   0.0138889
        k(   37) = (   0.0499419   0.1212077   0.0000000), wk =   0.0138889
        k(   38) = (   0.0499419  -0.0839131   0.0000000), wk =   0.0138889
        k(   39) = (   0.0499419  -0.0652657   0.0000000), wk =   0.0138889
        k(   40) = (   0.0499419  -0.0466184   0.0000000), wk =   0.0138889
        k(   41) = (   0.0499419  -0.0279710   0.0000000), wk =   0.0138889
        k(   42) = (   0.0499419  -0.0093237   0.0000000), wk =   0.0138889
        k(   43) = (   0.0499419   0.0093237   0.0000000), wk =   0.0138889
        k(   44) = (   0.0665892   0.0372947   0.0000000), wk =   0.0138889
        k(   45) = (   0.0665892   0.0559420   0.0000000), wk =   0.0138889
        k(   46) = (   0.0665892   0.0745894   0.0000000), wk =   0.0138889
        k(   47) = (   0.0665892   0.0932367   0.0000000), wk =   0.0138889
        k(   48) = (   0.0665892   0.1118841   0.0000000), wk =   0.0138889
        k(   49) = (   0.0665892   0.1305314   0.0000000), wk =   0.0138889
        k(   50) = (   0.0665892  -0.0745894   0.0000000), wk =   0.0138889
        k(   51) = (   0.0665892  -0.0559420   0.0000000), wk =   0.0138889
        k(   52) = (   0.0665892  -0.0372947   0.0000000), wk =   0.0138889
        k(   53) = (   0.0665892  -0.0186474   0.0000000), wk =   0.0138889
        k(   54) = (   0.0665892  -0.0000000   0.0000000), wk =   0.0138889
        k(   55) = (   0.0665892   0.0186473   0.0000000), wk =   0.0138889
        k(   56) = (   0.0832365   0.0466184   0.0000000), wk =   0.0138889
        k(   57) = (   0.0832365   0.0652657   0.0000000), wk =   0.0138889
        k(   58) = (   0.0832365   0.0839131   0.0000000), wk =   0.0138889
        k(   59) = (   0.0832365   0.1025604   0.0000000), wk =   0.0138889
        k(   60) = (   0.0832365   0.1212077   0.0000000), wk =   0.0138889
        k(   61) = (   0.0832365   0.1398551   0.0000000), wk =   0.0138889
        k(   62) = (   0.0832365  -0.0652657   0.0000000), wk =   0.0138889
        k(   63) = (   0.0832365  -0.0466184   0.0000000), wk =   0.0138889
        k(   64) = (   0.0832365  -0.0279710   0.0000000), wk =   0.0138889
        k(   65) = (   0.0832365  -0.0093237   0.0000000), wk =   0.0138889
        k(   66) = (   0.0832365   0.0093237   0.0000000), wk =   0.0138889
        k(   67) = (   0.0832365   0.0279710   0.0000000), wk =   0.0138889
        k(   68) = (  -0.0998838  -0.0559420   0.0000000), wk =   0.0069444
        k(   69) = (  -0.0998838  -0.0372947   0.0000000), wk =   0.0138889
        k(   70) = (  -0.0998838  -0.0186473   0.0000000), wk =   0.0138889
        k(   71) = (  -0.0998838   0.0000000   0.0000000), wk =   0.0138889
        k(   72) = (  -0.0998838   0.0186474   0.0000000), wk =   0.0138889
        k(   73) = (  -0.0998838   0.0372947   0.0000000), wk =   0.0138889
        k(   74) = (  -0.0998838  -0.1678261   0.0000000), wk =   0.0069444

     Initial potential from superposition of free atoms

     starting charge  125.99714, renormalised to  126.00000

     %%%%%%%%%%%%%%%%%%%%%%%%%%%%%%%%%%%%%%%%%%%%%%%%%%%%%%%%%%%%%%%%%%%%%%%%
     %                                                                      %
     % You are using vdW-DF, which was implemented by the Thonhauser group. %
     % Please cite the following two papers that made this development      %
     % possible and the two reviews that describe the various versions:     %
     %                                                                      %
     %   T. Thonhauser et al., PRL 115, 136402 (2015).                      %
     %   T. Thonhauser et al., PRB 76, 125112 (2007).                       %
     %   K. Berland et al., Rep. Prog. Phys. 78, 066501 (2015).             %
     %   D.C. Langreth et al., J. Phys.: Condens. Matter 21, 084203 (2009). %
     %                                                                      %
     %                                                                      %
     % If you are calculating the stress with vdW-DF, please also cite:     %
     %                                                                      %
     %   R. Sabatini et al., J. Phys.: Condens. Matter 24, 424209 (2012).   %
     %                                                                      %
     %%%%%%%%%%%%%%%%%%%%%%%%%%%%%%%%%%%%%%%%%%%%%%%%%%%%%%%%%%%%%%%%%%%%%%%%

     Adding external electric field

     Computed dipole along edir(3) :
        Dipole               -0.0000 Ry au,         -0.0000 Debye
        Dipole field         -0.0000 Ry au,

        Potential amp.        0.0000 Ry
        Total length         44.4905 bohr

[...]

     Starting wfcs are  108 randomized atomic wfcs

     Self-consistent Calculation

     iteration #  1     ecut=    55.12 Ry     beta= 0.10
     Davidson diagonalization with overlap
     ethr =  1.00E-02,  avg # of iterations =  2.0

[...]

     total energy              =   -1354.20205427 Ry
     estimated scf accuracy    <       7.99388261 Ry

     total magnetization       =     4.52 Bohr mag/cell
     absolute magnetization    =     4.82 Bohr mag/cell

[...]

     iteration # 10     ecut=    55.12 Ry     beta= 0.10
     Davidson diagonalization with overlap
     c_bands:  1 eigenvalues not converged
     c_bands:  1 eigenvalues not converged
     c_bands:  1 eigenvalues not converged
     c_bands:  2 eigenvalues not converged
     c_bands:  2 eigenvalues not converged
     c_bands:  2 eigenvalues not converged
     c_bands:  1 eigenvalues not converged
     c_bands:  1 eigenvalues not converged
     c_bands:  2 eigenvalues not converged
     c_bands:  1 eigenvalues not converged
     c_bands:  2 eigenvalues not converged
     c_bands:  1 eigenvalues not converged
     c_bands:  1 eigenvalues not converged
     c_bands:  2 eigenvalues not converged
     c_bands:  1 eigenvalues not converged
     c_bands:  2 eigenvalues not converged
     c_bands:  1 eigenvalues not converged
     c_bands:  1 eigenvalues not converged
     c_bands:  1 eigenvalues not converged
     c_bands:  1 eigenvalues not converged
     c_bands:  1 eigenvalues not converged
     c_bands:  1 eigenvalues not converged
     c_bands:  1 eigenvalues not converged
     ethr =  4.06E-05,  avg # of iterations =  9.8

[...]

     iteration # 19     ecut=    55.12 Ry     beta= 0.10
     Davidson diagonalization with overlap
     c_bands:  1 eigenvalues not converged
     c_bands:  1 eigenvalues not converged
     c_bands:  1 eigenvalues not converged
     c_bands:  1 eigenvalues not converged
     ethr =  4.00E-08,  avg # of iterations =  5.8

[...]

     total energy              =   -1355.94290956 Ry
     estimated scf accuracy    <       0.00001016 Ry

[...]

     iteration # 25     ecut=    55.12 Ry     beta= 0.10
     Davidson diagonalization with overlap
     ethr =  8.07E-09,  avg # of iterations =  2.0

[...]

     Adding external electric field

     Computed dipole along edir(3) :
        Dipole               -0.0041 Ry au,         -0.0105 Debye
        Dipole field         -0.0000 Ry au,

        Potential amp.        0.0013 Ry
        Total length         44.4905 bohr

     Magnetic moment per site:
     atom:    1    charge:    8.5758    magn:    0.3384    constr:    0.0000
     atom:    2    charge:    8.5751    magn:    0.3385    constr:    0.0000
     atom:    3    charge:    9.6893    magn:    0.0126    constr:    0.0000
     atom:    4    charge:    9.6893    magn:    0.0126    constr:    0.0000
     atom:    5    charge:    8.6266    magn:    0.3166    constr:    0.0000
     atom:    6    charge:    8.6270    magn:    0.3166    constr:    0.0000
     atom:    7    charge:    9.7476    magn:    0.0150    constr:    0.0000
     atom:    8    charge:    9.7476    magn:    0.0150    constr:    0.0000
     atom:    9    charge:    8.5858    magn:    0.3311    constr:    0.0000
     atom:   10    charge:    8.5862    magn:    0.3309    constr:    0.0000
     atom:   11    charge:    9.6841    magn:    0.0121    constr:    0.0000
     atom:   12    charge:    9.6841    magn:    0.0121    constr:    0.0000

     End of self-consistent calculation

     Number of k-points >= 100: set verbosity='high' to print the bands.

     the Fermi energy is    -0.6007 ev

!    total energy              =   -1354.97527791 Ry
     estimated scf accuracy    <       0.00000899 Ry
     smearing contrib. (-TS)   =      -0.06722759 Ry
     internal energy E=F+TS    =   -1354.90805032 Ry

     The total energy is F=E-TS. E is the sum of the following terms:
     one-electron contribution =  -11009.09893291 Ry
     hartree contribution      =    5638.73947816 Ry
     xc contribution           =    -534.01617155 Ry
     ewald contribution        =    4549.46757591 Ry
     electric field correction =       0.00000006 Ry

     total magnetization       =     1.92 Bohr mag/cell
     absolute magnetization    =     2.31 Bohr mag/cell

     convergence has been achieved in  25 iterations

     Forces acting on atoms (cartesian axes, Ry/au):

     atom    1 type  1   force =    -0.00000246    0.00335090    0.00874184
     atom    2 type  1   force =    -0.00000004    0.00340261    0.00881023
     atom    3 type  2   force =     0.00006356   -0.00364935   -0.00530543
     atom    4 type  2   force =    -0.00006296   -0.00364953   -0.00530563
     atom    5 type  1   force =     0.00000221   -0.00323560   -0.00151722
     atom    6 type  1   force =     0.00000158   -0.00310673   -0.00132236
     atom    7 type  2   force =     0.00012758    0.00362078   -0.00309897
     atom    8 type  2   force =    -0.00012168    0.00362009   -0.00309516
     atom    9 type  1   force =     0.00000956   -0.00011089    0.00088044
     atom   10 type  1   force =    -0.00000712   -0.00004473    0.00084661
     atom   11 type  2   force =     0.00008905   -0.00009997    0.00018232
     atom   12 type  2   force =    -0.00009927   -0.00009758    0.00018333

     Total force =     0.018193     Total SCF correction =     0.005150
     SCF correction compared to forces is large: reduce conv_thr to get better values

     Writing output data file ./Ni2Cu2/Ni2Cu2_beef.save/

     General routines

     Parallel routines

   This run was terminated on:   3:18:25  27Jun2022

   JOB DONE.