     Program PWSCF v.6.6 starts on 27Jun2022 at  3:18:30

     R & G space division:  proc/nbgrp/npool/nimage =      37
     Fft bands division:     nmany     =       1
     Reading input from Ni2Hf2.in
Warning: card &CELL ignored
Warning: card / ignored

     Current dimensions of program PWSCF are:
     Max number of different atomic species (ntypx) = 10
     Max number of k-points (npk) =  40000
     Max angular momentum in pseudopotentials (lmaxx) =  3
     Presently stress not available with electric field and gates

     Message from routine cell_base_init:
     DEPRECATED: use true lattice parameter, not A to a.u. conversion factor
     file Ni.pbe-n-rrkjus_psl.1.0.0.UPF: wavefunction(s)  3D renormalized

     IMPORTANT: XC functional enforced from input :
     Exchange-correlation= BEEF-VDW
                           (   1   4  43  14   2   0   0)
     Any further DFT definition will be discarded
     Please, verify this is what you really want

     Subspace diagonalization in iterative solution of the eigenvalue problem:
     a serial algorithm will be used

     bravais-lattice index     =            0
     lattice parameter (alat)  =       1.8897  a.u.
     unit-cell volume          =    4741.7416 (a.u.)^3
     number of atoms/cell      =           12
     number of atomic types    =            2
     number of electrons       =       132.00
     number of Kohn-Sham states=           79
     kinetic-energy cutoff     =      55.1240  Ry
     charge density cutoff     =     551.2396  Ry
     convergence threshold     =      1.0E-05
     mixing beta               =       0.1000
     number of iterations used =           10  plain     mixing
     Exchange-correlation= BEEF-VDW
                           (   1   4  43  14   2   0   0)

     celldm(1)=   1.889726  celldm(2)=   0.000000  celldm(3)=   0.000000
     celldm(4)=   0.000000  celldm(5)=   0.000000  celldm(6)=   0.000000

     crystal axes: (cart. coord. in units of alat)
               a(1) = (   5.510648   0.000000   0.000000 )
               a(2) = (   1.804811   5.206717   0.000000 )
               a(3) = (   0.000000   0.000000  24.489207 )

     reciprocal axes: (cart. coord. in units 2 pi/alat)
               b(1) = (  0.181467 -0.062902  0.000000 )
               b(2) = (  0.000000  0.192060  0.000000 )
               b(3) = (  0.000000  0.000000  0.040834 )

     PseudoPot. # 1 for Ni read from file:
     ../pseudo/Ni.pbe-n-rrkjus_psl.1.0.0.UPF
     MD5 check sum: 9f76af1bddcd5839b31985483df98d0a
     Pseudo is Ultrasoft + core correction, Zval = 10.0
     Generated using "atomic" code by A. Dal Corso v.6.5
     Using radial grid of 1195 points,  6 beta functions with:
                l(1) =   0
                l(2) =   0
                l(3) =   1
                l(4) =   1
                l(5) =   2
                l(6) =   2
     Q(r) pseudized with 0 coefficients

     PseudoPot. # 2 for Hf read from file:
     ../pseudo/Hf.pbe-spn-rrkjus_psl.1.0.0.UPF
     MD5 check sum: 9605440c6f839e558204c6a924125fd0
     Pseudo is Ultrasoft + core correction, Zval = 12.0
     Generated using "atomic" code by A. Dal Corso v.6.2.2
     Using radial grid of 1271 points,  6 beta functions with:
                l(1) =   0
                l(2) =   0
                l(3) =   1
                l(4) =   1
                l(5) =   2
                l(6) =   2
     Q(r) pseudized with 0 coefficients

     atomic species   valence    mass     pseudopotential
        Ni            10.00    58.69340     Ni( 1.00)
        Hf            12.00   178.49000     Hf( 1.00)

     Starting magnetic structure
     atomic species   magnetization
        Ni           0.500
        Hf           0.000

     No symmetry found

   Cartesian axes

     site n.     atom                  positions (alat units)
         1           Ni  tau(   1) = (   0.0000000   0.0000000  10.0000000  )
         2           Ni  tau(   2) = (   3.6577297   2.6033585  10.0000000  )
         3           Hf  tau(   3) = (   2.7553242   0.0000000  10.0000000  )
         4           Hf  tau(   4) = (   0.9024055   2.6033585  10.0000000  )
         5           Ni  tau(   5) = (   5.5106483   3.9221578  12.2446033  )
         6           Ni  tau(   6) = (   1.8529186   1.3187993  12.2446033  )
         7           Hf  tau(   7) = (   2.7553242   3.9221578  12.2446033  )
         8           Hf  tau(   8) = (   4.6082428   1.3187993  12.2446033  )
         9           Ni  tau(   9) = (   3.6980504   2.6320587  14.2697447  )
        10           Ni  tau(  10) = (   0.0402105   0.0286177  14.2696715  )
        11           Hf  tau(  11) = (   0.9401010   2.6301292  14.5038243  )
        12           Hf  tau(  12) = (   2.7929661   0.0268492  14.5038248  )

     number of k points=    74  Fermi-Dirac smearing, width (Ry)=  0.0100
                       cart. coord. in units 2pi/alat
        k(    1) = (   0.0000000   0.0000000   0.0000000), wk =   0.0069444
        k(    2) = (   0.0000000   0.0160050   0.0000000), wk =   0.0138889
        k(    3) = (   0.0000000   0.0320099   0.0000000), wk =   0.0138889
        k(    4) = (   0.0000000   0.0480149   0.0000000), wk =   0.0138889
        k(    5) = (   0.0000000   0.0640199   0.0000000), wk =   0.0138889
        k(    6) = (   0.0000000   0.0800248   0.0000000), wk =   0.0138889
        k(    7) = (   0.0000000  -0.0960298   0.0000000), wk =   0.0069444
        k(    8) = (   0.0151222  -0.0052418   0.0000000), wk =   0.0138889
        k(    9) = (   0.0151222   0.0107631   0.0000000), wk =   0.0138889
        k(   10) = (   0.0151222   0.0267681   0.0000000), wk =   0.0138889
        k(   11) = (   0.0151222   0.0427731   0.0000000), wk =   0.0138889
        k(   12) = (   0.0151222   0.0587780   0.0000000), wk =   0.0138889
        k(   13) = (   0.0151222   0.0747830   0.0000000), wk =   0.0138889
        k(   14) = (   0.0151222  -0.1012716   0.0000000), wk =   0.0138889
        k(   15) = (   0.0151222  -0.0852667   0.0000000), wk =   0.0138889
        k(   16) = (   0.0151222  -0.0692617   0.0000000), wk =   0.0138889
        k(   17) = (   0.0151222  -0.0532567   0.0000000), wk =   0.0138889
        k(   18) = (   0.0151222  -0.0372518   0.0000000), wk =   0.0138889
        k(   19) = (   0.0151222  -0.0212468   0.0000000), wk =   0.0138889
        k(   20) = (   0.0302445  -0.0104837   0.0000000), wk =   0.0138889
        k(   21) = (   0.0302445   0.0055213   0.0000000), wk =   0.0138889
        k(   22) = (   0.0302445   0.0215263   0.0000000), wk =   0.0138889
        k(   23) = (   0.0302445   0.0375312   0.0000000), wk =   0.0138889
        k(   24) = (   0.0302445   0.0535362   0.0000000), wk =   0.0138889
        k(   25) = (   0.0302445   0.0695412   0.0000000), wk =   0.0138889
        k(   26) = (   0.0302445  -0.1065135   0.0000000), wk =   0.0138889
        k(   27) = (   0.0302445  -0.0905085   0.0000000), wk =   0.0138889
        k(   28) = (   0.0302445  -0.0745035   0.0000000), wk =   0.0138889
        k(   29) = (   0.0302445  -0.0584986   0.0000000), wk =   0.0138889
        k(   30) = (   0.0302445  -0.0424936   0.0000000), wk =   0.0138889
        k(   31) = (   0.0302445  -0.0264886   0.0000000), wk =   0.0138889
        k(   32) = (   0.0453667  -0.0157255   0.0000000), wk =   0.0138889
        k(   33) = (   0.0453667   0.0002794   0.0000000), wk =   0.0138889
        k(   34) = (   0.0453667   0.0162844   0.0000000), wk =   0.0138889
        k(   35) = (   0.0453667   0.0322894   0.0000000), wk =   0.0138889
        k(   36) = (   0.0453667   0.0482943   0.0000000), wk =   0.0138889
        k(   37) = (   0.0453667   0.0642993   0.0000000), wk =   0.0138889
        k(   38) = (   0.0453667  -0.1117553   0.0000000), wk =   0.0138889
        k(   39) = (   0.0453667  -0.0957504   0.0000000), wk =   0.0138889
        k(   40) = (   0.0453667  -0.0797454   0.0000000), wk =   0.0138889
        k(   41) = (   0.0453667  -0.0637404   0.0000000), wk =   0.0138889
        k(   42) = (   0.0453667  -0.0477355   0.0000000), wk =   0.0138889
        k(   43) = (   0.0453667  -0.0317305   0.0000000), wk =   0.0138889
        k(   44) = (   0.0604890  -0.0209674   0.0000000), wk =   0.0138889
        k(   45) = (   0.0604890  -0.0049624   0.0000000), wk =   0.0138889
        k(   46) = (   0.0604890   0.0110426   0.0000000), wk =   0.0138889
        k(   47) = (   0.0604890   0.0270475   0.0000000), wk =   0.0138889
        k(   48) = (   0.0604890   0.0430525   0.0000000), wk =   0.0138889
        k(   49) = (   0.0604890   0.0590575   0.0000000), wk =   0.0138889
        k(   50) = (   0.0604890  -0.1169972   0.0000000), wk =   0.0138889
        k(   51) = (   0.0604890  -0.1009922   0.0000000), wk =   0.0138889
        k(   52) = (   0.0604890  -0.0849872   0.0000000), wk =   0.0138889
        k(   53) = (   0.0604890  -0.0689823   0.0000000), wk =   0.0138889
        k(   54) = (   0.0604890  -0.0529773   0.0000000), wk =   0.0138889
        k(   55) = (   0.0604890  -0.0369723   0.0000000), wk =   0.0138889
        k(   56) = (   0.0756112  -0.0262092   0.0000000), wk =   0.0138889
        k(   57) = (   0.0756112  -0.0102042   0.0000000), wk =   0.0138889
        k(   58) = (   0.0756112   0.0058007   0.0000000), wk =   0.0138889
        k(   59) = (   0.0756112   0.0218057   0.0000000), wk =   0.0138889
        k(   60) = (   0.0756112   0.0378107   0.0000000), wk =   0.0138889
        k(   61) = (   0.0756112   0.0538156   0.0000000), wk =   0.0138889
        k(   62) = (   0.0756112  -0.1222390   0.0000000), wk =   0.0138889
        k(   63) = (   0.0756112  -0.1062340   0.0000000), wk =   0.0138889
        k(   64) = (   0.0756112  -0.0902291   0.0000000), wk =   0.0138889
        k(   65) = (   0.0756112  -0.0742241   0.0000000), wk =   0.0138889
        k(   66) = (   0.0756112  -0.0582191   0.0000000), wk =   0.0138889
        k(   67) = (   0.0756112  -0.0422142   0.0000000), wk =   0.0138889
        k(   68) = (  -0.0907334   0.0314510   0.0000000), wk =   0.0069444
        k(   69) = (  -0.0907334   0.0474560   0.0000000), wk =   0.0138889
        k(   70) = (  -0.0907334   0.0634610   0.0000000), wk =   0.0138889
        k(   71) = (  -0.0907334   0.0794659   0.0000000), wk =   0.0138889
        k(   72) = (  -0.0907334   0.0954709   0.0000000), wk =   0.0138889
        k(   73) = (  -0.0907334   0.1114759   0.0000000), wk =   0.0138889
        k(   74) = (  -0.0907334  -0.0645788   0.0000000), wk =   0.0069444

     Initial potential from superposition of free atoms

     starting charge  131.98689, renormalised to  132.00000

     %%%%%%%%%%%%%%%%%%%%%%%%%%%%%%%%%%%%%%%%%%%%%%%%%%%%%%%%%%%%%%%%%%%%%%%%
     %                                                                      %
     % You are using vdW-DF, which was implemented by the Thonhauser group. %
     % Please cite the following two papers that made this development      %
     % possible and the two reviews that describe the various versions:     %
     %                                                                      %
     %   T. Thonhauser et al., PRL 115, 136402 (2015).                      %
     %   T. Thonhauser et al., PRB 76, 125112 (2007).                       %
     %   K. Berland et al., Rep. Prog. Phys. 78, 066501 (2015).             %
     %   D.C. Langreth et al., J. Phys.: Condens. Matter 21, 084203 (2009). %
     %                                                                      %
     %                                                                      %
     % If you are calculating the stress with vdW-DF, please also cite:     %
     %                                                                      %
     %   R. Sabatini et al., J. Phys.: Condens. Matter 24, 424209 (2012).   %
     %                                                                      %
     %%%%%%%%%%%%%%%%%%%%%%%%%%%%%%%%%%%%%%%%%%%%%%%%%%%%%%%%%%%%%%%%%%%%%%%%

     Adding external electric field

     Computed dipole along edir(3) :
        Dipole                0.0007 Ry au,          0.0017 Debye
        Dipole field          0.0000 Ry au,

        Potential amp.       -0.0002 Ry
        Total length         45.1209 bohr

[...]

     Starting wfcs are  114 randomized atomic wfcs

     Self-consistent Calculation

     iteration #  1     ecut=    55.12 Ry     beta= 0.10
     Davidson diagonalization with overlap
     ethr =  1.00E-02,  avg # of iterations =  2.0

[...]

     total energy              =   -1367.35077200 Ry
     estimated scf accuracy    <      11.63744283 Ry

     total magnetization       =     4.31 Bohr mag/cell
     absolute magnetization    =     4.40 Bohr mag/cell

[...]

     iteration # 14     ecut=    55.12 Ry     beta= 0.10
     Davidson diagonalization with overlap
     c_bands:  2 eigenvalues not converged
     c_bands:  1 eigenvalues not converged
     c_bands:  1 eigenvalues not converged
     c_bands:  1 eigenvalues not converged
     c_bands:  1 eigenvalues not converged
     c_bands:  1 eigenvalues not converged
     c_bands:  1 eigenvalues not converged
     c_bands:  1 eigenvalues not converged
     c_bands:  1 eigenvalues not converged
     ethr =  1.75E-05,  avg # of iterations = 10.2

[...]

     iteration # 23     ecut=    55.12 Ry     beta= 0.10
     Davidson diagonalization with overlap
     c_bands:  1 eigenvalues not converged
     c_bands:  1 eigenvalues not converged
     ethr =  6.70E-08,  avg # of iterations =  6.8

[...]

     total energy              =   -1369.68660889 Ry
     estimated scf accuracy    <       0.00002662 Ry

[...]

     iteration # 26     ecut=    55.12 Ry     beta= 0.10
     Davidson diagonalization with overlap
     ethr =  2.02E-08,  avg # of iterations =  4.3

[...]

     Adding external electric field

     Computed dipole along edir(3) :
        Dipole                0.0752 Ry au,          0.1912 Debye
        Dipole field          0.0002 Ry au,

        Potential amp.       -0.0180 Ry
        Total length         45.1209 bohr

     Magnetic moment per site:
     atom:    1    charge:    8.8613    magn:    0.0032    constr:    0.0000
     atom:    2    charge:    8.8611    magn:    0.0031    constr:    0.0000
     atom:    3    charge:    8.9313    magn:   -0.0042    constr:    0.0000
     atom:    4    charge:    8.9313    magn:   -0.0041    constr:    0.0000
     atom:    5    charge:    8.9353    magn:    0.0051    constr:    0.0000
     atom:    6    charge:    8.9353    magn:    0.0049    constr:    0.0000
     atom:    7    charge:    8.9977    magn:   -0.0014    constr:    0.0000
     atom:    8    charge:    8.9977    magn:   -0.0013    constr:    0.0000
     atom:    9    charge:    8.9175    magn:    0.0005    constr:    0.0000
     atom:   10    charge:    8.9175    magn:    0.0005    constr:    0.0000
     atom:   11    charge:    8.9244    magn:   -0.0038    constr:    0.0000
     atom:   12    charge:    8.9244    magn:   -0.0038    constr:    0.0000

     End of self-consistent calculation

     Number of k-points >= 100: set verbosity='high' to print the bands.

     the Fermi energy is     1.1478 ev

!    total energy              =   -1368.26320316 Ry
     estimated scf accuracy    <       0.00000598 Ry
     smearing contrib. (-TS)   =      -0.05795572 Ry
     internal energy E=F+TS    =   -1368.20524744 Ry

     The total energy is F=E-TS. E is the sum of the following terms:
     one-electron contribution =   -9202.59721024 Ry
     hartree contribution      =    4656.33206612 Ry
     xc contribution           =    -514.70257114 Ry
     ewald contribution        =    3692.76245282 Ry
     electric field correction =       0.00001500 Ry

     total magnetization       =    -0.05 Bohr mag/cell
     absolute magnetization    =     0.09 Bohr mag/cell

     convergence has been achieved in  26 iterations

     Forces acting on atoms (cartesian axes, Ry/au):

     atom    1 type  1   force =    -0.00000474   -0.00001602    0.03397812
     atom    2 type  1   force =    -0.00007013   -0.00003870    0.03397752
     atom    3 type  2   force =     0.00188878    0.00131646   -0.01171354
     atom    4 type  2   force =     0.00185806    0.00135184   -0.01171558
     atom    5 type  1   force =     0.00014467    0.00009929    0.00558869
     atom    6 type  1   force =     0.00014842    0.00011183    0.00556502
     atom    7 type  2   force =    -0.00108183   -0.00076190   -0.02446955
     atom    8 type  2   force =    -0.00106689   -0.00077127   -0.02447925
     atom    9 type  1   force =    -0.00030037   -0.00023710   -0.00144501
     atom   10 type  1   force =    -0.00020137   -0.00012120   -0.00141510
     atom   11 type  2   force =    -0.00068516   -0.00042303   -0.00193236
     atom   12 type  2   force =    -0.00062945   -0.00051019   -0.00193898

     Total force =     0.062216     Total SCF correction =     0.001454

     Writing output data file ./Ni2Hf2/Ni2Hf2_beef.save/

     General routines

     Parallel routines

   This run was terminated on:   6: 7:39  27Jun2022

   JOB DONE.