     Program PWSCF v.6.6 starts on 27Jun2022 at 14:27:16

     R & G space division:  proc/nbgrp/npool/nimage =      37
     Fft bands division:     nmany     =       1
     Reading input from Ni2Mo2.in
Warning: card &CELL ignored
Warning: card / ignored

     Current dimensions of program PWSCF are:
     Max number of different atomic species (ntypx) = 10
     Max number of k-points (npk) =  40000
     Max angular momentum in pseudopotentials (lmaxx) =  3
     Presently stress not available with electric field and gates

     Message from routine cell_base_init:
     DEPRECATED: use true lattice parameter, not A to a.u. conversion factor
     file Ni.pbe-n-rrkjus_psl.1.0.0.UPF: wavefunction(s)  3D renormalized
     file Mo.pbe-spn-rrkjus_psl.1.0.0.UPF: wavefunction(s)  4S renormalized

     IMPORTANT: XC functional enforced from input :
     Exchange-correlation= BEEF-VDW
                           (   1   4  43  14   2   0   0)
     Any further DFT definition will be discarded
     Please, verify this is what you really want

     Subspace diagonalization in iterative solution of the eigenvalue problem:
     a serial algorithm will be used

     bravais-lattice index     =            0
     lattice parameter (alat)  =       1.8897  a.u.
     unit-cell volume          =    4027.5273 (a.u.)^3
     number of atoms/cell      =           12
     number of atomic types    =            2
     number of electrons       =       144.00
     number of Kohn-Sham states=           86
     kinetic-energy cutoff     =      55.1240  Ry
     charge density cutoff     =     551.2396  Ry
     convergence threshold     =      1.0E-05
     mixing beta               =       0.1000
     number of iterations used =           10  plain     mixing
     Exchange-correlation= BEEF-VDW
                           (   1   4  43  14   2   0   0)

     celldm(1)=   1.889726  celldm(2)=   0.000000  celldm(3)=   0.000000
     celldm(4)=   0.000000  celldm(5)=   0.000000  celldm(6)=   0.000000

     crystal axes: (cart. coord. in units of alat)
               a(1) = (   5.274725   0.000000   0.000000 )
               a(2) = (  -2.637362   4.647955   0.000000 )
               a(3) = (   0.000000   0.000000  24.343344 )

     reciprocal axes: (cart. coord. in units 2 pi/alat)
               b(1) = (  0.189583  0.107574 -0.000000 )
               b(2) = (  0.000000  0.215148  0.000000 )
               b(3) = (  0.000000 -0.000000  0.041079 )

     PseudoPot. # 1 for Ni read from file:
     ../pseudo/Ni.pbe-n-rrkjus_psl.1.0.0.UPF
     MD5 check sum: 9f76af1bddcd5839b31985483df98d0a
     Pseudo is Ultrasoft + core correction, Zval = 10.0
     Generated using "atomic" code by A. Dal Corso v.6.5
     Using radial grid of 1195 points,  6 beta functions with:
                l(1) =   0
                l(2) =   0
                l(3) =   1
                l(4) =   1
                l(5) =   2
                l(6) =   2
     Q(r) pseudized with 0 coefficients

     PseudoPot. # 2 for Mo read from file:
     ../pseudo/Mo.pbe-spn-rrkjus_psl.1.0.0.UPF
     MD5 check sum: 03f09b12e49601d1a456a78ce8b2d514
     Pseudo is Ultrasoft + core correction, Zval = 14.0
     Generated using "atomic" code by A. Dal Corso v.6.3
     Using radial grid of 1229 points,  6 beta functions with:
                l(1) =   0
                l(2) =   0
                l(3) =   1
                l(4) =   1
                l(5) =   2
                l(6) =   2
     Q(r) pseudized with 0 coefficients

     atomic species   valence    mass     pseudopotential
        Ni            10.00    58.69340     Ni( 1.00)
        Mo            14.00    95.95000     Mo( 1.00)

     Starting magnetic structure
     atomic species   magnetization
        Ni           0.500
        Mo           0.000

     No symmetry found

   Cartesian axes

     site n.     atom                  positions (alat units)
         1           Ni  tau(   1) = (   0.0000000   0.0000000  10.0000000  )
         2           Ni  tau(   2) = (   2.6373624   0.0000000  10.0000000  )
         3           Mo  tau(   3) = (   1.3186812   2.3239777  10.0000000  )
         4           Mo  tau(   4) = (  -1.3186812   2.3239777  10.0000000  )
         5           Ni  tau(   5) = (   2.6373624   1.4965033  12.1716718  )
         6           Ni  tau(   6) = (  -0.0000000   1.4965033  12.1716718  )
         7           Mo  tau(   7) = (  -1.3186812   3.8204810  12.1716718  )
         8           Mo  tau(   8) = (   1.3186812   3.8204810  12.1716718  )
         9           Ni  tau(   9) = (  -0.0000003   3.0631858  14.2847815  )
        10           Ni  tau(  10) = (   2.6373624   3.0630082  14.2847075  )
        11           Mo  tau(  11) = (   3.9560576   0.7473354  14.2665926  )
        12           Mo  tau(  12) = (   1.3186671   0.7473355  14.2665927  )

     number of k points=    74  Fermi-Dirac smearing, width (Ry)=  0.0100
                       cart. coord. in units 2pi/alat
        k(    1) = (   0.0000000   0.0000000   0.0000000), wk =   0.0069444
        k(    2) = (   0.0000000   0.0179290   0.0000000), wk =   0.0138889
        k(    3) = (   0.0000000   0.0358581   0.0000000), wk =   0.0138889
        k(    4) = (   0.0000000   0.0537871   0.0000000), wk =   0.0138889
        k(    5) = (   0.0000000   0.0717161   0.0000000), wk =   0.0138889
        k(    6) = (   0.0000000   0.0896452   0.0000000), wk =   0.0138889
        k(    7) = (   0.0000000  -0.1075742   0.0000000), wk =   0.0069444
        k(    8) = (   0.0157986   0.0089645   0.0000000), wk =   0.0138889
        k(    9) = (   0.0157986   0.0268935   0.0000000), wk =   0.0138889
        k(   10) = (   0.0157986   0.0448226   0.0000000), wk =   0.0138889
        k(   11) = (   0.0157986   0.0627516   0.0000000), wk =   0.0138889
        k(   12) = (   0.0157986   0.0806806   0.0000000), wk =   0.0138889
        k(   13) = (   0.0157986   0.0986097   0.0000000), wk =   0.0138889
        k(   14) = (   0.0157986  -0.0986097   0.0000000), wk =   0.0138889
        k(   15) = (   0.0157986  -0.0806806   0.0000000), wk =   0.0138889
        k(   16) = (   0.0157986  -0.0627516   0.0000000), wk =   0.0138889
        k(   17) = (   0.0157986  -0.0448226   0.0000000), wk =   0.0138889
        k(   18) = (   0.0157986  -0.0268935   0.0000000), wk =   0.0138889
        k(   19) = (   0.0157986  -0.0089645   0.0000000), wk =   0.0138889
        k(   20) = (   0.0315972   0.0179290   0.0000000), wk =   0.0138889
        k(   21) = (   0.0315972   0.0358581   0.0000000), wk =   0.0138889
        k(   22) = (   0.0315972   0.0537871   0.0000000), wk =   0.0138889
        k(   23) = (   0.0315972   0.0717161   0.0000000), wk =   0.0138889
        k(   24) = (   0.0315972   0.0896452   0.0000000), wk =   0.0138889
        k(   25) = (   0.0315972   0.1075742   0.0000000), wk =   0.0138889
        k(   26) = (   0.0315972  -0.0896452   0.0000000), wk =   0.0138889
        k(   27) = (   0.0315972  -0.0717161   0.0000000), wk =   0.0138889
        k(   28) = (   0.0315972  -0.0537871   0.0000000), wk =   0.0138889
        k(   29) = (   0.0315972  -0.0358581   0.0000000), wk =   0.0138889
        k(   30) = (   0.0315972  -0.0179290   0.0000000), wk =   0.0138889
        k(   31) = (   0.0315972  -0.0000000   0.0000000), wk =   0.0138889
        k(   32) = (   0.0473958   0.0268935   0.0000000), wk =   0.0138889
        k(   33) = (   0.0473958   0.0448226   0.0000000), wk =   0.0138889
        k(   34) = (   0.0473958   0.0627516   0.0000000), wk =   0.0138889
        k(   35) = (   0.0473958   0.0806806   0.0000000), wk =   0.0138889
        k(   36) = (   0.0473958   0.0986097   0.0000000), wk =   0.0138889
        k(   37) = (   0.0473958   0.1165387   0.0000000), wk =   0.0138889
        k(   38) = (   0.0473958  -0.0806806   0.0000000), wk =   0.0138889
        k(   39) = (   0.0473958  -0.0627516   0.0000000), wk =   0.0138889
        k(   40) = (   0.0473958  -0.0448226   0.0000000), wk =   0.0138889
        k(   41) = (   0.0473958  -0.0268936   0.0000000), wk =   0.0138889
        k(   42) = (   0.0473958  -0.0089645   0.0000000), wk =   0.0138889
        k(   43) = (   0.0473958   0.0089645   0.0000000), wk =   0.0138889
        k(   44) = (   0.0631944   0.0358581   0.0000000), wk =   0.0138889
        k(   45) = (   0.0631944   0.0537871   0.0000000), wk =   0.0138889
        k(   46) = (   0.0631944   0.0717161   0.0000000), wk =   0.0138889
        k(   47) = (   0.0631944   0.0896452   0.0000000), wk =   0.0138889
        k(   48) = (   0.0631944   0.1075742   0.0000000), wk =   0.0138889
        k(   49) = (   0.0631944   0.1255032   0.0000000), wk =   0.0138889
        k(   50) = (   0.0631944  -0.0717161   0.0000000), wk =   0.0138889
        k(   51) = (   0.0631944  -0.0537871   0.0000000), wk =   0.0138889
        k(   52) = (   0.0631944  -0.0358581   0.0000000), wk =   0.0138889
        k(   53) = (   0.0631944  -0.0179290   0.0000000), wk =   0.0138889
        k(   54) = (   0.0631944  -0.0000000   0.0000000), wk =   0.0138889
        k(   55) = (   0.0631944   0.0179290   0.0000000), wk =   0.0138889
        k(   56) = (   0.0789931   0.0448226   0.0000000), wk =   0.0138889
        k(   57) = (   0.0789931   0.0627516   0.0000000), wk =   0.0138889
        k(   58) = (   0.0789931   0.0806806   0.0000000), wk =   0.0138889
        k(   59) = (   0.0789931   0.0986097   0.0000000), wk =   0.0138889
        k(   60) = (   0.0789931   0.1165387   0.0000000), wk =   0.0138889
        k(   61) = (   0.0789931   0.1344677   0.0000000), wk =   0.0138889
        k(   62) = (   0.0789931  -0.0627516   0.0000000), wk =   0.0138889
        k(   63) = (   0.0789931  -0.0448226   0.0000000), wk =   0.0138889
        k(   64) = (   0.0789931  -0.0268936   0.0000000), wk =   0.0138889
        k(   65) = (   0.0789931  -0.0089645   0.0000000), wk =   0.0138889
        k(   66) = (   0.0789931   0.0089645   0.0000000), wk =   0.0138889
        k(   67) = (   0.0789931   0.0268935   0.0000000), wk =   0.0138889
        k(   68) = (  -0.0947917  -0.0537871   0.0000000), wk =   0.0069444
        k(   69) = (  -0.0947917  -0.0358581   0.0000000), wk =   0.0138889
        k(   70) = (  -0.0947917  -0.0179290   0.0000000), wk =   0.0138889
        k(   71) = (  -0.0947917   0.0000000   0.0000000), wk =   0.0138889
        k(   72) = (  -0.0947917   0.0179290   0.0000000), wk =   0.0138889
        k(   73) = (  -0.0947917   0.0358581   0.0000000), wk =   0.0138889
        k(   74) = (  -0.0947917  -0.1613613   0.0000000), wk =   0.0069444

     Initial potential from superposition of free atoms

     starting charge  143.99324, renormalised to  144.00000

     %%%%%%%%%%%%%%%%%%%%%%%%%%%%%%%%%%%%%%%%%%%%%%%%%%%%%%%%%%%%%%%%%%%%%%%%
     %                                                                      %
     % You are using vdW-DF, which was implemented by the Thonhauser group. %
     % Please cite the following two papers that made this development      %
     % possible and the two reviews that describe the various versions:     %
     %                                                                      %
     %   T. Thonhauser et al., PRL 115, 136402 (2015).                      %
     %   T. Thonhauser et al., PRB 76, 125112 (2007).                       %
     %   K. Berland et al., Rep. Prog. Phys. 78, 066501 (2015).             %
     %   D.C. Langreth et al., J. Phys.: Condens. Matter 21, 084203 (2009). %
     %                                                                      %
     %                                                                      %
     % If you are calculating the stress with vdW-DF, please also cite:     %
     %                                                                      %
     %   R. Sabatini et al., J. Phys.: Condens. Matter 24, 424209 (2012).   %
     %                                                                      %
     %%%%%%%%%%%%%%%%%%%%%%%%%%%%%%%%%%%%%%%%%%%%%%%%%%%%%%%%%%%%%%%%%%%%%%%%

     Adding external electric field

     Computed dipole along edir(3) :
        Dipole               -0.0000 Ry au,         -0.0000 Debye
        Dipole field         -0.0000 Ry au,

        Potential amp.        0.0000 Ry
        Total length         44.8522 bohr

[...]

     Starting wfcs are  114 randomized atomic wfcs

     Self-consistent Calculation

     iteration #  1     ecut=    55.12 Ry     beta= 0.10
     Davidson diagonalization with overlap
     ethr =  1.00E-02,  avg # of iterations =  2.0

[...]

     total energy              =   -1450.91672848 Ry
     estimated scf accuracy    <       5.91528652 Ry

     total magnetization       =     7.18 Bohr mag/cell
     absolute magnetization    =     7.26 Bohr mag/cell

[...]

     iteration # 10     ecut=    55.12 Ry     beta= 0.10
     Davidson diagonalization with overlap
     c_bands:  1 eigenvalues not converged
     c_bands:  2 eigenvalues not converged
     c_bands:  2 eigenvalues not converged
     ethr =  4.89E-05,  avg # of iterations =  6.9

[...]

     iteration # 22     ecut=    55.12 Ry     beta= 0.10
     Davidson diagonalization with overlap
     c_bands:  1 eigenvalues not converged
     ethr =  1.37E-08,  avg # of iterations =  4.5

[...]

     total energy              =   -1453.28744844 Ry
     estimated scf accuracy    <       0.00001026 Ry

[...]

     iteration # 24     ecut=    55.12 Ry     beta= 0.10
     Davidson diagonalization with overlap
     ethr =  7.12E-09,  avg # of iterations =  5.3

[...]

     Adding external electric field

     Computed dipole along edir(3) :
        Dipole                0.0109 Ry au,          0.0277 Debye
        Dipole field          0.0000 Ry au,

        Potential amp.       -0.0030 Ry
        Total length         44.8522 bohr

     Magnetic moment per site:
     atom:    1    charge:    8.8772    magn:    0.0076    constr:    0.0000
     atom:    2    charge:    8.8767    magn:    0.0076    constr:    0.0000
     atom:    3    charge:   11.3041    magn:   -0.0027    constr:    0.0000
     atom:    4    charge:   11.3041    magn:   -0.0026    constr:    0.0000
     atom:    5    charge:    9.0069    magn:    0.0010    constr:    0.0000
     atom:    6    charge:    9.0065    magn:    0.0011    constr:    0.0000
     atom:    7    charge:   11.3656    magn:   -0.0009    constr:    0.0000
     atom:    8    charge:   11.3656    magn:   -0.0009    constr:    0.0000
     atom:    9    charge:    8.9024    magn:    0.0026    constr:    0.0000
     atom:   10    charge:    8.9020    magn:    0.0026    constr:    0.0000
     atom:   11    charge:   11.3231    magn:   -0.0025    constr:    0.0000
     atom:   12    charge:   11.3231    magn:   -0.0022    constr:    0.0000

     End of self-consistent calculation

     Number of k-points >= 100: set verbosity='high' to print the bands.

     the Fermi energy is     1.0761 ev

!    total energy              =   -1451.63387888 Ry
     estimated scf accuracy    <       0.00000482 Ry
     smearing contrib. (-TS)   =      -0.06285453 Ry
     internal energy E=F+TS    =   -1451.57102434 Ry

     The total energy is F=E-TS. E is the sum of the following terms:
     one-electron contribution =  -12869.28979156 Ry
     hartree contribution      =    6492.31755730 Ry
     xc contribution           =    -378.91211632 Ry
     ewald contribution        =    5304.31332586 Ry
     electric field correction =       0.00000037 Ry

     total magnetization       =    -0.02 Bohr mag/cell
     absolute magnetization    =     0.07 Bohr mag/cell

     convergence has been achieved in  24 iterations

     Forces acting on atoms (cartesian axes, Ry/au):

     atom    1 type  1   force =     0.00000029   -0.00414538    0.00982016
     atom    2 type  1   force =     0.00000058   -0.00420799    0.00981255
     atom    3 type  2   force =     0.00001787   -0.00405542    0.01165305
     atom    4 type  2   force =    -0.00001691   -0.00405559    0.01165123
     atom    5 type  1   force =     0.00000120    0.00352411   -0.01129140
     atom    6 type  1   force =    -0.00000202    0.00355175   -0.01126094
     atom    7 type  2   force =    -0.00001296    0.00323064   -0.01375650
     atom    8 type  2   force =     0.00001177    0.00322981   -0.01375682
     atom    9 type  1   force =     0.00000017    0.00015339    0.00231301
     atom   10 type  1   force =     0.00000145    0.00024786    0.00233883
     atom   11 type  2   force =    -0.00001325    0.00126262    0.00123770
     atom   12 type  2   force =     0.00001180    0.00126421    0.00123914

     Total force =     0.035042     Total SCF correction =     0.003222

     Writing output data file ./Ni2Mo2/Ni2Mo2_beef.save/

     General routines

     Parallel routines

   This run was terminated on:  15:42:39  27Jun2022

   JOB DONE.