     Program PWSCF v.6.6 starts on 27Jun2022 at 17:30:58

     R & G space division:  proc/nbgrp/npool/nimage =      37
     Fft bands division:     nmany     =       1
     Reading input from Ni2Os2.in
Warning: card &CELL ignored
Warning: card / ignored

     Current dimensions of program PWSCF are:
     Max number of different atomic species (ntypx) = 10
     Max number of k-points (npk) =  40000
     Max angular momentum in pseudopotentials (lmaxx) =  3
     Presently stress not available with electric field and gates

     Message from routine cell_base_init:
     DEPRECATED: use true lattice parameter, not A to a.u. conversion factor
     file Ni.pbe-n-rrkjus_psl.1.0.0.UPF: wavefunction(s)  3D renormalized

     IMPORTANT: XC functional enforced from input :
     Exchange-correlation= BEEF-VDW
                           (   1   4  43  14   2   0   0)
     Any further DFT definition will be discarded
     Please, verify this is what you really want

     Subspace diagonalization in iterative solution of the eigenvalue problem:
     a serial algorithm will be used

     bravais-lattice index     =            0
     lattice parameter (alat)  =       1.8897  a.u.
     unit-cell volume          =    3900.2129 (a.u.)^3
     number of atoms/cell      =           12
     number of atomic types    =            2
     number of electrons       =       156.00
     number of Kohn-Sham states=           94
     kinetic-energy cutoff     =      55.1240  Ry
     charge density cutoff     =     551.2396  Ry
     convergence threshold     =      1.0E-05
     mixing beta               =       0.1000
     number of iterations used =           10  plain     mixing
     Exchange-correlation= BEEF-VDW
                           (   1   4  43  14   2   0   0)

     celldm(1)=   1.889726  celldm(2)=   0.000000  celldm(3)=   0.000000
     celldm(4)=   0.000000  celldm(5)=   0.000000  celldm(6)=   0.000000

     crystal axes: (cart. coord. in units of alat)
               a(1) = (   5.235715   0.000000   0.000000 )
               a(2) = (  -2.617857   4.546285   0.000000 )
               a(3) = (   0.000000   0.000000  24.280585 )

     reciprocal axes: (cart. coord. in units 2 pi/alat)
               b(1) = (  0.190996  0.109980 -0.000000 )
               b(2) = (  0.000000  0.219960  0.000000 )
               b(3) = (  0.000000 -0.000000  0.041185 )

     PseudoPot. # 1 for Ni read from file:
     ../pseudo/Ni.pbe-n-rrkjus_psl.1.0.0.UPF
     MD5 check sum: 9f76af1bddcd5839b31985483df98d0a
     Pseudo is Ultrasoft + core correction, Zval = 10.0
     Generated using "atomic" code by A. Dal Corso v.6.5
     Using radial grid of 1195 points,  6 beta functions with:
                l(1) =   0
                l(2) =   0
                l(3) =   1
                l(4) =   1
                l(5) =   2
                l(6) =   2
     Q(r) pseudized with 0 coefficients

     PseudoPot. # 2 for Os read from file:
     ../pseudo/Os.pbe-spn-rrkjus_psl.1.0.0.UPF
     MD5 check sum: 3e7416ed594f6513d36e5cb31ba709d9
     Pseudo is Ultrasoft + core correction, Zval = 16.0
     Generated using "atomic" code by A. Dal Corso v.6.2.2
     Using radial grid of 1275 points,  6 beta functions with:
                l(1) =   0
                l(2) =   0
                l(3) =   1
                l(4) =   1
                l(5) =   2
                l(6) =   2
     Q(r) pseudized with 0 coefficients

     atomic species   valence    mass     pseudopotential
        Ni            10.00    58.69340     Ni( 1.00)
        Os            16.00   190.23000     Os( 1.00)

     Starting magnetic structure
     atomic species   magnetization
        Ni           0.500
        Os           0.000

     No symmetry found

   Cartesian axes

     site n.     atom                  positions (alat units)
         1           Ni  tau(   1) = (   0.0000000   0.0000000  10.0000000  )
         2           Ni  tau(   2) = (   2.6178575   0.0000000  10.0000000  )
         3           Os  tau(   3) = (   1.3089287   2.2731426  10.0000000  )
         4           Os  tau(   4) = (  -1.3089287   2.2731426  10.0000000  )
         5           Ni  tau(   5) = (   2.6178575   1.5074236  12.1402924  )
         6           Ni  tau(   6) = (  -0.0000000   1.5074236  12.1402924  )
         7           Os  tau(   7) = (  -1.3089287   3.7805662  12.1402924  )
         8           Os  tau(   8) = (   1.3089287   3.7805662  12.1402924  )
         9           Ni  tau(   9) = (   0.0000002   2.9849089  14.2212233  )
        10           Ni  tau(  10) = (   2.6178575   2.9849994  14.2213258  )
        11           Os  tau(  11) = (   3.9267385   0.6889794  14.2197980  )
        12           Os  tau(  12) = (   1.3089760   0.6889793  14.2197980  )

     number of k points=    74  Fermi-Dirac smearing, width (Ry)=  0.0100
                       cart. coord. in units 2pi/alat
        k(    1) = (   0.0000000   0.0000000   0.0000000), wk =   0.0069444
        k(    2) = (   0.0000000   0.0183300   0.0000000), wk =   0.0138889
        k(    3) = (   0.0000000   0.0366600   0.0000000), wk =   0.0138889
        k(    4) = (   0.0000000   0.0549900   0.0000000), wk =   0.0138889
        k(    5) = (   0.0000000   0.0733199   0.0000000), wk =   0.0138889
        k(    6) = (   0.0000000   0.0916499   0.0000000), wk =   0.0138889
        k(    7) = (   0.0000000  -0.1099799   0.0000000), wk =   0.0069444
        k(    8) = (   0.0159163   0.0091650   0.0000000), wk =   0.0138889
        k(    9) = (   0.0159163   0.0274950   0.0000000), wk =   0.0138889
        k(   10) = (   0.0159163   0.0458250   0.0000000), wk =   0.0138889
        k(   11) = (   0.0159163   0.0641549   0.0000000), wk =   0.0138889
        k(   12) = (   0.0159163   0.0824849   0.0000000), wk =   0.0138889
        k(   13) = (   0.0159163   0.1008149   0.0000000), wk =   0.0138889
        k(   14) = (   0.0159163  -0.1008149   0.0000000), wk =   0.0138889
        k(   15) = (   0.0159163  -0.0824849   0.0000000), wk =   0.0138889
        k(   16) = (   0.0159163  -0.0641549   0.0000000), wk =   0.0138889
        k(   17) = (   0.0159163  -0.0458250   0.0000000), wk =   0.0138889
        k(   18) = (   0.0159163  -0.0274950   0.0000000), wk =   0.0138889
        k(   19) = (   0.0159163  -0.0091650   0.0000000), wk =   0.0138889
        k(   20) = (   0.0318326   0.0183300   0.0000000), wk =   0.0138889
        k(   21) = (   0.0318326   0.0366600   0.0000000), wk =   0.0138889
        k(   22) = (   0.0318326   0.0549899   0.0000000), wk =   0.0138889
        k(   23) = (   0.0318326   0.0733199   0.0000000), wk =   0.0138889
        k(   24) = (   0.0318326   0.0916499   0.0000000), wk =   0.0138889
        k(   25) = (   0.0318326   0.1099799   0.0000000), wk =   0.0138889
        k(   26) = (   0.0318326  -0.0916499   0.0000000), wk =   0.0138889
        k(   27) = (   0.0318326  -0.0733199   0.0000000), wk =   0.0138889
        k(   28) = (   0.0318326  -0.0549900   0.0000000), wk =   0.0138889
        k(   29) = (   0.0318326  -0.0366600   0.0000000), wk =   0.0138889
        k(   30) = (   0.0318326  -0.0183300   0.0000000), wk =   0.0138889
        k(   31) = (   0.0318326  -0.0000000   0.0000000), wk =   0.0138889
        k(   32) = (   0.0477490   0.0274950   0.0000000), wk =   0.0138889
        k(   33) = (   0.0477490   0.0458250   0.0000000), wk =   0.0138889
        k(   34) = (   0.0477490   0.0641549   0.0000000), wk =   0.0138889
        k(   35) = (   0.0477490   0.0824849   0.0000000), wk =   0.0138889
        k(   36) = (   0.0477490   0.1008149   0.0000000), wk =   0.0138889
        k(   37) = (   0.0477490   0.1191449   0.0000000), wk =   0.0138889
        k(   38) = (   0.0477490  -0.0824849   0.0000000), wk =   0.0138889
        k(   39) = (   0.0477490  -0.0641550   0.0000000), wk =   0.0138889
        k(   40) = (   0.0477490  -0.0458250   0.0000000), wk =   0.0138889
        k(   41) = (   0.0477490  -0.0274950   0.0000000), wk =   0.0138889
        k(   42) = (   0.0477490  -0.0091650   0.0000000), wk =   0.0138889
        k(   43) = (   0.0477490   0.0091650   0.0000000), wk =   0.0138889
        k(   44) = (   0.0636653   0.0366600   0.0000000), wk =   0.0138889
        k(   45) = (   0.0636653   0.0549899   0.0000000), wk =   0.0138889
        k(   46) = (   0.0636653   0.0733199   0.0000000), wk =   0.0138889
        k(   47) = (   0.0636653   0.0916499   0.0000000), wk =   0.0138889
        k(   48) = (   0.0636653   0.1099799   0.0000000), wk =   0.0138889
        k(   49) = (   0.0636653   0.1283099   0.0000000), wk =   0.0138889
        k(   50) = (   0.0636653  -0.0733199   0.0000000), wk =   0.0138889
        k(   51) = (   0.0636653  -0.0549900   0.0000000), wk =   0.0138889
        k(   52) = (   0.0636653  -0.0366600   0.0000000), wk =   0.0138889
        k(   53) = (   0.0636653  -0.0183300   0.0000000), wk =   0.0138889
        k(   54) = (   0.0636653  -0.0000000   0.0000000), wk =   0.0138889
        k(   55) = (   0.0636653   0.0183300   0.0000000), wk =   0.0138889
        k(   56) = (   0.0795816   0.0458250   0.0000000), wk =   0.0138889
        k(   57) = (   0.0795816   0.0641549   0.0000000), wk =   0.0138889
        k(   58) = (   0.0795816   0.0824849   0.0000000), wk =   0.0138889
        k(   59) = (   0.0795816   0.1008149   0.0000000), wk =   0.0138889
        k(   60) = (   0.0795816   0.1191449   0.0000000), wk =   0.0138889
        k(   61) = (   0.0795816   0.1374749   0.0000000), wk =   0.0138889
        k(   62) = (   0.0795816  -0.0641550   0.0000000), wk =   0.0138889
        k(   63) = (   0.0795816  -0.0458250   0.0000000), wk =   0.0138889
        k(   64) = (   0.0795816  -0.0274950   0.0000000), wk =   0.0138889
        k(   65) = (   0.0795816  -0.0091650   0.0000000), wk =   0.0138889
        k(   66) = (   0.0795816   0.0091650   0.0000000), wk =   0.0138889
        k(   67) = (   0.0795816   0.0274950   0.0000000), wk =   0.0138889
        k(   68) = (  -0.0954979  -0.0549899   0.0000000), wk =   0.0069444
        k(   69) = (  -0.0954979  -0.0366600   0.0000000), wk =   0.0138889
        k(   70) = (  -0.0954979  -0.0183300   0.0000000), wk =   0.0138889
        k(   71) = (  -0.0954979   0.0000000   0.0000000), wk =   0.0138889
        k(   72) = (  -0.0954979   0.0183300   0.0000000), wk =   0.0138889
        k(   73) = (  -0.0954979   0.0366600   0.0000000), wk =   0.0138889
        k(   74) = (  -0.0954979  -0.1649698   0.0000000), wk =   0.0069444

     Initial potential from superposition of free atoms

     starting charge  155.99706, renormalised to  156.00000

     %%%%%%%%%%%%%%%%%%%%%%%%%%%%%%%%%%%%%%%%%%%%%%%%%%%%%%%%%%%%%%%%%%%%%%%%
     %                                                                      %
     % You are using vdW-DF, which was implemented by the Thonhauser group. %
     % Please cite the following two papers that made this development      %
     % possible and the two reviews that describe the various versions:     %
     %                                                                      %
     %   T. Thonhauser et al., PRL 115, 136402 (2015).                      %
     %   T. Thonhauser et al., PRB 76, 125112 (2007).                       %
     %   K. Berland et al., Rep. Prog. Phys. 78, 066501 (2015).             %
     %   D.C. Langreth et al., J. Phys.: Condens. Matter 21, 084203 (2009). %
     %                                                                      %
     %                                                                      %
     % If you are calculating the stress with vdW-DF, please also cite:     %
     %                                                                      %
     %   R. Sabatini et al., J. Phys.: Condens. Matter 24, 424209 (2012).   %
     %                                                                      %
     %%%%%%%%%%%%%%%%%%%%%%%%%%%%%%%%%%%%%%%%%%%%%%%%%%%%%%%%%%%%%%%%%%%%%%%%

     Adding external electric field

     Computed dipole along edir(3) :
        Dipole                0.0000 Ry au,          0.0000 Debye
        Dipole field          0.0000 Ry au,

        Potential amp.       -0.0000 Ry
        Total length         44.7366 bohr

[...]

     Starting wfcs are  114 randomized atomic wfcs

     Self-consistent Calculation

     iteration #  1     ecut=    55.12 Ry     beta= 0.10
     Davidson diagonalization with overlap
     ethr =  1.00E-02,  avg # of iterations =  2.8

[...]

     total energy              =   -1814.03281300 Ry
     estimated scf accuracy    <       4.67930984 Ry

     total magnetization       =     7.28 Bohr mag/cell
     absolute magnetization    =     7.30 Bohr mag/cell

[...]

     iteration # 13     ecut=    55.12 Ry     beta= 0.10
     Davidson diagonalization with overlap
     c_bands:  1 eigenvalues not converged
     c_bands:  1 eigenvalues not converged
     c_bands:  1 eigenvalues not converged
     ethr =  6.49E-06,  avg # of iterations =  4.2

[...]

     total energy              =   -1815.82688193 Ry
     estimated scf accuracy    <       0.00001393 Ry

[...]

     iteration # 27     ecut=    55.12 Ry     beta= 0.10
     Davidson diagonalization with overlap
     ethr =  8.93E-09,  avg # of iterations =  3.2

[...]

     Adding external electric field

     Computed dipole along edir(3) :
        Dipole                0.0048 Ry au,          0.0121 Debye
        Dipole field          0.0000 Ry au,

        Potential amp.       -0.0014 Ry
        Total length         44.7366 bohr

     Magnetic moment per site:
     atom:    1    charge:    8.8070    magn:    0.0139    constr:    0.0000
     atom:    2    charge:    8.8066    magn:    0.0138    constr:    0.0000
     atom:    3    charge:   13.0018    magn:    0.0204    constr:    0.0000
     atom:    4    charge:   13.0018    magn:    0.0204    constr:    0.0000
     atom:    5    charge:    8.9246    magn:    0.0042    constr:    0.0000
     atom:    6    charge:    8.9251    magn:    0.0042    constr:    0.0000
     atom:    7    charge:   13.0359    magn:    0.0050    constr:    0.0000
     atom:    8    charge:   13.0359    magn:    0.0050    constr:    0.0000
     atom:    9    charge:    8.8286    magn:    0.0047    constr:    0.0000
     atom:   10    charge:    8.8284    magn:    0.0047    constr:    0.0000
     atom:   11    charge:   13.0216    magn:    0.0118    constr:    0.0000
     atom:   12    charge:   13.0216    magn:    0.0118    constr:    0.0000

     End of self-consistent calculation

     Number of k-points >= 100: set verbosity='high' to print the bands.

     the Fermi energy is     1.3040 ev

!    total energy              =   -1814.39899545 Ry
     estimated scf accuracy    <       0.00000956 Ry
     smearing contrib. (-TS)   =      -0.07003718 Ry
     internal energy E=F+TS    =   -1814.32895827 Ry

     The total energy is F=E-TS. E is the sum of the following terms:
     one-electron contribution =  -15640.76082420 Ry
     hartree contribution      =    7871.61035353 Ry
     xc contribution           =    -493.99805310 Ry
     ewald contribution        =    6448.81956542 Ry
     electric field correction =       0.00000007 Ry

     total magnetization       =     0.13 Bohr mag/cell
     absolute magnetization    =     0.14 Bohr mag/cell

     convergence has been achieved in  27 iterations

     Forces acting on atoms (cartesian axes, Ry/au):

     atom    1 type  1   force =    -0.00000074   -0.00283256    0.00721075
     atom    2 type  1   force =    -0.00000061   -0.00275412    0.00728464
     atom    3 type  2   force =    -0.00002891    0.01107992    0.01842083
     atom    4 type  2   force =     0.00003045    0.01108254    0.01841824
     atom    5 type  1   force =     0.00000037    0.00180720   -0.01114096
     atom    6 type  1   force =    -0.00000052    0.00180252   -0.01115403
     atom    7 type  2   force =    -0.00000812   -0.00613821   -0.01655485
     atom    8 type  2   force =     0.00001129   -0.00613180   -0.01656211
     atom    9 type  1   force =     0.00000417   -0.00154390    0.00188379
     atom   10 type  1   force =    -0.00000918   -0.00164478    0.00175133
     atom   11 type  2   force =     0.00006214   -0.00235858    0.00021916
     atom   12 type  2   force =    -0.00006033   -0.00236824    0.00022320

     Total force =     0.044119     Total SCF correction =     0.009881
     SCF correction compared to forces is large: reduce conv_thr to get better values

     Writing output data file ./Ni2Os2/Ni2Os2_beef.save/

     General routines

     Parallel routines

   This run was terminated on:  20:31:47  27Jun2022

   JOB DONE.