     Program PWSCF v.6.6 starts on 27Jun2022 at 20:31:59

     R & G space division:  proc/nbgrp/npool/nimage =      37
     Fft bands division:     nmany     =       1
     Reading input from Ni2Pd2.in
Warning: card &CELL ignored
Warning: card / ignored

     Current dimensions of program PWSCF are:
     Max number of different atomic species (ntypx) = 10
     Max number of k-points (npk) =  40000
     Max angular momentum in pseudopotentials (lmaxx) =  3
     Presently stress not available with electric field and gates

     Message from routine cell_base_init:
     DEPRECATED: use true lattice parameter, not A to a.u. conversion factor
     file Ni.pbe-n-rrkjus_psl.1.0.0.UPF: wavefunction(s)  3D renormalized
     file Pd.pbe-n-rrkjus_psl.1.0.0.UPF: wavefunction(s)  4D renormalized

     IMPORTANT: XC functional enforced from input :
     Exchange-correlation= BEEF-VDW
                           (   1   4  43  14   2   0   0)
     Any further DFT definition will be discarded
     Please, verify this is what you really want

     Subspace diagonalization in iterative solution of the eigenvalue problem:
     a serial algorithm will be used

     bravais-lattice index     =            0
     lattice parameter (alat)  =       1.8897  a.u.
     unit-cell volume          =    4095.0517 (a.u.)^3
     number of atoms/cell      =           12
     number of atomic types    =            2
     number of electrons       =       120.00
     number of Kohn-Sham states=           72
     kinetic-energy cutoff     =      55.1240  Ry
     charge density cutoff     =     551.2396  Ry
     convergence threshold     =      1.0E-05
     mixing beta               =       0.1000
     number of iterations used =           10  plain     mixing
     Exchange-correlation= BEEF-VDW
                           (   1   4  43  14   2   0   0)

     celldm(1)=   1.889726  celldm(2)=   0.000000  celldm(3)=   0.000000
     celldm(4)=   0.000000  celldm(5)=   0.000000  celldm(6)=   0.000000

     crystal axes: (cart. coord. in units of alat)
               a(1) = (   5.305451   0.000000   0.000000 )
               a(2) = (   2.474366   4.693114   0.000000 )
               a(3) = (   0.000000   0.000000  24.371343 )

     reciprocal axes: (cart. coord. in units 2 pi/alat)
               b(1) = (  0.188485 -0.099376  0.000000 )
               b(2) = (  0.000000  0.213078  0.000000 )
               b(3) = (  0.000000  0.000000  0.041032 )

     PseudoPot. # 1 for Ni read from file:
     ../pseudo/Ni.pbe-n-rrkjus_psl.1.0.0.UPF
     MD5 check sum: 9f76af1bddcd5839b31985483df98d0a
     Pseudo is Ultrasoft + core correction, Zval = 10.0
     Generated using "atomic" code by A. Dal Corso v.6.5
     Using radial grid of 1195 points,  6 beta functions with:
                l(1) =   0
                l(2) =   0
                l(3) =   1
                l(4) =   1
                l(5) =   2
                l(6) =   2
     Q(r) pseudized with 0 coefficients

     PseudoPot. # 2 for Pd read from file:
     ../pseudo/Pd.pbe-n-rrkjus_psl.1.0.0.UPF
     MD5 check sum: d9f693bf1c5b493397a6bd6f2231cfc3
     Pseudo is Ultrasoft + core correction, Zval = 10.0
     Generated using "atomic" code by A. Dal Corso v.6.3
     Using radial grid of 1235 points,  6 beta functions with:
                l(1) =   0
                l(2) =   0
                l(3) =   1
                l(4) =   1
                l(5) =   2
                l(6) =   2
     Q(r) pseudized with 0 coefficients

     atomic species   valence    mass     pseudopotential
        Ni            10.00    58.69340     Ni( 1.00)
        Pd            10.00   106.42000     Pd( 1.00)

     Starting magnetic structure
     atomic species   magnetization
        Ni           0.500
        Pd           0.000

     No symmetry found

   Cartesian axes

     site n.     atom                  positions (alat units)
         1           Ni  tau(   1) = (   0.0000000   0.0000000  10.0000000  )
         2           Ni  tau(   2) = (   3.8899083   2.3465571  10.0000000  )
         3           Pd  tau(   3) = (   2.6527254   0.0000000  10.0000000  )
         4           Pd  tau(   4) = (   1.2371829   2.3465571  10.0000000  )
         5           Ni  tau(   5) = (   5.3054507   3.2004722  12.1856714  )
         6           Ni  tau(   6) = (   1.4155424   0.8539150  12.1856714  )
         7           Pd  tau(   7) = (   2.6527254   3.2004722  12.1856714  )
         8           Pd  tau(   8) = (   4.0682678   0.8539150  12.1856714  )
         9           Ni  tau(   9) = (   2.8164288   1.6989886  14.2971774  )
        10           Ni  tau(  10) = (   6.7063527   4.0455563  14.2972281  )
        11           Pd  tau(  11) = (   5.5065559   1.7216091  14.3996647  )
        12           Pd  tau(  12) = (   4.0910643   4.0680813  14.3996641  )

     number of k points=    74  Fermi-Dirac smearing, width (Ry)=  0.0100
                       cart. coord. in units 2pi/alat
        k(    1) = (   0.0000000   0.0000000   0.0000000), wk =   0.0069444
        k(    2) = (   0.0000000   0.0177565   0.0000000), wk =   0.0138889
        k(    3) = (   0.0000000   0.0355130   0.0000000), wk =   0.0138889
        k(    4) = (   0.0000000   0.0532695   0.0000000), wk =   0.0138889
        k(    5) = (   0.0000000   0.0710260   0.0000000), wk =   0.0138889
        k(    6) = (   0.0000000   0.0887826   0.0000000), wk =   0.0138889
        k(    7) = (   0.0000000  -0.1065391   0.0000000), wk =   0.0069444
        k(    8) = (   0.0157071  -0.0082813   0.0000000), wk =   0.0138889
        k(    9) = (   0.0157071   0.0094752   0.0000000), wk =   0.0138889
        k(   10) = (   0.0157071   0.0272317   0.0000000), wk =   0.0138889
        k(   11) = (   0.0157071   0.0449882   0.0000000), wk =   0.0138889
        k(   12) = (   0.0157071   0.0627447   0.0000000), wk =   0.0138889
        k(   13) = (   0.0157071   0.0805012   0.0000000), wk =   0.0138889
        k(   14) = (   0.0157071  -0.1148204   0.0000000), wk =   0.0138889
        k(   15) = (   0.0157071  -0.0970639   0.0000000), wk =   0.0138889
        k(   16) = (   0.0157071  -0.0793074   0.0000000), wk =   0.0138889
        k(   17) = (   0.0157071  -0.0615508   0.0000000), wk =   0.0138889
        k(   18) = (   0.0157071  -0.0437943   0.0000000), wk =   0.0138889
        k(   19) = (   0.0157071  -0.0260378   0.0000000), wk =   0.0138889
        k(   20) = (   0.0314142  -0.0165626   0.0000000), wk =   0.0138889
        k(   21) = (   0.0314142   0.0011939   0.0000000), wk =   0.0138889
        k(   22) = (   0.0314142   0.0189504   0.0000000), wk =   0.0138889
        k(   23) = (   0.0314142   0.0367069   0.0000000), wk =   0.0138889
        k(   24) = (   0.0314142   0.0544634   0.0000000), wk =   0.0138889
        k(   25) = (   0.0314142   0.0722199   0.0000000), wk =   0.0138889
        k(   26) = (   0.0314142  -0.1231017   0.0000000), wk =   0.0138889
        k(   27) = (   0.0314142  -0.1053452   0.0000000), wk =   0.0138889
        k(   28) = (   0.0314142  -0.0875887   0.0000000), wk =   0.0138889
        k(   29) = (   0.0314142  -0.0698322   0.0000000), wk =   0.0138889
        k(   30) = (   0.0314142  -0.0520757   0.0000000), wk =   0.0138889
        k(   31) = (   0.0314142  -0.0343191   0.0000000), wk =   0.0138889
        k(   32) = (   0.0471213  -0.0248439   0.0000000), wk =   0.0138889
        k(   33) = (   0.0471213  -0.0070874   0.0000000), wk =   0.0138889
        k(   34) = (   0.0471213   0.0106691   0.0000000), wk =   0.0138889
        k(   35) = (   0.0471213   0.0284256   0.0000000), wk =   0.0138889
        k(   36) = (   0.0471213   0.0461821   0.0000000), wk =   0.0138889
        k(   37) = (   0.0471213   0.0639386   0.0000000), wk =   0.0138889
        k(   38) = (   0.0471213  -0.1313830   0.0000000), wk =   0.0138889
        k(   39) = (   0.0471213  -0.1136265   0.0000000), wk =   0.0138889
        k(   40) = (   0.0471213  -0.0958700   0.0000000), wk =   0.0138889
        k(   41) = (   0.0471213  -0.0781135   0.0000000), wk =   0.0138889
        k(   42) = (   0.0471213  -0.0603570   0.0000000), wk =   0.0138889
        k(   43) = (   0.0471213  -0.0426005   0.0000000), wk =   0.0138889
        k(   44) = (   0.0628285  -0.0331253   0.0000000), wk =   0.0138889
        k(   45) = (   0.0628285  -0.0153687   0.0000000), wk =   0.0138889
        k(   46) = (   0.0628285   0.0023878   0.0000000), wk =   0.0138889
        k(   47) = (   0.0628285   0.0201443   0.0000000), wk =   0.0138889
        k(   48) = (   0.0628285   0.0379008   0.0000000), wk =   0.0138889
        k(   49) = (   0.0628285   0.0556573   0.0000000), wk =   0.0138889
        k(   50) = (   0.0628285  -0.1396643   0.0000000), wk =   0.0138889
        k(   51) = (   0.0628285  -0.1219078   0.0000000), wk =   0.0138889
        k(   52) = (   0.0628285  -0.1041513   0.0000000), wk =   0.0138889
        k(   53) = (   0.0628285  -0.0863948   0.0000000), wk =   0.0138889
        k(   54) = (   0.0628285  -0.0686383   0.0000000), wk =   0.0138889
        k(   55) = (   0.0628285  -0.0508818   0.0000000), wk =   0.0138889
        k(   56) = (   0.0785356  -0.0414066   0.0000000), wk =   0.0138889
        k(   57) = (   0.0785356  -0.0236501   0.0000000), wk =   0.0138889
        k(   58) = (   0.0785356  -0.0058935   0.0000000), wk =   0.0138889
        k(   59) = (   0.0785356   0.0118630   0.0000000), wk =   0.0138889
        k(   60) = (   0.0785356   0.0296195   0.0000000), wk =   0.0138889
        k(   61) = (   0.0785356   0.0473760   0.0000000), wk =   0.0138889
        k(   62) = (   0.0785356  -0.1479456   0.0000000), wk =   0.0138889
        k(   63) = (   0.0785356  -0.1301891   0.0000000), wk =   0.0138889
        k(   64) = (   0.0785356  -0.1124326   0.0000000), wk =   0.0138889
        k(   65) = (   0.0785356  -0.0946761   0.0000000), wk =   0.0138889
        k(   66) = (   0.0785356  -0.0769196   0.0000000), wk =   0.0138889
        k(   67) = (   0.0785356  -0.0591631   0.0000000), wk =   0.0138889
        k(   68) = (  -0.0942427   0.0496879   0.0000000), wk =   0.0069444
        k(   69) = (  -0.0942427   0.0674444   0.0000000), wk =   0.0138889
        k(   70) = (  -0.0942427   0.0852009   0.0000000), wk =   0.0138889
        k(   71) = (  -0.0942427   0.1029574   0.0000000), wk =   0.0138889
        k(   72) = (  -0.0942427   0.1207139   0.0000000), wk =   0.0138889
        k(   73) = (  -0.0942427   0.1384704   0.0000000), wk =   0.0138889
        k(   74) = (  -0.0942427  -0.0568512   0.0000000), wk =   0.0069444

     Initial potential from superposition of free atoms

     starting charge  119.99509, renormalised to  120.00000

     %%%%%%%%%%%%%%%%%%%%%%%%%%%%%%%%%%%%%%%%%%%%%%%%%%%%%%%%%%%%%%%%%%%%%%%%
     %                                                                      %
     % You are using vdW-DF, which was implemented by the Thonhauser group. %
     % Please cite the following two papers that made this development      %
     % possible and the two reviews that describe the various versions:     %
     %                                                                      %
     %   T. Thonhauser et al., PRL 115, 136402 (2015).                      %
     %   T. Thonhauser et al., PRB 76, 125112 (2007).                       %
     %   K. Berland et al., Rep. Prog. Phys. 78, 066501 (2015).             %
     %   D.C. Langreth et al., J. Phys.: Condens. Matter 21, 084203 (2009). %
     %                                                                      %
     %                                                                      %
     % If you are calculating the stress with vdW-DF, please also cite:     %
     %                                                                      %
     %   R. Sabatini et al., J. Phys.: Condens. Matter 24, 424209 (2012).   %
     %                                                                      %
     %%%%%%%%%%%%%%%%%%%%%%%%%%%%%%%%%%%%%%%%%%%%%%%%%%%%%%%%%%%%%%%%%%%%%%%%

     Adding external electric field

     Computed dipole along edir(3) :
        Dipole                0.0001 Ry au,          0.0002 Debye
        Dipole field          0.0000 Ry au,

        Potential amp.       -0.0000 Ry
        Total length         44.9038 bohr

[...]

     Starting wfcs are  108 randomized atomic wfcs

     Self-consistent Calculation

     iteration #  1     ecut=    55.12 Ry     beta= 0.10
     Davidson diagonalization with overlap
     ethr =  1.00E-02,  avg # of iterations =  2.0

[...]

     total energy              =   -1021.04268798 Ry
     estimated scf accuracy    <       9.22911236 Ry

     total magnetization       =     6.19 Bohr mag/cell
     absolute magnetization    =     6.19 Bohr mag/cell

[...]

     iteration # 16     ecut=    55.12 Ry     beta= 0.10
     Davidson diagonalization with overlap
     c_bands:  1 eigenvalues not converged
     ethr =  1.26E-06,  avg # of iterations =  3.1

[...]

     total energy              =   -1025.13706564 Ry
     estimated scf accuracy    <       0.00001234 Ry

[...]

     iteration # 23     ecut=    55.12 Ry     beta= 0.10
     Davidson diagonalization with overlap
     ethr =  1.03E-08,  avg # of iterations =  3.9

[...]

     Adding external electric field

     Computed dipole along edir(3) :
        Dipole               -0.0043 Ry au,         -0.0110 Debye
        Dipole field         -0.0000 Ry au,

        Potential amp.        0.0012 Ry
        Total length         44.9038 bohr

     Magnetic moment per site:
     atom:    1    charge:    8.7398    magn:    0.8440    constr:    0.0000
     atom:    2    charge:    8.7404    magn:    0.8434    constr:    0.0000
     atom:    3    charge:    8.1270    magn:    0.2656    constr:    0.0000
     atom:    4    charge:    8.1270    magn:    0.2656    constr:    0.0000
     atom:    5    charge:    8.7902    magn:    0.8811    constr:    0.0000
     atom:    6    charge:    8.7886    magn:    0.8823    constr:    0.0000
     atom:    7    charge:    8.1510    magn:    0.3273    constr:    0.0000
     atom:    8    charge:    8.1510    magn:    0.3273    constr:    0.0000
     atom:    9    charge:    8.7587    magn:    0.8467    constr:    0.0000
     atom:   10    charge:    8.7570    magn:    0.8478    constr:    0.0000
     atom:   11    charge:    8.1248    magn:    0.2624    constr:    0.0000
     atom:   12    charge:    8.1248    magn:    0.2624    constr:    0.0000

     End of self-consistent calculation

     Number of k-points >= 100: set verbosity='high' to print the bands.

     the Fermi energy is    -0.3310 ev

!    total energy              =   -1022.27490863 Ry
     estimated scf accuracy    <       0.00000788 Ry
     smearing contrib. (-TS)   =      -0.09537188 Ry
     internal energy E=F+TS    =   -1022.17953674 Ry

     The total energy is F=E-TS. E is the sum of the following terms:
     one-electron contribution =   -8647.60049233 Ry
     hartree contribution      =    4427.73950167 Ry
     xc contribution           =    -393.28665750 Ry
     ewald contribution        =    3590.96811137 Ry
     electric field correction =       0.00000006 Ry

     total magnetization       =     6.54 Bohr mag/cell
     absolute magnetization    =     7.31 Bohr mag/cell

     convergence has been achieved in  23 iterations

     Forces acting on atoms (cartesian axes, Ry/au):

     atom    1 type  1   force =     0.00615454    0.00371245    0.01046521
     atom    2 type  1   force =     0.00597867    0.00360653    0.01027944
     atom    3 type  2   force =    -0.00888184   -0.00530748   -0.00755815
     atom    4 type  2   force =    -0.00883754   -0.00537992   -0.00755789
     atom    5 type  1   force =    -0.00136448   -0.00082686    0.00118213
     atom    6 type  1   force =    -0.00163381   -0.00098989    0.00097838
     atom    7 type  2   force =     0.00495498    0.00307804   -0.00509753
     atom    8 type  2   force =     0.00503162    0.00294807   -0.00509789
     atom    9 type  1   force =     0.00009975    0.00006377    0.00044456
     atom   10 type  1   force =     0.00032564    0.00019768    0.00059820
     atom   11 type  2   force =    -0.00087761   -0.00060942    0.00068238
     atom   12 type  2   force =    -0.00094991   -0.00049295    0.00068115

     Total force =     0.027865     Total SCF correction =     0.004735
     SCF correction compared to forces is large: reduce conv_thr to get better values

     Writing output data file ./Ni2Pd2/Ni2Pd2_beef.save/

     General routines

     Parallel routines

   This run was terminated on:  22:17:54  27Jun2022

   JOB DONE.