     Program PWSCF v.6.6 starts on 27Jun2022 at 22:17:57

     R & G space division:  proc/nbgrp/npool/nimage =      37
     Fft bands division:     nmany     =       1
     Reading input from Ni2Pt2.in
Warning: card &CELL ignored
Warning: card / ignored

     Current dimensions of program PWSCF are:
     Max number of different atomic species (ntypx) = 10
     Max number of k-points (npk) =  40000
     Max angular momentum in pseudopotentials (lmaxx) =  3
     Presently stress not available with electric field and gates

     Message from routine cell_base_init:
     DEPRECATED: use true lattice parameter, not A to a.u. conversion factor
     file Ni.pbe-n-rrkjus_psl.1.0.0.UPF: wavefunction(s)  3D renormalized
     file Pt.pbe-n-rrkjus_psl.1.0.0.UPF: wavefunction(s)  6S renormalized

     IMPORTANT: XC functional enforced from input :
     Exchange-correlation= BEEF-VDW
                           (   1   4  43  14   2   0   0)
     Any further DFT definition will be discarded
     Please, verify this is what you really want

     Subspace diagonalization in iterative solution of the eigenvalue problem:
     a serial algorithm will be used

     Found symmetry operation: I + ( -0.5000 -0.5000  0.0000)
     This is a supercell, fractional translations are disabled

     bravais-lattice index     =            0
     lattice parameter (alat)  =       1.8897  a.u.
     unit-cell volume          =    4098.4767 (a.u.)^3
     number of atoms/cell      =           12
     number of atomic types    =            2
     number of electrons       =       120.00
     number of Kohn-Sham states=           72
     kinetic-energy cutoff     =      55.1240  Ry
     charge density cutoff     =     551.2396  Ry
     convergence threshold     =      1.0E-05
     mixing beta               =       0.1000
     number of iterations used =           10  plain     mixing
     Exchange-correlation= BEEF-VDW
                           (   1   4  43  14   2   0   0)

     celldm(1)=   1.889726  celldm(2)=   0.000000  celldm(3)=   0.000000
     celldm(4)=   0.000000  celldm(5)=   0.000000  celldm(6)=   0.000000

     crystal axes: (cart. coord. in units of alat)
               a(1) = (   5.313559   0.000000   0.000000 )
               a(2) = (   2.498898   4.689288   0.000000 )
               a(3) = (   0.000000   0.000000  24.374378 )

     reciprocal axes: (cart. coord. in units 2 pi/alat)
               b(1) = (  0.188198 -0.100290  0.000000 )
               b(2) = (  0.000000  0.213252  0.000000 )
               b(3) = (  0.000000  0.000000  0.041027 )

     PseudoPot. # 1 for Ni read from file:
     ../pseudo/Ni.pbe-n-rrkjus_psl.1.0.0.UPF
     MD5 check sum: 9f76af1bddcd5839b31985483df98d0a
     Pseudo is Ultrasoft + core correction, Zval = 10.0
     Generated using "atomic" code by A. Dal Corso v.6.5
     Using radial grid of 1195 points,  6 beta functions with:
                l(1) =   0
                l(2) =   0
                l(3) =   1
                l(4) =   1
                l(5) =   2
                l(6) =   2
     Q(r) pseudized with 0 coefficients

     PseudoPot. # 2 for Pt read from file:
     ../pseudo/Pt.pbe-n-rrkjus_psl.1.0.0.UPF
     MD5 check sum: 6bc887cfe28d63a5fc1f72d35a7d3ef7
     Pseudo is Ultrasoft + core correction, Zval = 10.0
     Generated using "atomic" code by A. Dal Corso v.6.3
     Using radial grid of 1277 points,  6 beta functions with:
                l(1) =   0
                l(2) =   0
                l(3) =   1
                l(4) =   1
                l(5) =   2
                l(6) =   2
     Q(r) pseudized with 0 coefficients

     atomic species   valence    mass     pseudopotential
        Ni            10.00    58.69340     Ni( 1.00)
        Pt            10.00   195.08400     Pt( 1.00)

     Starting magnetic structure
     atomic species   magnetization
        Ni           0.500
        Pt           0.000

     No symmetry found

   Cartesian axes

     site n.     atom                  positions (alat units)
         1           Ni  tau(   1) = (   0.0000000   0.0000000  10.0000000  )
         2           Ni  tau(   2) = (   3.9062289   2.3446440  10.0000000  )
         3           Pt  tau(   3) = (   2.6567797   0.0000000  10.0000000  )
         4           Pt  tau(   4) = (   1.2494491   2.3446440  10.0000000  )
         5           Ni  tau(   5) = (   5.3135595   3.1893690  12.1871889  )
         6           Ni  tau(   6) = (   1.4073306   0.8447250  12.1871889  )
         7           Pt  tau(   7) = (   2.6567797   3.1893690  12.1871889  )
         8           Pt  tau(   8) = (   4.0641104   0.8447250  12.1871889  )
         9           Ni  tau(   9) = (   2.7980536   1.6794818  14.3530740  )
        10           Ni  tau(  10) = (   6.7042097   4.0240823  14.3530644  )
        11           Pt  tau(  11) = (   5.4909302   1.7011383  14.3703136  )
        12           Pt  tau(  12) = (   4.0835909   4.0457967  14.3703133  )

     number of k points=    74  Fermi-Dirac smearing, width (Ry)=  0.0100
                       cart. coord. in units 2pi/alat
        k(    1) = (   0.0000000   0.0000000   0.0000000), wk =   0.0069444
        k(    2) = (   0.0000000   0.0177710   0.0000000), wk =   0.0138889
        k(    3) = (   0.0000000   0.0355420   0.0000000), wk =   0.0138889
        k(    4) = (   0.0000000   0.0533130   0.0000000), wk =   0.0138889
        k(    5) = (   0.0000000   0.0710840   0.0000000), wk =   0.0138889
        k(    6) = (   0.0000000   0.0888550   0.0000000), wk =   0.0138889
        k(    7) = (   0.0000000  -0.1066260   0.0000000), wk =   0.0069444
        k(    8) = (   0.0156831  -0.0083575   0.0000000), wk =   0.0138889
        k(    9) = (   0.0156831   0.0094135   0.0000000), wk =   0.0138889
        k(   10) = (   0.0156831   0.0271845   0.0000000), wk =   0.0138889
        k(   11) = (   0.0156831   0.0449555   0.0000000), wk =   0.0138889
        k(   12) = (   0.0156831   0.0627265   0.0000000), wk =   0.0138889
        k(   13) = (   0.0156831   0.0804975   0.0000000), wk =   0.0138889
        k(   14) = (   0.0156831  -0.1149835   0.0000000), wk =   0.0138889
        k(   15) = (   0.0156831  -0.0972125   0.0000000), wk =   0.0138889
        k(   16) = (   0.0156831  -0.0794415   0.0000000), wk =   0.0138889
        k(   17) = (   0.0156831  -0.0616705   0.0000000), wk =   0.0138889
        k(   18) = (   0.0156831  -0.0438995   0.0000000), wk =   0.0138889
        k(   19) = (   0.0156831  -0.0261285   0.0000000), wk =   0.0138889
        k(   20) = (   0.0313663  -0.0167149   0.0000000), wk =   0.0138889
        k(   21) = (   0.0313663   0.0010561   0.0000000), wk =   0.0138889
        k(   22) = (   0.0313663   0.0188271   0.0000000), wk =   0.0138889
        k(   23) = (   0.0313663   0.0365981   0.0000000), wk =   0.0138889
        k(   24) = (   0.0313663   0.0543691   0.0000000), wk =   0.0138889
        k(   25) = (   0.0313663   0.0721401   0.0000000), wk =   0.0138889
        k(   26) = (   0.0313663  -0.1233409   0.0000000), wk =   0.0138889
        k(   27) = (   0.0313663  -0.1055699   0.0000000), wk =   0.0138889
        k(   28) = (   0.0313663  -0.0877989   0.0000000), wk =   0.0138889
        k(   29) = (   0.0313663  -0.0700279   0.0000000), wk =   0.0138889
        k(   30) = (   0.0313663  -0.0522569   0.0000000), wk =   0.0138889
        k(   31) = (   0.0313663  -0.0344859   0.0000000), wk =   0.0138889
        k(   32) = (   0.0470494  -0.0250724   0.0000000), wk =   0.0138889
        k(   33) = (   0.0470494  -0.0073014   0.0000000), wk =   0.0138889
        k(   34) = (   0.0470494   0.0104696   0.0000000), wk =   0.0138889
        k(   35) = (   0.0470494   0.0282406   0.0000000), wk =   0.0138889
        k(   36) = (   0.0470494   0.0460116   0.0000000), wk =   0.0138889
        k(   37) = (   0.0470494   0.0637826   0.0000000), wk =   0.0138889
        k(   38) = (   0.0470494  -0.1316984   0.0000000), wk =   0.0138889
        k(   39) = (   0.0470494  -0.1139274   0.0000000), wk =   0.0138889
        k(   40) = (   0.0470494  -0.0961564   0.0000000), wk =   0.0138889
        k(   41) = (   0.0470494  -0.0783854   0.0000000), wk =   0.0138889
        k(   42) = (   0.0470494  -0.0606144   0.0000000), wk =   0.0138889
        k(   43) = (   0.0470494  -0.0428434   0.0000000), wk =   0.0138889
        k(   44) = (   0.0627326  -0.0334299   0.0000000), wk =   0.0138889
        k(   45) = (   0.0627326  -0.0156589   0.0000000), wk =   0.0138889
        k(   46) = (   0.0627326   0.0021121   0.0000000), wk =   0.0138889
        k(   47) = (   0.0627326   0.0198831   0.0000000), wk =   0.0138889
        k(   48) = (   0.0627326   0.0376541   0.0000000), wk =   0.0138889
        k(   49) = (   0.0627326   0.0554251   0.0000000), wk =   0.0138889
        k(   50) = (   0.0627326  -0.1400559   0.0000000), wk =   0.0138889
        k(   51) = (   0.0627326  -0.1222849   0.0000000), wk =   0.0138889
        k(   52) = (   0.0627326  -0.1045139   0.0000000), wk =   0.0138889
        k(   53) = (   0.0627326  -0.0867429   0.0000000), wk =   0.0138889
        k(   54) = (   0.0627326  -0.0689719   0.0000000), wk =   0.0138889
        k(   55) = (   0.0627326  -0.0512009   0.0000000), wk =   0.0138889
        k(   56) = (   0.0784157  -0.0417874   0.0000000), wk =   0.0138889
        k(   57) = (   0.0784157  -0.0240164   0.0000000), wk =   0.0138889
        k(   58) = (   0.0784157  -0.0062454   0.0000000), wk =   0.0138889
        k(   59) = (   0.0784157   0.0115256   0.0000000), wk =   0.0138889
        k(   60) = (   0.0784157   0.0292966   0.0000000), wk =   0.0138889
        k(   61) = (   0.0784157   0.0470676   0.0000000), wk =   0.0138889
        k(   62) = (   0.0784157  -0.1484133   0.0000000), wk =   0.0138889
        k(   63) = (   0.0784157  -0.1306424   0.0000000), wk =   0.0138889
        k(   64) = (   0.0784157  -0.1128714   0.0000000), wk =   0.0138889
        k(   65) = (   0.0784157  -0.0951004   0.0000000), wk =   0.0138889
        k(   66) = (   0.0784157  -0.0773294   0.0000000), wk =   0.0138889
        k(   67) = (   0.0784157  -0.0595584   0.0000000), wk =   0.0138889
        k(   68) = (  -0.0940989   0.0501448   0.0000000), wk =   0.0069444
        k(   69) = (  -0.0940989   0.0679158   0.0000000), wk =   0.0138889
        k(   70) = (  -0.0940989   0.0856868   0.0000000), wk =   0.0138889
        k(   71) = (  -0.0940989   0.1034578   0.0000000), wk =   0.0138889
        k(   72) = (  -0.0940989   0.1212288   0.0000000), wk =   0.0138889
        k(   73) = (  -0.0940989   0.1389998   0.0000000), wk =   0.0138889
        k(   74) = (  -0.0940989  -0.0564812   0.0000000), wk =   0.0069444

     Initial potential from superposition of free atoms

     starting charge  119.99750, renormalised to  120.00000

     %%%%%%%%%%%%%%%%%%%%%%%%%%%%%%%%%%%%%%%%%%%%%%%%%%%%%%%%%%%%%%%%%%%%%%%%
     %                                                                      %
     % You are using vdW-DF, which was implemented by the Thonhauser group. %
     % Please cite the following two papers that made this development      %
     % possible and the two reviews that describe the various versions:     %
     %                                                                      %
     %   T. Thonhauser et al., PRL 115, 136402 (2015).                      %
     %   T. Thonhauser et al., PRB 76, 125112 (2007).                       %
     %   K. Berland et al., Rep. Prog. Phys. 78, 066501 (2015).             %
     %   D.C. Langreth et al., J. Phys.: Condens. Matter 21, 084203 (2009). %
     %                                                                      %
     %                                                                      %
     % If you are calculating the stress with vdW-DF, please also cite:     %
     %                                                                      %
     %   R. Sabatini et al., J. Phys.: Condens. Matter 24, 424209 (2012).   %
     %                                                                      %
     %%%%%%%%%%%%%%%%%%%%%%%%%%%%%%%%%%%%%%%%%%%%%%%%%%%%%%%%%%%%%%%%%%%%%%%%

     Adding external electric field

     Computed dipole along edir(3) :
        Dipole               -0.0000 Ry au,         -0.0000 Debye
        Dipole field         -0.0000 Ry au,

        Potential amp.        0.0000 Ry
        Total length         44.9094 bohr

[...]

     Starting wfcs are  108 randomized atomic wfcs

     Self-consistent Calculation

     iteration #  1     ecut=    55.12 Ry     beta= 0.10
     Davidson diagonalization with overlap
     ethr =  1.00E-02,  avg # of iterations =  2.1

[...]

     total energy              =   -1006.84356783 Ry
     estimated scf accuracy    <      11.58406796 Ry

     total magnetization       =     5.65 Bohr mag/cell
     absolute magnetization    =     5.65 Bohr mag/cell

[...]

     iteration # 10     ecut=    55.12 Ry     beta= 0.10
     Davidson diagonalization with overlap
     c_bands:  1 eigenvalues not converged
     ethr =  2.32E-05,  avg # of iterations =  4.8

[...]

     total energy              =   -1009.22649252 Ry
     estimated scf accuracy    <       0.00001988 Ry

[...]

     iteration # 26     ecut=    55.12 Ry     beta= 0.10
     Davidson diagonalization with overlap
     ethr =  1.36E-08,  avg # of iterations =  2.0

[...]

     Adding external electric field

     Computed dipole along edir(3) :
        Dipole               -0.0087 Ry au,         -0.0221 Debye
        Dipole field         -0.0000 Ry au,

        Potential amp.        0.0024 Ry
        Total length         44.9094 bohr

     Magnetic moment per site:
     atom:    1    charge:    8.8125    magn:    0.7474    constr:    0.0000
     atom:    2    charge:    8.8119    magn:    0.7477    constr:    0.0000
     atom:    3    charge:    7.6271    magn:    0.2907    constr:    0.0000
     atom:    4    charge:    7.6271    magn:    0.2907    constr:    0.0000
     atom:    5    charge:    8.8880    magn:    0.8338    constr:    0.0000
     atom:    6    charge:    8.8876    magn:    0.8339    constr:    0.0000
     atom:    7    charge:    7.6551    magn:    0.3687    constr:    0.0000
     atom:    8    charge:    7.6551    magn:    0.3687    constr:    0.0000
     atom:    9    charge:    8.8190    magn:    0.7480    constr:    0.0000
     atom:   10    charge:    8.8192    magn:    0.7477    constr:    0.0000
     atom:   11    charge:    7.6282    magn:    0.2939    constr:    0.0000
     atom:   12    charge:    7.6282    magn:    0.2939    constr:    0.0000

     End of self-consistent calculation

     Number of k-points >= 100: set verbosity='high' to print the bands.

     the Fermi energy is    -0.0469 ev

!    total energy              =   -1008.14300116 Ry
     estimated scf accuracy    <       0.00000423 Ry
     smearing contrib. (-TS)   =      -0.09328027 Ry
     internal energy E=F+TS    =   -1008.04972090 Ry

     The total energy is F=E-TS. E is the sum of the following terms:
     one-electron contribution =   -8564.50878151 Ry
     hartree contribution      =    4382.39910107 Ry
     xc contribution           =    -406.88855017 Ry
     ewald contribution        =    3580.94850948 Ry
     electric field correction =       0.00000023 Ry

     total magnetization       =     6.36 Bohr mag/cell
     absolute magnetization    =     6.99 Bohr mag/cell

     convergence has been achieved in  26 iterations

     Forces acting on atoms (cartesian axes, Ry/au):

     atom    1 type  1   force =     0.00834095    0.00500305    0.00436163
     atom    2 type  1   force =     0.00827551    0.00497285    0.00438065
     atom    3 type  2   force =    -0.01029247   -0.00614924   -0.00282821
     atom    4 type  2   force =    -0.01026567   -0.00619231   -0.00282848
     atom    5 type  1   force =    -0.00037680   -0.00022565   -0.00240523
     atom    6 type  1   force =    -0.00027832   -0.00016349   -0.00232945
     atom    7 type  2   force =     0.00169674    0.00091630   -0.00052231
     atom    8 type  2   force =     0.00160127    0.00106996   -0.00052232
     atom    9 type  1   force =    -0.00022473   -0.00013848   -0.00156090
     atom   10 type  1   force =    -0.00016172   -0.00009800   -0.00154278
     atom   11 type  2   force =     0.00085382    0.00048291    0.00289814
     atom   12 type  2   force =     0.00083141    0.00052209    0.00289926

     Total force =     0.023930     Total SCF correction =     0.005948
     SCF correction compared to forces is large: reduce conv_thr to get better values

     Writing output data file ./Ni2Pt2/Ni2Pt2_beef.save/

     General routines

     Parallel routines

   This run was terminated on:   0:39:10  28Jun2022

   JOB DONE.