     Program PWSCF v.6.6 starts on 28Jun2022 at  0:39:27

     R & G space division:  proc/nbgrp/npool/nimage =      37
     Fft bands division:     nmany     =       1
     Reading input from Ni2Re2.in
Warning: card &CELL ignored
Warning: card / ignored

     Current dimensions of program PWSCF are:
     Max number of different atomic species (ntypx) = 10
     Max number of k-points (npk) =  40000
     Max angular momentum in pseudopotentials (lmaxx) =  3
     Presently stress not available with electric field and gates

     Message from routine cell_base_init:
     DEPRECATED: use true lattice parameter, not A to a.u. conversion factor
     file Ni.pbe-n-rrkjus_psl.1.0.0.UPF: wavefunction(s)  3D renormalized

     IMPORTANT: XC functional enforced from input :
     Exchange-correlation= BEEF-VDW
                           (   1   4  43  14   2   0   0)
     Any further DFT definition will be discarded
     Please, verify this is what you really want

     Subspace diagonalization in iterative solution of the eigenvalue problem:
     a serial algorithm will be used

     bravais-lattice index     =            0
     lattice parameter (alat)  =       1.8897  a.u.
     unit-cell volume          =    3965.0832 (a.u.)^3
     number of atoms/cell      =           12
     number of atomic types    =            2
     number of electrons       =       150.00
     number of Kohn-Sham states=           90
     kinetic-energy cutoff     =      55.1240  Ry
     charge density cutoff     =     551.2396  Ry
     convergence threshold     =      1.0E-05
     mixing beta               =       0.1000
     number of iterations used =           10  plain     mixing
     Exchange-correlation= BEEF-VDW
                           (   1   4  43  14   2   0   0)

     celldm(1)=   1.889726  celldm(2)=   0.000000  celldm(3)=   0.000000
     celldm(4)=   0.000000  celldm(5)=   0.000000  celldm(6)=   0.000000

     crystal axes: (cart. coord. in units of alat)
               a(1) = (   5.235734   0.000000   0.000000 )
               a(2) = (  -2.617867   4.615866   0.000000 )
               a(3) = (   0.000000   0.000000  24.312243 )

     reciprocal axes: (cart. coord. in units 2 pi/alat)
               b(1) = (  0.190995  0.108322 -0.000000 )
               b(2) = (  0.000000  0.216644  0.000000 )
               b(3) = (  0.000000 -0.000000  0.041132 )

     PseudoPot. # 1 for Ni read from file:
     ../pseudo/Ni.pbe-n-rrkjus_psl.1.0.0.UPF
     MD5 check sum: 9f76af1bddcd5839b31985483df98d0a
     Pseudo is Ultrasoft + core correction, Zval = 10.0
     Generated using "atomic" code by A. Dal Corso v.6.5
     Using radial grid of 1195 points,  6 beta functions with:
                l(1) =   0
                l(2) =   0
                l(3) =   1
                l(4) =   1
                l(5) =   2
                l(6) =   2
     Q(r) pseudized with 0 coefficients

     PseudoPot. # 2 for Re read from file:
     ../pseudo/Re.pbe-spn-rrkjus_psl.1.0.0.UPF
     MD5 check sum: 1282f1ec51ad523723a04c61ae80a9e6
     Pseudo is Ultrasoft + core correction, Zval = 15.0
     Generated using "atomic" code by A. Dal Corso v.6.2.2
     Using radial grid of 1275 points,  6 beta functions with:
                l(1) =   0
                l(2) =   0
                l(3) =   1
                l(4) =   1
                l(5) =   2
                l(6) =   2
     Q(r) pseudized with 0 coefficients

     atomic species   valence    mass     pseudopotential
        Ni            10.00    58.69340     Ni( 1.00)
        Re            15.00   186.20700     Re( 1.00)

     Starting magnetic structure
     atomic species   magnetization
        Ni           0.500
        Re           0.000

     No symmetry found

   Cartesian axes

     site n.     atom                  positions (alat units)
         1           Ni  tau(   1) = (   0.0000000   0.0000000  10.0000000  )
         2           Ni  tau(   2) = (   2.6178670   0.0000000  10.0000000  )
         3           Re  tau(   3) = (   1.3089335   2.3079331  10.0000000  )
         4           Re  tau(   4) = (  -1.3089335   2.3079331  10.0000000  )
         5           Ni  tau(   5) = (   2.6178670   1.4847111  12.1561217  )
         6           Ni  tau(   6) = (  -0.0000000   1.4847111  12.1561217  )
         7           Re  tau(   7) = (  -1.3089335   3.7926441  12.1561217  )
         8           Re  tau(   8) = (   1.3089335   3.7926441  12.1561217  )
         9           Ni  tau(   9) = (   0.0000005   2.9854872  14.2539157  )
        10           Ni  tau(  10) = (   2.6178677   2.9853720  14.2538167  )
        11           Re  tau(  11) = (   3.9268422   0.6616891  14.2404661  )
        12           Re  tau(  12) = (   1.3088910   0.6616894  14.2404659  )

     number of k points=    74  Fermi-Dirac smearing, width (Ry)=  0.0100
                       cart. coord. in units 2pi/alat
        k(    1) = (   0.0000000   0.0000000   0.0000000), wk =   0.0069444
        k(    2) = (   0.0000000   0.0180537   0.0000000), wk =   0.0138889
        k(    3) = (   0.0000000   0.0361073   0.0000000), wk =   0.0138889
        k(    4) = (   0.0000000   0.0541610   0.0000000), wk =   0.0138889
        k(    5) = (   0.0000000   0.0722147   0.0000000), wk =   0.0138889
        k(    6) = (   0.0000000   0.0902684   0.0000000), wk =   0.0138889
        k(    7) = (   0.0000000  -0.1083220   0.0000000), wk =   0.0069444
        k(    8) = (   0.0159163   0.0090268   0.0000000), wk =   0.0138889
        k(    9) = (   0.0159163   0.0270805   0.0000000), wk =   0.0138889
        k(   10) = (   0.0159163   0.0451342   0.0000000), wk =   0.0138889
        k(   11) = (   0.0159163   0.0631879   0.0000000), wk =   0.0138889
        k(   12) = (   0.0159163   0.0812415   0.0000000), wk =   0.0138889
        k(   13) = (   0.0159163   0.0992952   0.0000000), wk =   0.0138889
        k(   14) = (   0.0159163  -0.0992952   0.0000000), wk =   0.0138889
        k(   15) = (   0.0159163  -0.0812415   0.0000000), wk =   0.0138889
        k(   16) = (   0.0159163  -0.0631879   0.0000000), wk =   0.0138889
        k(   17) = (   0.0159163  -0.0451342   0.0000000), wk =   0.0138889
        k(   18) = (   0.0159163  -0.0270805   0.0000000), wk =   0.0138889
        k(   19) = (   0.0159163  -0.0090268   0.0000000), wk =   0.0138889
        k(   20) = (   0.0318325   0.0180537   0.0000000), wk =   0.0138889
        k(   21) = (   0.0318325   0.0361073   0.0000000), wk =   0.0138889
        k(   22) = (   0.0318325   0.0541610   0.0000000), wk =   0.0138889
        k(   23) = (   0.0318325   0.0722147   0.0000000), wk =   0.0138889
        k(   24) = (   0.0318325   0.0902684   0.0000000), wk =   0.0138889
        k(   25) = (   0.0318325   0.1083220   0.0000000), wk =   0.0138889
        k(   26) = (   0.0318325  -0.0902684   0.0000000), wk =   0.0138889
        k(   27) = (   0.0318325  -0.0722147   0.0000000), wk =   0.0138889
        k(   28) = (   0.0318325  -0.0541610   0.0000000), wk =   0.0138889
        k(   29) = (   0.0318325  -0.0361073   0.0000000), wk =   0.0138889
        k(   30) = (   0.0318325  -0.0180537   0.0000000), wk =   0.0138889
        k(   31) = (   0.0318325  -0.0000000   0.0000000), wk =   0.0138889
        k(   32) = (   0.0477488   0.0270805   0.0000000), wk =   0.0138889
        k(   33) = (   0.0477488   0.0451342   0.0000000), wk =   0.0138889
        k(   34) = (   0.0477488   0.0631879   0.0000000), wk =   0.0138889
        k(   35) = (   0.0477488   0.0812415   0.0000000), wk =   0.0138889
        k(   36) = (   0.0477488   0.0992952   0.0000000), wk =   0.0138889
        k(   37) = (   0.0477488   0.1173489   0.0000000), wk =   0.0138889
        k(   38) = (   0.0477488  -0.0812415   0.0000000), wk =   0.0138889
        k(   39) = (   0.0477488  -0.0631879   0.0000000), wk =   0.0138889
        k(   40) = (   0.0477488  -0.0451342   0.0000000), wk =   0.0138889
        k(   41) = (   0.0477488  -0.0270805   0.0000000), wk =   0.0138889
        k(   42) = (   0.0477488  -0.0090268   0.0000000), wk =   0.0138889
        k(   43) = (   0.0477488   0.0090268   0.0000000), wk =   0.0138889
        k(   44) = (   0.0636651   0.0361073   0.0000000), wk =   0.0138889
        k(   45) = (   0.0636651   0.0541610   0.0000000), wk =   0.0138889
        k(   46) = (   0.0636651   0.0722147   0.0000000), wk =   0.0138889
        k(   47) = (   0.0636651   0.0902684   0.0000000), wk =   0.0138889
        k(   48) = (   0.0636651   0.1083220   0.0000000), wk =   0.0138889
        k(   49) = (   0.0636651   0.1263757   0.0000000), wk =   0.0138889
        k(   50) = (   0.0636651  -0.0722147   0.0000000), wk =   0.0138889
        k(   51) = (   0.0636651  -0.0541610   0.0000000), wk =   0.0138889
        k(   52) = (   0.0636651  -0.0361073   0.0000000), wk =   0.0138889
        k(   53) = (   0.0636651  -0.0180537   0.0000000), wk =   0.0138889
        k(   54) = (   0.0636651   0.0000000   0.0000000), wk =   0.0138889
        k(   55) = (   0.0636651   0.0180537   0.0000000), wk =   0.0138889
        k(   56) = (   0.0795813   0.0451342   0.0000000), wk =   0.0138889
        k(   57) = (   0.0795813   0.0631879   0.0000000), wk =   0.0138889
        k(   58) = (   0.0795813   0.0812415   0.0000000), wk =   0.0138889
        k(   59) = (   0.0795813   0.0992952   0.0000000), wk =   0.0138889
        k(   60) = (   0.0795813   0.1173489   0.0000000), wk =   0.0138889
        k(   61) = (   0.0795813   0.1354025   0.0000000), wk =   0.0138889
        k(   62) = (   0.0795813  -0.0631879   0.0000000), wk =   0.0138889
        k(   63) = (   0.0795813  -0.0451342   0.0000000), wk =   0.0138889
        k(   64) = (   0.0795813  -0.0270805   0.0000000), wk =   0.0138889
        k(   65) = (   0.0795813  -0.0090268   0.0000000), wk =   0.0138889
        k(   66) = (   0.0795813   0.0090268   0.0000000), wk =   0.0138889
        k(   67) = (   0.0795813   0.0270805   0.0000000), wk =   0.0138889
        k(   68) = (  -0.0954976  -0.0541610   0.0000000), wk =   0.0069444
        k(   69) = (  -0.0954976  -0.0361073   0.0000000), wk =   0.0138889
        k(   70) = (  -0.0954976  -0.0180537   0.0000000), wk =   0.0138889
        k(   71) = (  -0.0954976   0.0000000   0.0000000), wk =   0.0138889
        k(   72) = (  -0.0954976   0.0180537   0.0000000), wk =   0.0138889
        k(   73) = (  -0.0954976   0.0361073   0.0000000), wk =   0.0138889
        k(   74) = (  -0.0954976  -0.1624831   0.0000000), wk =   0.0069444

     Initial potential from superposition of free atoms

     starting charge  149.99672, renormalised to  150.00000

     %%%%%%%%%%%%%%%%%%%%%%%%%%%%%%%%%%%%%%%%%%%%%%%%%%%%%%%%%%%%%%%%%%%%%%%%
     %                                                                      %
     % You are using vdW-DF, which was implemented by the Thonhauser group. %
     % Please cite the following two papers that made this development      %
     % possible and the two reviews that describe the various versions:     %
     %                                                                      %
     %   T. Thonhauser et al., PRL 115, 136402 (2015).                      %
     %   T. Thonhauser et al., PRB 76, 125112 (2007).                       %
     %   K. Berland et al., Rep. Prog. Phys. 78, 066501 (2015).             %
     %   D.C. Langreth et al., J. Phys.: Condens. Matter 21, 084203 (2009). %
     %                                                                      %
     %                                                                      %
     % If you are calculating the stress with vdW-DF, please also cite:     %
     %                                                                      %
     %   R. Sabatini et al., J. Phys.: Condens. Matter 24, 424209 (2012).   %
     %                                                                      %
     %%%%%%%%%%%%%%%%%%%%%%%%%%%%%%%%%%%%%%%%%%%%%%%%%%%%%%%%%%%%%%%%%%%%%%%%

     Adding external electric field

     Computed dipole along edir(3) :
        Dipole                0.0000 Ry au,          0.0000 Debye
        Dipole field          0.0000 Ry au,

        Potential amp.       -0.0000 Ry
        Total length         44.7949 bohr

[...]

     Starting wfcs are  114 randomized atomic wfcs

     Self-consistent Calculation

     iteration #  1     ecut=    55.12 Ry     beta= 0.10
     Davidson diagonalization with overlap
     ethr =  1.00E-02,  avg # of iterations =  2.3

[...]

     total energy              =   -1685.91897933 Ry
     estimated scf accuracy    <       6.11448808 Ry

     total magnetization       =     6.38 Bohr mag/cell
     absolute magnetization    =     6.40 Bohr mag/cell

[...]

     iteration # 13     ecut=    55.12 Ry     beta= 0.10
     Davidson diagonalization with overlap
     c_bands:  1 eigenvalues not converged
     c_bands:  1 eigenvalues not converged
     c_bands:  1 eigenvalues not converged
     ethr =  3.78E-06,  avg # of iterations =  7.7

[...]

     iteration # 20     ecut=    55.12 Ry     beta= 0.10
     Davidson diagonalization with overlap
     c_bands:  1 eigenvalues not converged
     ethr =  1.10E-07,  avg # of iterations =  5.7

[...]

     total energy              =   -1687.75145932 Ry
     estimated scf accuracy    <       0.00001138 Ry

[...]

     iteration # 28     ecut=    55.12 Ry     beta= 0.10
     Davidson diagonalization with overlap
     ethr =  7.59E-09,  avg # of iterations =  5.0

[...]

     Adding external electric field

     Computed dipole along edir(3) :
        Dipole                0.0112 Ry au,          0.0286 Debye
        Dipole field          0.0000 Ry au,

        Potential amp.       -0.0032 Ry
        Total length         44.7949 bohr

     Magnetic moment per site:
     atom:    1    charge:    8.8685    magn:    0.0141    constr:    0.0000
     atom:    2    charge:    8.8692    magn:    0.0141    constr:    0.0000
     atom:    3    charge:   11.9525    magn:    0.0402    constr:    0.0000
     atom:    4    charge:   11.9525    magn:    0.0401    constr:    0.0000
     atom:    5    charge:    9.0065    magn:    0.0035    constr:    0.0000
     atom:    6    charge:    9.0064    magn:    0.0035    constr:    0.0000
     atom:    7    charge:   12.0042    magn:   -0.0057    constr:    0.0000
     atom:    8    charge:   12.0042    magn:   -0.0057    constr:    0.0000
     atom:    9    charge:    8.8924    magn:    0.0070    constr:    0.0000
     atom:   10    charge:    8.8926    magn:    0.0070    constr:    0.0000
     atom:   11    charge:   11.9761    magn:    0.0294    constr:    0.0000
     atom:   12    charge:   11.9761    magn:    0.0294    constr:    0.0000

     End of self-consistent calculation

     Number of k-points >= 100: set verbosity='high' to print the bands.

     the Fermi energy is     1.2387 ev

!    total energy              =   -1686.53398714 Ry
     estimated scf accuracy    <       0.00000786 Ry
     smearing contrib. (-TS)   =      -0.06929488 Ry
     internal energy E=F+TS    =   -1686.46469226 Ry

     The total energy is F=E-TS. E is the sum of the following terms:
     one-electron contribution =  -14183.45298176 Ry
     hartree contribution      =    7143.28062614 Ry
     xc contribution           =    -503.63961840 Ry
     ewald contribution        =    5857.34728135 Ry
     electric field correction =       0.00000040 Ry

     total magnetization       =     0.21 Bohr mag/cell
     absolute magnetization    =     0.25 Bohr mag/cell

     convergence has been achieved in  28 iterations

     Forces acting on atoms (cartesian axes, Ry/au):

     atom    1 type  1   force =    -0.00000046   -0.00687578    0.01017766
     atom    2 type  1   force =    -0.00000173   -0.00685113    0.01016395
     atom    3 type  2   force =    -0.00000377    0.00402093    0.01825970
     atom    4 type  2   force =     0.00000216    0.00402128    0.01825779
     atom    5 type  1   force =    -0.00000464    0.00310766   -0.01025869
     atom    6 type  1   force =     0.00000581    0.00306786   -0.01029571
     atom    7 type  2   force =     0.00002898   -0.00394578   -0.01709198
     atom    8 type  2   force =    -0.00002875   -0.00394157   -0.01709083
     atom    9 type  1   force =    -0.00000018    0.00251346   -0.00073167
     atom   10 type  1   force =     0.00000063    0.00252420   -0.00070970
     atom   11 type  2   force =     0.00000562    0.00118059   -0.00034012
     atom   12 type  2   force =    -0.00000368    0.00117828   -0.00034041

     Total force =     0.043158     Total SCF correction =     0.006635
     SCF correction compared to forces is large: reduce conv_thr to get better values

     Writing output data file ./Ni2Re2/Ni2Re2_beef.save/

     General routines

     Parallel routines

   This run was terminated on:   4:10:36  28Jun2022

   JOB DONE.