     Program PWSCF v.6.6 starts on 28Jun2022 at 17:50:11

     R & G space division:  proc/nbgrp/npool/nimage =      37
     Fft bands division:     nmany     =       1
     Reading input from Ni2W2.in
Warning: card &CELL ignored
Warning: card / ignored

     Current dimensions of program PWSCF are:
     Max number of different atomic species (ntypx) = 10
     Max number of k-points (npk) =  40000
     Max angular momentum in pseudopotentials (lmaxx) =  3
     Presently stress not available with electric field and gates

     Message from routine cell_base_init:
     DEPRECATED: use true lattice parameter, not A to a.u. conversion factor
     Message from routine emend_upf/check:
     BEWARE !!! Possible out of bounds while fixing pseudo
     Message from routine emend_upf/check:
     BEWARE !!! Possible out of bounds while fixing pseudo
     Message from routine read_upf:
     Pseudo file W.pbe-spn-rrkjus_psl.0.2.3.UPF has been fixed on the fly.
     To avoid this message in the future, permanently fix
     your pseudo files following these instructions:
     file Ni.pbe-n-rrkjus_psl.1.0.0.UPF: wavefunction(s)  3D renormalized

     IMPORTANT: XC functional enforced from input :
     Exchange-correlation= BEEF-VDW
                           (   1   4  43  14   2   0   0)
     Any further DFT definition will be discarded
     Please, verify this is what you really want

     Subspace diagonalization in iterative solution of the eigenvalue problem:
     a serial algorithm will be used

     bravais-lattice index     =            0
     lattice parameter (alat)  =       1.8897  a.u.
     unit-cell volume          =    4065.8573 (a.u.)^3
     number of atoms/cell      =           12
     number of atomic types    =            2
     number of electrons       =       144.00
     number of Kohn-Sham states=           86
     kinetic-energy cutoff     =      55.1240  Ry
     charge density cutoff     =     551.2396  Ry
     convergence threshold     =      1.0E-05
     mixing beta               =       0.1000
     number of iterations used =           10  plain     mixing
     Exchange-correlation= BEEF-VDW
                           (   1   4  43  14   2   0   0)

     celldm(1)=   1.889726  celldm(2)=   0.000000  celldm(3)=   0.000000
     celldm(4)=   0.000000  celldm(5)=   0.000000  celldm(6)=   0.000000

     crystal axes: (cart. coord. in units of alat)
               a(1) = (   5.340788   0.000000   0.000000 )
               a(2) = (   2.661495   4.630385   0.000000 )
               a(3) = (   0.000000   0.000000  24.363135 )

     reciprocal axes: (cart. coord. in units 2 pi/alat)
               b(1) = (  0.187238 -0.107623  0.000000 )
               b(2) = (  0.000000  0.215965  0.000000 )
               b(3) = (  0.000000  0.000000  0.041046 )

     PseudoPot. # 1 for Ni read from file:
     ../pseudo/Ni.pbe-n-rrkjus_psl.1.0.0.UPF
     MD5 check sum: 9f76af1bddcd5839b31985483df98d0a
     Pseudo is Ultrasoft + core correction, Zval = 10.0
     Generated using "atomic" code by A. Dal Corso v.6.5
     Using radial grid of 1195 points,  6 beta functions with:
                l(1) =   0
                l(2) =   0
                l(3) =   1
                l(4) =   1
                l(5) =   2
                l(6) =   2
     Q(r) pseudized with 0 coefficients

     PseudoPot. # 2 for W  read from file:
     ../pseudo/W.pbe-spn-rrkjus_psl.0.2.3.UPF
     MD5 check sum: 25b665cf2bbae626ad8d9f1bc024df95
     Pseudo is Ultrasoft + core correction, Zval = 14.0
     Generated using "atomic" code by A. Dal Corso v.5.0.2 svn rev. 10551
     Using radial grid of 1273 points,  6 beta functions with:
                l(1) =   0
                l(2) =   0
                l(3) =   1
                l(4) =   1
                l(5) =   2
                l(6) =   2
     Q(r) pseudized with 0 coefficients

     atomic species   valence    mass     pseudopotential
        Ni            10.00    58.69340     Ni( 1.00)
        W             14.00   183.84000     W ( 1.00)

     Starting magnetic structure
     atomic species   magnetization
        Ni           0.500
        W            0.000

     No symmetry found

   Cartesian axes

     site n.     atom                  positions (alat units)
         1           Ni  tau(   1) = (   0.0000000   0.0000000  10.0000000  )
         2           Ni  tau(   2) = (   4.0011416   2.3151926  10.0000000  )
         3           W   tau(   3) = (   2.6703942   0.0000000  10.0000000  )
         4           W   tau(   4) = (   1.3307474   2.3151926  10.0000000  )
         5           Ni  tau(   5) = (   5.3407884   3.0903564  12.1815677  )
         6           Ni  tau(   6) = (   1.3396468   0.7751638  12.1815677  )
         7           W   tau(   7) = (   2.6703942   3.0903564  12.1815677  )
         8           W   tau(   8) = (   4.0100410   0.7751638  12.1815677  )
         9           Ni  tau(   9) = (   2.7050446   1.5652276  14.3163419  )
        10           Ni  tau(  10) = (   6.7062661   3.8804669  14.3164556  )
        11           W   tau(  11) = (   5.3783828   1.5669631  14.2827507  )
        12           W   tau(  12) = (   4.0387640   3.8821084  14.2827505  )

     number of k points=    74  Fermi-Dirac smearing, width (Ry)=  0.0100
                       cart. coord. in units 2pi/alat
        k(    1) = (   0.0000000   0.0000000   0.0000000), wk =   0.0069444
        k(    2) = (   0.0000000   0.0179971   0.0000000), wk =   0.0138889
        k(    3) = (   0.0000000   0.0359941   0.0000000), wk =   0.0138889
        k(    4) = (   0.0000000   0.0539912   0.0000000), wk =   0.0138889
        k(    5) = (   0.0000000   0.0719883   0.0000000), wk =   0.0138889
        k(    6) = (   0.0000000   0.0899853   0.0000000), wk =   0.0138889
        k(    7) = (   0.0000000  -0.1079824   0.0000000), wk =   0.0069444
        k(    8) = (   0.0156032  -0.0089685   0.0000000), wk =   0.0138889
        k(    9) = (   0.0156032   0.0090285   0.0000000), wk =   0.0138889
        k(   10) = (   0.0156032   0.0270256   0.0000000), wk =   0.0138889
        k(   11) = (   0.0156032   0.0450226   0.0000000), wk =   0.0138889
        k(   12) = (   0.0156032   0.0630197   0.0000000), wk =   0.0138889
        k(   13) = (   0.0156032   0.0810168   0.0000000), wk =   0.0138889
        k(   14) = (   0.0156032  -0.1169509   0.0000000), wk =   0.0138889
        k(   15) = (   0.0156032  -0.0989539   0.0000000), wk =   0.0138889
        k(   16) = (   0.0156032  -0.0809568   0.0000000), wk =   0.0138889
        k(   17) = (   0.0156032  -0.0629597   0.0000000), wk =   0.0138889
        k(   18) = (   0.0156032  -0.0449627   0.0000000), wk =   0.0138889
        k(   19) = (   0.0156032  -0.0269656   0.0000000), wk =   0.0138889
        k(   20) = (   0.0312064  -0.0179371   0.0000000), wk =   0.0138889
        k(   21) = (   0.0312064   0.0000600   0.0000000), wk =   0.0138889
        k(   22) = (   0.0312064   0.0180570   0.0000000), wk =   0.0138889
        k(   23) = (   0.0312064   0.0360541   0.0000000), wk =   0.0138889
        k(   24) = (   0.0312064   0.0540512   0.0000000), wk =   0.0138889
        k(   25) = (   0.0312064   0.0720482   0.0000000), wk =   0.0138889
        k(   26) = (   0.0312064  -0.1259195   0.0000000), wk =   0.0138889
        k(   27) = (   0.0312064  -0.1079224   0.0000000), wk =   0.0138889
        k(   28) = (   0.0312064  -0.0899253   0.0000000), wk =   0.0138889
        k(   29) = (   0.0312064  -0.0719283   0.0000000), wk =   0.0138889
        k(   30) = (   0.0312064  -0.0539312   0.0000000), wk =   0.0138889
        k(   31) = (   0.0312064  -0.0359342   0.0000000), wk =   0.0138889
        k(   32) = (   0.0468096  -0.0269056   0.0000000), wk =   0.0138889
        k(   33) = (   0.0468096  -0.0089086   0.0000000), wk =   0.0138889
        k(   34) = (   0.0468096   0.0090885   0.0000000), wk =   0.0138889
        k(   35) = (   0.0468096   0.0270856   0.0000000), wk =   0.0138889
        k(   36) = (   0.0468096   0.0450826   0.0000000), wk =   0.0138889
        k(   37) = (   0.0468096   0.0630797   0.0000000), wk =   0.0138889
        k(   38) = (   0.0468096  -0.1348880   0.0000000), wk =   0.0138889
        k(   39) = (   0.0468096  -0.1168910   0.0000000), wk =   0.0138889
        k(   40) = (   0.0468096  -0.0988939   0.0000000), wk =   0.0138889
        k(   41) = (   0.0468096  -0.0808968   0.0000000), wk =   0.0138889
        k(   42) = (   0.0468096  -0.0628998   0.0000000), wk =   0.0138889
        k(   43) = (   0.0468096  -0.0449027   0.0000000), wk =   0.0138889
        k(   44) = (   0.0624128  -0.0358742   0.0000000), wk =   0.0138889
        k(   45) = (   0.0624128  -0.0178771   0.0000000), wk =   0.0138889
        k(   46) = (   0.0624128   0.0001199   0.0000000), wk =   0.0138889
        k(   47) = (   0.0624128   0.0181170   0.0000000), wk =   0.0138889
        k(   48) = (   0.0624128   0.0361141   0.0000000), wk =   0.0138889
        k(   49) = (   0.0624128   0.0541111   0.0000000), wk =   0.0138889
        k(   50) = (   0.0624128  -0.1438566   0.0000000), wk =   0.0138889
        k(   51) = (   0.0624128  -0.1258595   0.0000000), wk =   0.0138889
        k(   52) = (   0.0624128  -0.1078624   0.0000000), wk =   0.0138889
        k(   53) = (   0.0624128  -0.0898654   0.0000000), wk =   0.0138889
        k(   54) = (   0.0624128  -0.0718683   0.0000000), wk =   0.0138889
        k(   55) = (   0.0624128  -0.0538712   0.0000000), wk =   0.0138889
        k(   56) = (   0.0780160  -0.0448427   0.0000000), wk =   0.0138889
        k(   57) = (   0.0780160  -0.0268457   0.0000000), wk =   0.0138889
        k(   58) = (   0.0780160  -0.0088486   0.0000000), wk =   0.0138889
        k(   59) = (   0.0780160   0.0091485   0.0000000), wk =   0.0138889
        k(   60) = (   0.0780160   0.0271455   0.0000000), wk =   0.0138889
        k(   61) = (   0.0780160   0.0451426   0.0000000), wk =   0.0138889
        k(   62) = (   0.0780160  -0.1528251   0.0000000), wk =   0.0138889
        k(   63) = (   0.0780160  -0.1348280   0.0000000), wk =   0.0138889
        k(   64) = (   0.0780160  -0.1168310   0.0000000), wk =   0.0138889
        k(   65) = (   0.0780160  -0.0988339   0.0000000), wk =   0.0138889
        k(   66) = (   0.0780160  -0.0808368   0.0000000), wk =   0.0138889
        k(   67) = (   0.0780160  -0.0628398   0.0000000), wk =   0.0138889
        k(   68) = (  -0.0936191   0.0538113   0.0000000), wk =   0.0069444
        k(   69) = (  -0.0936191   0.0718083   0.0000000), wk =   0.0138889
        k(   70) = (  -0.0936191   0.0898054   0.0000000), wk =   0.0138889
        k(   71) = (  -0.0936191   0.1078025   0.0000000), wk =   0.0138889
        k(   72) = (  -0.0936191   0.1257995   0.0000000), wk =   0.0138889
        k(   73) = (  -0.0936191   0.1437966   0.0000000), wk =   0.0138889
        k(   74) = (  -0.0936191  -0.0541711   0.0000000), wk =   0.0069444

     Initial potential from superposition of free atoms

     starting charge  143.99518, renormalised to  144.00000

     %%%%%%%%%%%%%%%%%%%%%%%%%%%%%%%%%%%%%%%%%%%%%%%%%%%%%%%%%%%%%%%%%%%%%%%%
     %                                                                      %
     % You are using vdW-DF, which was implemented by the Thonhauser group. %
     % Please cite the following two papers that made this development      %
     % possible and the two reviews that describe the various versions:     %
     %                                                                      %
     %   T. Thonhauser et al., PRL 115, 136402 (2015).                      %
     %   T. Thonhauser et al., PRB 76, 125112 (2007).                       %
     %   K. Berland et al., Rep. Prog. Phys. 78, 066501 (2015).             %
     %   D.C. Langreth et al., J. Phys.: Condens. Matter 21, 084203 (2009). %
     %                                                                      %
     %                                                                      %
     % If you are calculating the stress with vdW-DF, please also cite:     %
     %                                                                      %
     %   R. Sabatini et al., J. Phys.: Condens. Matter 24, 424209 (2012).   %
     %                                                                      %
     %%%%%%%%%%%%%%%%%%%%%%%%%%%%%%%%%%%%%%%%%%%%%%%%%%%%%%%%%%%%%%%%%%%%%%%%

     Adding external electric field

     Computed dipole along edir(3) :
        Dipole               -0.0000 Ry au,         -0.0000 Debye
        Dipole field         -0.0000 Ry au,

        Potential amp.        0.0000 Ry
        Total length         44.8887 bohr

[...]

     Starting wfcs are  132 randomized atomic wfcs

     Self-consistent Calculation

     iteration #  1     ecut=    55.12 Ry     beta= 0.10
     Davidson diagonalization with overlap
     ethr =  1.00E-02,  avg # of iterations =  2.0

[...]

     total energy              =   -1565.09121476 Ry
     estimated scf accuracy    <       8.04754251 Ry

     total magnetization       =     5.16 Bohr mag/cell
     absolute magnetization    =     5.27 Bohr mag/cell

[...]

     iteration # 10     ecut=    55.12 Ry     beta= 0.10
     Davidson diagonalization with overlap
     c_bands:  2 eigenvalues not converged
     ethr =  4.37E-05,  avg # of iterations =  4.2

[...]

     iteration # 16     ecut=    55.12 Ry     beta= 0.10
     Davidson diagonalization with overlap
     c_bands:  1 eigenvalues not converged
     ethr =  1.67E-06,  avg # of iterations =  2.2

[...]

     total energy              =   -1568.10684117 Ry
     estimated scf accuracy    <       0.00001184 Ry

[...]

     iteration # 23     ecut=    55.12 Ry     beta= 0.10
     Davidson diagonalization with overlap
     ethr =  8.22E-09,  avg # of iterations =  3.8

[...]

     Adding external electric field

     Computed dipole along edir(3) :
        Dipole                0.0041 Ry au,          0.0104 Debye
        Dipole field          0.0000 Ry au,

        Potential amp.       -0.0011 Ry
        Total length         44.8887 bohr

     Magnetic moment per site:
     atom:    1    charge:    8.9171    magn:    0.0094    constr:    0.0000
     atom:    2    charge:    8.9171    magn:    0.0094    constr:    0.0000
     atom:    3    charge:   10.9759    magn:   -0.0059    constr:    0.0000
     atom:    4    charge:   10.9759    magn:   -0.0059    constr:    0.0000
     atom:    5    charge:    9.0632    magn:    0.0022    constr:    0.0000
     atom:    6    charge:    9.0632    magn:    0.0022    constr:    0.0000
     atom:    7    charge:   11.0555    magn:    0.0002    constr:    0.0000
     atom:    8    charge:   11.0555    magn:    0.0002    constr:    0.0000
     atom:    9    charge:    8.9367    magn:    0.0073    constr:    0.0000
     atom:   10    charge:    8.9366    magn:    0.0073    constr:    0.0000
     atom:   11    charge:   11.0016    magn:   -0.0058    constr:    0.0000
     atom:   12    charge:   11.0016    magn:   -0.0057    constr:    0.0000

     End of self-consistent calculation

     Number of k-points >= 100: set verbosity='high' to print the bands.

     the Fermi energy is     1.2074 ev

!    total energy              =   -1565.84512116 Ry
     estimated scf accuracy    <       0.00000828 Ry
     smearing contrib. (-TS)   =      -0.05233309 Ry
     internal energy E=F+TS    =   -1565.79278807 Ry

     The total energy is F=E-TS. E is the sum of the following terms:
     one-electron contribution =  -12704.18958867 Ry
     hartree contribution      =    6404.31234305 Ry
     xc contribution           =    -505.86769888 Ry
     ewald contribution        =    5239.95215637 Ry
     electric field correction =       0.00000005 Ry

     total magnetization       =    -0.03 Bohr mag/cell
     absolute magnetization    =     0.12 Bohr mag/cell

     convergence has been achieved in  23 iterations

     Forces acting on atoms (cartesian axes, Ry/au):

     atom    1 type  1   force =    -0.00210212   -0.00122338    0.00766907
     atom    2 type  1   force =    -0.00208682   -0.00120761    0.00768881
     atom    3 type  2   force =    -0.00025750   -0.00012994    0.02076869
     atom    4 type  2   force =    -0.00024614   -0.00016014    0.02077228
     atom    5 type  1   force =     0.00222601    0.00129152   -0.01215239
     atom    6 type  1   force =     0.00215518    0.00124324   -0.01222054
     atom    7 type  2   force =    -0.00121873   -0.00074399   -0.01631030
     atom    8 type  2   force =    -0.00124934   -0.00068123   -0.01631351
     atom    9 type  1   force =    -0.00000962   -0.00000852    0.00027325
     atom   10 type  1   force =    -0.00003610   -0.00001501    0.00015590
     atom   11 type  2   force =     0.00141627    0.00081118   -0.00016818
     atom   12 type  2   force =     0.00140891    0.00082387   -0.00016310

     Total force =     0.042944     Total SCF correction =     0.003049

     Writing output data file ./Ni2W2/Ni2W2_beef.save/

     General routines

     Parallel routines

   This run was terminated on:  20:22:31  28Jun2022

   JOB DONE.