     Program PWSCF v.6.6 starts on 28Jun2022 at 20:23:39

     R & G space division:  proc/nbgrp/npool/nimage =      37
     Fft bands division:     nmany     =       1
     Reading input from Ni2Y2.in
Warning: card &CELL ignored
Warning: card / ignored

     Current dimensions of program PWSCF are:
     Max number of different atomic species (ntypx) = 10
     Max number of k-points (npk) =  40000
     Max angular momentum in pseudopotentials (lmaxx) =  3
     Presently stress not available with electric field and gates

     Message from routine cell_base_init:
     DEPRECATED: use true lattice parameter, not A to a.u. conversion factor
     file Ni.pbe-n-rrkjus_psl.1.0.0.UPF: wavefunction(s)  3D renormalized
     file Y.pbe-spn-rrkjus_psl.1.0.0.UPF: wavefunction(s)  4S renormalized

     IMPORTANT: XC functional enforced from input :
     Exchange-correlation= BEEF-VDW
                           (   1   4  43  14   2   0   0)
     Any further DFT definition will be discarded
     Please, verify this is what you really want

     Subspace diagonalization in iterative solution of the eigenvalue problem:
     a serial algorithm will be used

     bravais-lattice index     =            0
     lattice parameter (alat)  =       1.8897  a.u.
     unit-cell volume          =    5472.0470 (a.u.)^3
     number of atoms/cell      =           12
     number of atomic types    =            2
     number of electrons       =       126.00
     number of Kohn-Sham states=           76
     kinetic-energy cutoff     =      55.1240  Ry
     charge density cutoff     =     551.2396  Ry
     convergence threshold     =      1.0E-05
     mixing beta               =       0.1000
     number of iterations used =           10  plain     mixing
     Exchange-correlation= BEEF-VDW
                           (   1   4  43  14   2   0   0)

     celldm(1)=   1.889726  celldm(2)=   0.000000  celldm(3)=   0.000000
     celldm(4)=   0.000000  celldm(5)=   0.000000  celldm(6)=   0.000000

     crystal axes: (cart. coord. in units of alat)
               a(1) = (   5.892307   0.000000   0.000000 )
               a(2) = (   1.994288   5.544556   0.000000 )
               a(3) = (   0.000000   0.000000  24.819965 )

     reciprocal axes: (cart. coord. in units 2 pi/alat)
               b(1) = (  0.169713 -0.061043  0.000000 )
               b(2) = (  0.000000  0.180357  0.000000 )
               b(3) = (  0.000000  0.000000  0.040290 )

     PseudoPot. # 1 for Ni read from file:
     ../pseudo/Ni.pbe-n-rrkjus_psl.1.0.0.UPF
     MD5 check sum: 9f76af1bddcd5839b31985483df98d0a
     Pseudo is Ultrasoft + core correction, Zval = 10.0
     Generated using "atomic" code by A. Dal Corso v.6.5
     Using radial grid of 1195 points,  6 beta functions with:
                l(1) =   0
                l(2) =   0
                l(3) =   1
                l(4) =   1
                l(5) =   2
                l(6) =   2
     Q(r) pseudized with 0 coefficients

     PseudoPot. # 2 for Y  read from file:
     ../pseudo/Y.pbe-spn-rrkjus_psl.1.0.0.UPF
     MD5 check sum: 5fe32e6a006803c2ec2edff47948a3c8
     Pseudo is Ultrasoft + core correction, Zval = 11.0
     Generated using "atomic" code by A. Dal Corso v.6.2.2
     Using radial grid of 1223 points,  6 beta functions with:
                l(1) =   0
                l(2) =   0
                l(3) =   1
                l(4) =   1
                l(5) =   2
                l(6) =   2
     Q(r) pseudized with 0 coefficients

     atomic species   valence    mass     pseudopotential
        Ni            10.00    58.69340     Ni( 1.00)
        Y             11.00    88.90584     Y ( 1.00)

     Starting magnetic structure
     atomic species   magnetization
        Ni           0.500
        Y            0.000

     No symmetry found

   Cartesian axes

     site n.     atom                  positions (alat units)
         1           Ni  tau(   1) = (   0.0000000   0.0000000  10.0000000  )
         2           Ni  tau(   2) = (   3.9432979   2.7722780  10.0000000  )
         3           Y   tau(   3) = (   2.9461537   0.0000000  10.0000000  )
         4           Y   tau(   4) = (   0.9971442   2.7722780  10.0000000  )
         5           Ni  tau(   5) = (   5.8923074   4.1425007  12.4099824  )
         6           Ni  tau(   6) = (   1.9490095   1.3702227  12.4099824  )
         7           Y   tau(   7) = (   2.9461537   4.1425007  12.4099824  )
         8           Y   tau(   8) = (   4.8951633   1.3702227  12.4099824  )
         9           Ni  tau(   9) = (   3.9089589   2.7482230  14.5799654  )
        10           Ni  tau(  10) = (   7.8523553   5.5203977  14.5799364  )
        11           Y   tau(  11) = (   6.8594431   2.7511582  14.8197234  )
        12           Y   tau(  12) = (   4.9104538   5.5234945  14.8197215  )

     number of k points=    74  Fermi-Dirac smearing, width (Ry)=  0.0100
                       cart. coord. in units 2pi/alat
        k(    1) = (   0.0000000   0.0000000   0.0000000), wk =   0.0069444
        k(    2) = (   0.0000000   0.0150298   0.0000000), wk =   0.0138889
        k(    3) = (   0.0000000   0.0300595   0.0000000), wk =   0.0138889
        k(    4) = (   0.0000000   0.0450893   0.0000000), wk =   0.0138889
        k(    5) = (   0.0000000   0.0601190   0.0000000), wk =   0.0138889
        k(    6) = (   0.0000000   0.0751488   0.0000000), wk =   0.0138889
        k(    7) = (   0.0000000  -0.0901785   0.0000000), wk =   0.0069444
        k(    8) = (   0.0141427  -0.0050869   0.0000000), wk =   0.0138889
        k(    9) = (   0.0141427   0.0099428   0.0000000), wk =   0.0138889
        k(   10) = (   0.0141427   0.0249726   0.0000000), wk =   0.0138889
        k(   11) = (   0.0141427   0.0400024   0.0000000), wk =   0.0138889
        k(   12) = (   0.0141427   0.0550321   0.0000000), wk =   0.0138889
        k(   13) = (   0.0141427   0.0700619   0.0000000), wk =   0.0138889
        k(   14) = (   0.0141427  -0.0952655   0.0000000), wk =   0.0138889
        k(   15) = (   0.0141427  -0.0802357   0.0000000), wk =   0.0138889
        k(   16) = (   0.0141427  -0.0652059   0.0000000), wk =   0.0138889
        k(   17) = (   0.0141427  -0.0501762   0.0000000), wk =   0.0138889
        k(   18) = (   0.0141427  -0.0351464   0.0000000), wk =   0.0138889
        k(   19) = (   0.0141427  -0.0201167   0.0000000), wk =   0.0138889
        k(   20) = (   0.0282855  -0.0101738   0.0000000), wk =   0.0138889
        k(   21) = (   0.0282855   0.0048559   0.0000000), wk =   0.0138889
        k(   22) = (   0.0282855   0.0198857   0.0000000), wk =   0.0138889
        k(   23) = (   0.0282855   0.0349154   0.0000000), wk =   0.0138889
        k(   24) = (   0.0282855   0.0499452   0.0000000), wk =   0.0138889
        k(   25) = (   0.0282855   0.0649750   0.0000000), wk =   0.0138889
        k(   26) = (   0.0282855  -0.1003524   0.0000000), wk =   0.0138889
        k(   27) = (   0.0282855  -0.0853226   0.0000000), wk =   0.0138889
        k(   28) = (   0.0282855  -0.0702929   0.0000000), wk =   0.0138889
        k(   29) = (   0.0282855  -0.0552631   0.0000000), wk =   0.0138889
        k(   30) = (   0.0282855  -0.0402333   0.0000000), wk =   0.0138889
        k(   31) = (   0.0282855  -0.0252036   0.0000000), wk =   0.0138889
        k(   32) = (   0.0424282  -0.0152607   0.0000000), wk =   0.0138889
        k(   33) = (   0.0424282  -0.0002310   0.0000000), wk =   0.0138889
        k(   34) = (   0.0424282   0.0147988   0.0000000), wk =   0.0138889
        k(   35) = (   0.0424282   0.0298285   0.0000000), wk =   0.0138889
        k(   36) = (   0.0424282   0.0448583   0.0000000), wk =   0.0138889
        k(   37) = (   0.0424282   0.0598880   0.0000000), wk =   0.0138889
        k(   38) = (   0.0424282  -0.1054393   0.0000000), wk =   0.0138889
        k(   39) = (   0.0424282  -0.0904095   0.0000000), wk =   0.0138889
        k(   40) = (   0.0424282  -0.0753798   0.0000000), wk =   0.0138889
        k(   41) = (   0.0424282  -0.0603500   0.0000000), wk =   0.0138889
        k(   42) = (   0.0424282  -0.0453203   0.0000000), wk =   0.0138889
        k(   43) = (   0.0424282  -0.0302905   0.0000000), wk =   0.0138889
        k(   44) = (   0.0565709  -0.0203477   0.0000000), wk =   0.0138889
        k(   45) = (   0.0565709  -0.0053179   0.0000000), wk =   0.0138889
        k(   46) = (   0.0565709   0.0097119   0.0000000), wk =   0.0138889
        k(   47) = (   0.0565709   0.0247416   0.0000000), wk =   0.0138889
        k(   48) = (   0.0565709   0.0397714   0.0000000), wk =   0.0138889
        k(   49) = (   0.0565709   0.0548011   0.0000000), wk =   0.0138889
        k(   50) = (   0.0565709  -0.1105262   0.0000000), wk =   0.0138889
        k(   51) = (   0.0565709  -0.0954964   0.0000000), wk =   0.0138889
        k(   52) = (   0.0565709  -0.0804667   0.0000000), wk =   0.0138889
        k(   53) = (   0.0565709  -0.0654369   0.0000000), wk =   0.0138889
        k(   54) = (   0.0565709  -0.0504072   0.0000000), wk =   0.0138889
        k(   55) = (   0.0565709  -0.0353774   0.0000000), wk =   0.0138889
        k(   56) = (   0.0707137  -0.0254346   0.0000000), wk =   0.0138889
        k(   57) = (   0.0707137  -0.0104048   0.0000000), wk =   0.0138889
        k(   58) = (   0.0707137   0.0046249   0.0000000), wk =   0.0138889
        k(   59) = (   0.0707137   0.0196547   0.0000000), wk =   0.0138889
        k(   60) = (   0.0707137   0.0346845   0.0000000), wk =   0.0138889
        k(   61) = (   0.0707137   0.0497142   0.0000000), wk =   0.0138889
        k(   62) = (   0.0707137  -0.1156131   0.0000000), wk =   0.0138889
        k(   63) = (   0.0707137  -0.1005834   0.0000000), wk =   0.0138889
        k(   64) = (   0.0707137  -0.0855536   0.0000000), wk =   0.0138889
        k(   65) = (   0.0707137  -0.0705238   0.0000000), wk =   0.0138889
        k(   66) = (   0.0707137  -0.0554941   0.0000000), wk =   0.0138889
        k(   67) = (   0.0707137  -0.0404643   0.0000000), wk =   0.0138889
        k(   68) = (  -0.0848564   0.0305215   0.0000000), wk =   0.0069444
        k(   69) = (  -0.0848564   0.0455512   0.0000000), wk =   0.0138889
        k(   70) = (  -0.0848564   0.0605810   0.0000000), wk =   0.0138889
        k(   71) = (  -0.0848564   0.0756108   0.0000000), wk =   0.0138889
        k(   72) = (  -0.0848564   0.0906405   0.0000000), wk =   0.0138889
        k(   73) = (  -0.0848564   0.1056703   0.0000000), wk =   0.0138889
        k(   74) = (  -0.0848564  -0.0596571   0.0000000), wk =   0.0069444

     Initial potential from superposition of free atoms

     starting charge  125.97401, renormalised to  126.00000

     %%%%%%%%%%%%%%%%%%%%%%%%%%%%%%%%%%%%%%%%%%%%%%%%%%%%%%%%%%%%%%%%%%%%%%%%
     %                                                                      %
     % You are using vdW-DF, which was implemented by the Thonhauser group. %
     % Please cite the following two papers that made this development      %
     % possible and the two reviews that describe the various versions:     %
     %                                                                      %
     %   T. Thonhauser et al., PRL 115, 136402 (2015).                      %
     %   T. Thonhauser et al., PRB 76, 125112 (2007).                       %
     %   K. Berland et al., Rep. Prog. Phys. 78, 066501 (2015).             %
     %   D.C. Langreth et al., J. Phys.: Condens. Matter 21, 084203 (2009). %
     %                                                                      %
     %                                                                      %
     % If you are calculating the stress with vdW-DF, please also cite:     %
     %                                                                      %
     %   R. Sabatini et al., J. Phys.: Condens. Matter 24, 424209 (2012).   %
     %                                                                      %
     %%%%%%%%%%%%%%%%%%%%%%%%%%%%%%%%%%%%%%%%%%%%%%%%%%%%%%%%%%%%%%%%%%%%%%%%

     Adding external electric field

     Computed dipole along edir(3) :
        Dipole                0.0016 Ry au,          0.0042 Debye
        Dipole field          0.0000 Ry au,

        Potential amp.       -0.0003 Ry
        Total length         45.7304 bohr

[...]

     Starting wfcs are  132 randomized atomic wfcs

     Self-consistent Calculation

     iteration #  1     ecut=    55.12 Ry     beta= 0.10
     Davidson diagonalization with overlap
     ethr =  1.00E-02,  avg # of iterations =  2.0

[...]

     total energy              =   -1114.72185149 Ry
     estimated scf accuracy    <      12.08281158 Ry

     total magnetization       =     3.74 Bohr mag/cell
     absolute magnetization    =     3.84 Bohr mag/cell

[...]

     iteration # 10     ecut=    55.12 Ry     beta= 0.10
     Davidson diagonalization with overlap
     c_bands:  1 eigenvalues not converged
     c_bands:  1 eigenvalues not converged
     c_bands:  1 eigenvalues not converged
     ethr =  1.02E-04,  avg # of iterations =  7.1

[...]

     iteration # 24     ecut=    55.12 Ry     beta= 0.10
     Davidson diagonalization with overlap
     c_bands:  1 eigenvalues not converged
     ethr =  2.90E-08,  avg # of iterations =  5.8

[...]

     total energy              =   -1117.75230754 Ry
     estimated scf accuracy    <       0.00002657 Ry

[...]

     iteration # 26     ecut=    55.12 Ry     beta= 0.10
     Davidson diagonalization with overlap
     ethr =  2.11E-08,  avg # of iterations =  3.6

[...]

     Adding external electric field

     Computed dipole along edir(3) :
        Dipole                0.0923 Ry au,          0.2346 Debye
        Dipole field          0.0002 Ry au,

        Potential amp.       -0.0194 Ry
        Total length         45.7304 bohr

     Magnetic moment per site:
     atom:    1    charge:    9.0966    magn:    0.0205    constr:    0.0000
     atom:    2    charge:    9.0965    magn:    0.0206    constr:    0.0000
     atom:    3    charge:    8.3635    magn:   -0.0132    constr:    0.0000
     atom:    4    charge:    8.3635    magn:   -0.0132    constr:    0.0000
     atom:    5    charge:    9.1502    magn:    0.0099    constr:    0.0000
     atom:    6    charge:    9.1506    magn:    0.0099    constr:    0.0000
     atom:    7    charge:    8.4293    magn:   -0.0039    constr:    0.0000
     atom:    8    charge:    8.4293    magn:   -0.0039    constr:    0.0000
     atom:    9    charge:    9.1483    magn:    0.0139    constr:    0.0000
     atom:   10    charge:    9.1482    magn:    0.0139    constr:    0.0000
     atom:   11    charge:    8.3624    magn:   -0.0118    constr:    0.0000
     atom:   12    charge:    8.3624    magn:   -0.0118    constr:    0.0000

     End of self-consistent calculation

     Number of k-points >= 100: set verbosity='high' to print the bands.

     the Fermi energy is     0.9294 ev

!    total energy              =   -1115.91151570 Ry
     estimated scf accuracy    <       0.00000936 Ry
     smearing contrib. (-TS)   =      -0.04209418 Ry
     internal energy E=F+TS    =   -1115.86942152 Ry

     The total energy is F=E-TS. E is the sum of the following terms:
     one-electron contribution =   -7255.23812462 Ry
     hartree contribution      =    3689.33798251 Ry
     xc contribution           =    -369.61256708 Ry
     ewald contribution        =    2819.64326811 Ry
     electric field correction =       0.00001957 Ry

     total magnetization       =    -0.14 Bohr mag/cell
     absolute magnetization    =     0.34 Bohr mag/cell

     convergence has been achieved in  26 iterations

     Forces acting on atoms (cartesian axes, Ry/au):

     atom    1 type  1   force =    -0.00010968   -0.00009212    0.02564465
     atom    2 type  1   force =    -0.00008012   -0.00005926    0.02566909
     atom    3 type  2   force =    -0.00182309   -0.00126973   -0.00864759
     atom    4 type  2   force =    -0.00181292   -0.00128274   -0.00864753
     atom    5 type  1   force =     0.00016357    0.00011822    0.00380547
     atom    6 type  1   force =     0.00014419    0.00010746    0.00381858
     atom    7 type  2   force =     0.00113142    0.00078852   -0.02005200
     atom    8 type  2   force =     0.00112435    0.00079907   -0.02004677
     atom    9 type  1   force =     0.00036894    0.00024880   -0.00055690
     atom   10 type  1   force =     0.00030094    0.00022449   -0.00054641
     atom   11 type  2   force =     0.00029989    0.00020419   -0.00021984
     atom   12 type  2   force =     0.00029249    0.00021311   -0.00022074

     Total force =     0.048106     Total SCF correction =     0.004974
     SCF correction compared to forces is large: reduce conv_thr to get better values

     Writing output data file ./Ni2Y2/Ni2Y2_beef.save/

     General routines

     Parallel routines

   This run was terminated on:  23: 6:57  28Jun2022

   JOB DONE.