     Program PWSCF v.6.6 starts on 29Jun2022 at  0:21:42

     R & G space division:  proc/nbgrp/npool/nimage =      37
     Fft bands division:     nmany     =       1
     Reading input from Ni2Zr2.in
Warning: card &CELL ignored
Warning: card / ignored

     Current dimensions of program PWSCF are:
     Max number of different atomic species (ntypx) = 10
     Max number of k-points (npk) =  40000
     Max angular momentum in pseudopotentials (lmaxx) =  3
     Presently stress not available with electric field and gates

     Message from routine cell_base_init:
     DEPRECATED: use true lattice parameter, not A to a.u. conversion factor
     file Ni.pbe-n-rrkjus_psl.1.0.0.UPF: wavefunction(s)  3D renormalized
     file Zr.pbe-spn-rrkjus_psl.1.0.0.UPF: wavefunction(s)  4S renormalized

     IMPORTANT: XC functional enforced from input :
     Exchange-correlation= BEEF-VDW
                           (   1   4  43  14   2   0   0)
     Any further DFT definition will be discarded
     Please, verify this is what you really want

     Subspace diagonalization in iterative solution of the eigenvalue problem:
     a serial algorithm will be used

     bravais-lattice index     =            0
     lattice parameter (alat)  =       1.8897  a.u.
     unit-cell volume          =    4851.5329 (a.u.)^3
     number of atoms/cell      =           12
     number of atomic types    =            2
     number of electrons       =       132.00
     number of Kohn-Sham states=           79
     kinetic-energy cutoff     =      55.1240  Ry
     charge density cutoff     =     551.2396  Ry
     convergence threshold     =      1.0E-05
     mixing beta               =       0.1000
     number of iterations used =           10  plain     mixing
     Exchange-correlation= BEEF-VDW
                           (   1   4  43  14   2   0   0)

     celldm(1)=   1.889726  celldm(2)=   0.000000  celldm(3)=   0.000000
     celldm(4)=   0.000000  celldm(5)=   0.000000  celldm(6)=   0.000000

     crystal axes: (cart. coord. in units of alat)
               a(1) = (   5.571733   0.000000   0.000000 )
               a(2) = (   1.847137   5.256643   0.000000 )
               a(3) = (   0.000000   0.000000  24.546167 )

     reciprocal axes: (cart. coord. in units 2 pi/alat)
               b(1) = (  0.179477 -0.063067  0.000000 )
               b(2) = (  0.000000  0.190235  0.000000 )
               b(3) = (  0.000000  0.000000  0.040740 )

     PseudoPot. # 1 for Ni read from file:
     ../pseudo/Ni.pbe-n-rrkjus_psl.1.0.0.UPF
     MD5 check sum: 9f76af1bddcd5839b31985483df98d0a
     Pseudo is Ultrasoft + core correction, Zval = 10.0
     Generated using "atomic" code by A. Dal Corso v.6.5
     Using radial grid of 1195 points,  6 beta functions with:
                l(1) =   0
                l(2) =   0
                l(3) =   1
                l(4) =   1
                l(5) =   2
                l(6) =   2
     Q(r) pseudized with 0 coefficients

     PseudoPot. # 2 for Zr read from file:
     ../pseudo/Zr.pbe-spn-rrkjus_psl.1.0.0.UPF
     MD5 check sum: 3d17ee99aa1707c2ccb6b09ed65e51a1
     Pseudo is Ultrasoft + core correction, Zval = 12.0
     Generated using "atomic" code by A. Dal Corso v.6.2.2
     Using radial grid of 1225 points,  6 beta functions with:
                l(1) =   0
                l(2) =   0
                l(3) =   1
                l(4) =   1
                l(5) =   2
                l(6) =   2
     Q(r) pseudized with 0 coefficients

     atomic species   valence    mass     pseudopotential
        Ni            10.00    58.69340     Ni( 1.00)
        Zr            12.00    91.22400     Zr( 1.00)

     Starting magnetic structure
     atomic species   magnetization
        Ni           0.500
        Zr           0.000

     No symmetry found

   Cartesian axes

     site n.     atom                  positions (alat units)
         1           Ni  tau(   1) = (   0.0000000   0.0000000  10.0000000  )
         2           Ni  tau(   2) = (   3.7094350   2.6283213  10.0000000  )
         3           Zr  tau(   3) = (   2.7858664   0.0000000  10.0000000  )
         4           Zr  tau(   4) = (   0.9235686   2.6283213  10.0000000  )
         5           Ni  tau(   5) = (   5.5717328   3.9478530  12.2730836  )
         6           Ni  tau(   6) = (   1.8622979   1.3195317  12.2730836  )
         7           Zr  tau(   7) = (   2.7858664   3.9478530  12.2730836  )
         8           Zr  tau(   8) = (   4.6481643   1.3195317  12.2730836  )
         9           Ni  tau(   9) = (   3.7237472   2.6384525  14.3088550  )
        10           Ni  tau(  10) = (   0.0142417   0.0101001  14.3088297  )
        11           Zr  tau(  11) = (   0.9357924   2.6369773  14.5694475  )
        12           Zr  tau(  12) = (   2.7980796   0.0086581  14.5694474  )

     number of k points=    74  Fermi-Dirac smearing, width (Ry)=  0.0100
                       cart. coord. in units 2pi/alat
        k(    1) = (   0.0000000   0.0000000   0.0000000), wk =   0.0069444
        k(    2) = (   0.0000000   0.0158530   0.0000000), wk =   0.0138889
        k(    3) = (   0.0000000   0.0317059   0.0000000), wk =   0.0138889
        k(    4) = (   0.0000000   0.0475589   0.0000000), wk =   0.0138889
        k(    5) = (   0.0000000   0.0634118   0.0000000), wk =   0.0138889
        k(    6) = (   0.0000000   0.0792648   0.0000000), wk =   0.0138889
        k(    7) = (   0.0000000  -0.0951177   0.0000000), wk =   0.0069444
        k(    8) = (   0.0149564  -0.0052556   0.0000000), wk =   0.0138889
        k(    9) = (   0.0149564   0.0105974   0.0000000), wk =   0.0138889
        k(   10) = (   0.0149564   0.0264504   0.0000000), wk =   0.0138889
        k(   11) = (   0.0149564   0.0423033   0.0000000), wk =   0.0138889
        k(   12) = (   0.0149564   0.0581563   0.0000000), wk =   0.0138889
        k(   13) = (   0.0149564   0.0740092   0.0000000), wk =   0.0138889
        k(   14) = (   0.0149564  -0.1003733   0.0000000), wk =   0.0138889
        k(   15) = (   0.0149564  -0.0845203   0.0000000), wk =   0.0138889
        k(   16) = (   0.0149564  -0.0686674   0.0000000), wk =   0.0138889
        k(   17) = (   0.0149564  -0.0528144   0.0000000), wk =   0.0138889
        k(   18) = (   0.0149564  -0.0369615   0.0000000), wk =   0.0138889
        k(   19) = (   0.0149564  -0.0211085   0.0000000), wk =   0.0138889
        k(   20) = (   0.0299129  -0.0105111   0.0000000), wk =   0.0138889
        k(   21) = (   0.0299129   0.0053418   0.0000000), wk =   0.0138889
        k(   22) = (   0.0299129   0.0211948   0.0000000), wk =   0.0138889
        k(   23) = (   0.0299129   0.0370477   0.0000000), wk =   0.0138889
        k(   24) = (   0.0299129   0.0529007   0.0000000), wk =   0.0138889
        k(   25) = (   0.0299129   0.0687537   0.0000000), wk =   0.0138889
        k(   26) = (   0.0299129  -0.1056289   0.0000000), wk =   0.0138889
        k(   27) = (   0.0299129  -0.0897759   0.0000000), wk =   0.0138889
        k(   28) = (   0.0299129  -0.0739229   0.0000000), wk =   0.0138889
        k(   29) = (   0.0299129  -0.0580700   0.0000000), wk =   0.0138889
        k(   30) = (   0.0299129  -0.0422170   0.0000000), wk =   0.0138889
        k(   31) = (   0.0299129  -0.0263641   0.0000000), wk =   0.0138889
        k(   32) = (   0.0448693  -0.0157667   0.0000000), wk =   0.0138889
        k(   33) = (   0.0448693   0.0000863   0.0000000), wk =   0.0138889
        k(   34) = (   0.0448693   0.0159392   0.0000000), wk =   0.0138889
        k(   35) = (   0.0448693   0.0317922   0.0000000), wk =   0.0138889
        k(   36) = (   0.0448693   0.0476451   0.0000000), wk =   0.0138889
        k(   37) = (   0.0448693   0.0634981   0.0000000), wk =   0.0138889
        k(   38) = (   0.0448693  -0.1108844   0.0000000), wk =   0.0138889
        k(   39) = (   0.0448693  -0.0950315   0.0000000), wk =   0.0138889
        k(   40) = (   0.0448693  -0.0791785   0.0000000), wk =   0.0138889
        k(   41) = (   0.0448693  -0.0633256   0.0000000), wk =   0.0138889
        k(   42) = (   0.0448693  -0.0474726   0.0000000), wk =   0.0138889
        k(   43) = (   0.0448693  -0.0316196   0.0000000), wk =   0.0138889
        k(   44) = (   0.0598258  -0.0210222   0.0000000), wk =   0.0138889
        k(   45) = (   0.0598258  -0.0051693   0.0000000), wk =   0.0138889
        k(   46) = (   0.0598258   0.0106837   0.0000000), wk =   0.0138889
        k(   47) = (   0.0598258   0.0265366   0.0000000), wk =   0.0138889
        k(   48) = (   0.0598258   0.0423896   0.0000000), wk =   0.0138889
        k(   49) = (   0.0598258   0.0582425   0.0000000), wk =   0.0138889
        k(   50) = (   0.0598258  -0.1161400   0.0000000), wk =   0.0138889
        k(   51) = (   0.0598258  -0.1002870   0.0000000), wk =   0.0138889
        k(   52) = (   0.0598258  -0.0844341   0.0000000), wk =   0.0138889
        k(   53) = (   0.0598258  -0.0685811   0.0000000), wk =   0.0138889
        k(   54) = (   0.0598258  -0.0527282   0.0000000), wk =   0.0138889
        k(   55) = (   0.0598258  -0.0368752   0.0000000), wk =   0.0138889
        k(   56) = (   0.0747822  -0.0262778   0.0000000), wk =   0.0138889
        k(   57) = (   0.0747822  -0.0104248   0.0000000), wk =   0.0138889
        k(   58) = (   0.0747822   0.0054281   0.0000000), wk =   0.0138889
        k(   59) = (   0.0747822   0.0212811   0.0000000), wk =   0.0138889
        k(   60) = (   0.0747822   0.0371340   0.0000000), wk =   0.0138889
        k(   61) = (   0.0747822   0.0529870   0.0000000), wk =   0.0138889
        k(   62) = (   0.0747822  -0.1213955   0.0000000), wk =   0.0138889
        k(   63) = (   0.0747822  -0.1055426   0.0000000), wk =   0.0138889
        k(   64) = (   0.0747822  -0.0896896   0.0000000), wk =   0.0138889
        k(   65) = (   0.0747822  -0.0738367   0.0000000), wk =   0.0138889
        k(   66) = (   0.0747822  -0.0579837   0.0000000), wk =   0.0138889
        k(   67) = (   0.0747822  -0.0421308   0.0000000), wk =   0.0138889
        k(   68) = (  -0.0897387   0.0315334   0.0000000), wk =   0.0069444
        k(   69) = (  -0.0897387   0.0473863   0.0000000), wk =   0.0138889
        k(   70) = (  -0.0897387   0.0632393   0.0000000), wk =   0.0138889
        k(   71) = (  -0.0897387   0.0790922   0.0000000), wk =   0.0138889
        k(   72) = (  -0.0897387   0.0949452   0.0000000), wk =   0.0138889
        k(   73) = (  -0.0897387   0.1107981   0.0000000), wk =   0.0138889
        k(   74) = (  -0.0897387  -0.0635844   0.0000000), wk =   0.0069444

     Initial potential from superposition of free atoms

     starting charge  131.98562, renormalised to  132.00000

     %%%%%%%%%%%%%%%%%%%%%%%%%%%%%%%%%%%%%%%%%%%%%%%%%%%%%%%%%%%%%%%%%%%%%%%%
     %                                                                      %
     % You are using vdW-DF, which was implemented by the Thonhauser group. %
     % Please cite the following two papers that made this development      %
     % possible and the two reviews that describe the various versions:     %
     %                                                                      %
     %   T. Thonhauser et al., PRL 115, 136402 (2015).                      %
     %   T. Thonhauser et al., PRB 76, 125112 (2007).                       %
     %   K. Berland et al., Rep. Prog. Phys. 78, 066501 (2015).             %
     %   D.C. Langreth et al., J. Phys.: Condens. Matter 21, 084203 (2009). %
     %                                                                      %
     %                                                                      %
     % If you are calculating the stress with vdW-DF, please also cite:     %
     %                                                                      %
     %   R. Sabatini et al., J. Phys.: Condens. Matter 24, 424209 (2012).   %
     %                                                                      %
     %%%%%%%%%%%%%%%%%%%%%%%%%%%%%%%%%%%%%%%%%%%%%%%%%%%%%%%%%%%%%%%%%%%%%%%%

     Adding external electric field

     Computed dipole along edir(3) :
        Dipole                0.0008 Ry au,          0.0021 Debye
        Dipole field          0.0000 Ry au,

        Potential amp.       -0.0002 Ry
        Total length         45.2259 bohr

[...]

     Starting wfcs are  132 randomized atomic wfcs

     Self-consistent Calculation

     iteration #  1     ecut=    55.12 Ry     beta= 0.10
     Davidson diagonalization with overlap
     ethr =  1.00E-02,  avg # of iterations =  2.0

[...]

     total energy              =   -1209.99987488 Ry
     estimated scf accuracy    <      11.68327725 Ry

     total magnetization       =     4.81 Bohr mag/cell
     absolute magnetization    =     4.92 Bohr mag/cell

[...]

     iteration # 13     ecut=    55.12 Ry     beta= 0.10
     Davidson diagonalization with overlap
     c_bands:  1 eigenvalues not converged
     c_bands:  1 eigenvalues not converged
     c_bands:  1 eigenvalues not converged
     c_bands:  1 eigenvalues not converged
     c_bands:  1 eigenvalues not converged
     ethr =  2.44E-05,  avg # of iterations =  6.5

[...]

     iteration # 23     ecut=    55.12 Ry     beta= 0.10
     Davidson diagonalization with overlap
     c_bands:  1 eigenvalues not converged
     ethr =  4.32E-08,  avg # of iterations =  6.7

[...]

     total energy              =   -1212.89869519 Ry
     estimated scf accuracy    <       0.00001674 Ry

[...]

     iteration # 26     ecut=    55.12 Ry     beta= 0.10
     Davidson diagonalization with overlap
     ethr =  1.27E-08,  avg # of iterations =  6.1

[...]

     Adding external electric field

     Computed dipole along edir(3) :
        Dipole                0.0867 Ry au,          0.2204 Debye
        Dipole field          0.0002 Ry au,

        Potential amp.       -0.0203 Ry
        Total length         45.2259 bohr

     Magnetic moment per site:
     atom:    1    charge:    8.8688    magn:   -0.0021    constr:    0.0000
     atom:    2    charge:    8.8685    magn:   -0.0021    constr:    0.0000
     atom:    3    charge:    9.0054    magn:   -0.0007    constr:    0.0000
     atom:    4    charge:    9.0054    magn:   -0.0007    constr:    0.0000
     atom:    5    charge:    8.9311    magn:    0.0080    constr:    0.0000
     atom:    6    charge:    8.9314    magn:    0.0082    constr:    0.0000
     atom:    7    charge:    9.0509    magn:    0.0009    constr:    0.0000
     atom:    8    charge:    9.0509    magn:    0.0009    constr:    0.0000
     atom:    9    charge:    8.9242    magn:   -0.0031    constr:    0.0000
     atom:   10    charge:    8.9252    magn:   -0.0031    constr:    0.0000
     atom:   11    charge:    8.9994    magn:    0.0018    constr:    0.0000
     atom:   12    charge:    8.9994    magn:    0.0018    constr:    0.0000

     End of self-consistent calculation

     Number of k-points >= 100: set verbosity='high' to print the bands.

     the Fermi energy is     1.1454 ev

!    total energy              =   -1211.14623023 Ry
     estimated scf accuracy    <       0.00000801 Ry
     smearing contrib. (-TS)   =      -0.06866051 Ry
     internal energy E=F+TS    =   -1211.07756972 Ry

     The total energy is F=E-TS. E is the sum of the following terms:
     one-electron contribution =   -8978.69280603 Ry
     hartree contribution      =    4548.22795819 Ry
     xc contribution           =    -369.71840306 Ry
     ewald contribution        =    3589.10566170 Ry
     electric field correction =       0.00001947 Ry

     total magnetization       =     0.01 Bohr mag/cell
     absolute magnetization    =     0.06 Bohr mag/cell

     convergence has been achieved in  26 iterations

     Forces acting on atoms (cartesian axes, Ry/au):

     atom    1 type  1   force =    -0.00007401   -0.00005669    0.02923247
     atom    2 type  1   force =    -0.00002975   -0.00001879    0.02928619
     atom    3 type  2   force =     0.00050872    0.00038242   -0.01195582
     atom    4 type  2   force =     0.00052898    0.00035211   -0.01195777
     atom    5 type  1   force =    -0.00009068   -0.00008508    0.00797175
     atom    6 type  1   force =     0.00013033    0.00011414    0.00795888
     atom    7 type  2   force =    -0.00032215   -0.00012157   -0.02503548
     atom    8 type  2   force =    -0.00022556   -0.00026602   -0.02504061
     atom    9 type  1   force =    -0.00009258   -0.00007090    0.00092036
     atom   10 type  1   force =    -0.00017289   -0.00011545    0.00104115
     atom   11 type  2   force =    -0.00006476   -0.00007630   -0.00120696
     atom   12 type  2   force =    -0.00009565   -0.00003786   -0.00121416

     Total force =     0.058180     Total SCF correction =     0.004904

     Writing output data file ./Ni2Zr2/Ni2Zr2_beef.save/

     General routines

     Parallel routines

   This run was terminated on:   2:26: 1  29Jun2022

   JOB DONE.