     Program PWSCF v.6.6 starts on 24Jun2022 at 15: 8:16

     R & G space division:  proc/nbgrp/npool/nimage =      37
     Fft bands division:     nmany     =       1
     Reading input from Os2Ir2.in
Warning: card &CELL ignored
Warning: card / ignored

     Current dimensions of program PWSCF are:
     Max number of different atomic species (ntypx) = 10
     Max number of k-points (npk) =  40000
     Max angular momentum in pseudopotentials (lmaxx) =  3
     Presently stress not available with electric field and gates

     Message from routine cell_base_init:
     DEPRECATED: use true lattice parameter, not A to a.u. conversion factor
     file Ir.pbe-n-rrkjus_psl.0.2.3.UPF: wavefunction(s)  5D renormalized

     IMPORTANT: XC functional enforced from input :
     Exchange-correlation= BEEF-VDW
                           (   1   4  43  14   2   0   0)
     Any further DFT definition will be discarded
     Please, verify this is what you really want

     Subspace diagonalization in iterative solution of the eigenvalue problem:
     a serial algorithm will be used

     Found symmetry operation: I + (  0.5000  0.0000  0.0000)
     This is a supercell, fractional translations are disabled

     bravais-lattice index     =            0
     lattice parameter (alat)  =       1.8897  a.u.
     unit-cell volume          =    4276.6572 (a.u.)^3
     number of atoms/cell      =           12
     number of atomic types    =            2
     number of electrons       =       150.00
     number of Kohn-Sham states=           90
     kinetic-energy cutoff     =      55.1240  Ry
     charge density cutoff     =     551.2396  Ry
     convergence threshold     =      1.0E-05
     mixing beta               =       0.1000
     number of iterations used =           10  plain     mixing
     Exchange-correlation= BEEF-VDW
                           (   1   4  43  14   2   0   0)

     celldm(1)=   1.889726  celldm(2)=   0.000000  celldm(3)=   0.000000
     celldm(4)=   0.000000  celldm(5)=   0.000000  celldm(6)=   0.000000

     crystal axes: (cart. coord. in units of alat)
               a(1) = (   5.446674   0.000000   0.000000 )
               a(2) = (  -2.723337   4.755835   0.000000 )
               a(3) = (   0.000000   0.000000  24.465256 )

     reciprocal axes: (cart. coord. in units 2 pi/alat)
               b(1) = (  0.183598  0.105134 -0.000000 )
               b(2) = (  0.000000  0.210268  0.000000 )
               b(3) = (  0.000000 -0.000000  0.040874 )

     PseudoPot. # 1 for Os read from file:
     ../pseudo/Os.pbe-spn-rrkjus_psl.1.0.0.UPF
     MD5 check sum: 3e7416ed594f6513d36e5cb31ba709d9
     Pseudo is Ultrasoft + core correction, Zval = 16.0
     Generated using "atomic" code by A. Dal Corso v.6.2.2
     Using radial grid of 1275 points,  6 beta functions with:
                l(1) =   0
                l(2) =   0
                l(3) =   1
                l(4) =   1
                l(5) =   2
                l(6) =   2
     Q(r) pseudized with 0 coefficients

     PseudoPot. # 2 for Ir read from file:
     ../pseudo/Ir.pbe-n-rrkjus_psl.0.2.3.UPF
     MD5 check sum: a93e608e8ddc29ee62145620b5f41564
     Pseudo is Ultrasoft + core correction, Zval =  9.0
     Generated using "atomic" code by A. Dal Corso v.5.0.2 svn rev. 9415
     Using radial grid of 1277 points,  6 beta functions with:
                l(1) =   0
                l(2) =   0
                l(3) =   1
                l(4) =   1
                l(5) =   2
                l(6) =   2
     Q(r) pseudized with 0 coefficients

     atomic species   valence    mass     pseudopotential
        Os            16.00   190.23000     Os( 1.00)
        Ir             9.00   192.21700     Ir( 1.00)

     No symmetry found

   Cartesian axes

     site n.     atom                  positions (alat units)
         1           Os  tau(   1) = (   0.0000000   0.0000000  10.0000000  )
         2           Os  tau(   2) = (   2.7233368   0.0000000  10.0000000  )
         3           Ir  tau(   3) = (   1.3616684   2.3779174  10.0000000  )
         4           Ir  tau(   4) = (  -1.3616684   2.3779174  10.0000000  )
         5           Os  tau(   5) = (   2.7233368   1.5594662  12.2326282  )
         6           Os  tau(   6) = (  -0.0000000   1.5594662  12.2326282  )
         7           Ir  tau(   7) = (  -1.3616684   3.9373836  12.2326282  )
         8           Ir  tau(   8) = (   1.3616684   3.9373836  12.2326282  )
         9           Os  tau(   9) = (   0.0000009   3.0920615  14.3921562  )
        10           Os  tau(  10) = (   2.7233385   3.0920681  14.3921625  )
        11           Ir  tau(  11) = (   4.0850043   0.7921356  14.3781992  )
        12           Ir  tau(  12) = (   1.3616697   0.7921357  14.3782006  )

     number of k points=    74  Fermi-Dirac smearing, width (Ry)=  0.0100
                       cart. coord. in units 2pi/alat
        k(    1) = (   0.0000000   0.0000000   0.0000000), wk =   0.0138889
        k(    2) = (   0.0000000   0.0175223   0.0000000), wk =   0.0277778
        k(    3) = (   0.0000000   0.0350447   0.0000000), wk =   0.0277778
        k(    4) = (   0.0000000   0.0525670   0.0000000), wk =   0.0277778
        k(    5) = (   0.0000000   0.0700893   0.0000000), wk =   0.0277778
        k(    6) = (   0.0000000   0.0876117   0.0000000), wk =   0.0277778
        k(    7) = (   0.0000000  -0.1051340   0.0000000), wk =   0.0138889
        k(    8) = (   0.0152999   0.0087612   0.0000000), wk =   0.0277778
        k(    9) = (   0.0152999   0.0262835   0.0000000), wk =   0.0277778
        k(   10) = (   0.0152999   0.0438058   0.0000000), wk =   0.0277778
        k(   11) = (   0.0152999   0.0613282   0.0000000), wk =   0.0277778
        k(   12) = (   0.0152999   0.0788505   0.0000000), wk =   0.0277778
        k(   13) = (   0.0152999   0.0963728   0.0000000), wk =   0.0277778
        k(   14) = (   0.0152999  -0.0963728   0.0000000), wk =   0.0277778
        k(   15) = (   0.0152999  -0.0788505   0.0000000), wk =   0.0277778
        k(   16) = (   0.0152999  -0.0613282   0.0000000), wk =   0.0277778
        k(   17) = (   0.0152999  -0.0438058   0.0000000), wk =   0.0277778
        k(   18) = (   0.0152999  -0.0262835   0.0000000), wk =   0.0277778
        k(   19) = (   0.0152999  -0.0087612   0.0000000), wk =   0.0277778
        k(   20) = (   0.0305997   0.0175223   0.0000000), wk =   0.0277778
        k(   21) = (   0.0305997   0.0350447   0.0000000), wk =   0.0277778
        k(   22) = (   0.0305997   0.0525670   0.0000000), wk =   0.0277778
        k(   23) = (   0.0305997   0.0700893   0.0000000), wk =   0.0277778
        k(   24) = (   0.0305997   0.0876117   0.0000000), wk =   0.0277778
        k(   25) = (   0.0305997   0.1051340   0.0000000), wk =   0.0277778
        k(   26) = (   0.0305997  -0.0876117   0.0000000), wk =   0.0277778
        k(   27) = (   0.0305997  -0.0700893   0.0000000), wk =   0.0277778
        k(   28) = (   0.0305997  -0.0525670   0.0000000), wk =   0.0277778
        k(   29) = (   0.0305997  -0.0350447   0.0000000), wk =   0.0277778
        k(   30) = (   0.0305997  -0.0175223   0.0000000), wk =   0.0277778
        k(   31) = (   0.0305997  -0.0000000   0.0000000), wk =   0.0277778
        k(   32) = (   0.0458996   0.0262835   0.0000000), wk =   0.0277778
        k(   33) = (   0.0458996   0.0438058   0.0000000), wk =   0.0277778
        k(   34) = (   0.0458996   0.0613282   0.0000000), wk =   0.0277778
        k(   35) = (   0.0458996   0.0788505   0.0000000), wk =   0.0277778
        k(   36) = (   0.0458996   0.0963728   0.0000000), wk =   0.0277778
        k(   37) = (   0.0458996   0.1138952   0.0000000), wk =   0.0277778
        k(   38) = (   0.0458996  -0.0788505   0.0000000), wk =   0.0277778
        k(   39) = (   0.0458996  -0.0613282   0.0000000), wk =   0.0277778
        k(   40) = (   0.0458996  -0.0438058   0.0000000), wk =   0.0277778
        k(   41) = (   0.0458996  -0.0262835   0.0000000), wk =   0.0277778
        k(   42) = (   0.0458996  -0.0087612   0.0000000), wk =   0.0277778
        k(   43) = (   0.0458996   0.0087612   0.0000000), wk =   0.0277778
        k(   44) = (   0.0611994   0.0350447   0.0000000), wk =   0.0277778
        k(   45) = (   0.0611994   0.0525670   0.0000000), wk =   0.0277778
        k(   46) = (   0.0611994   0.0700893   0.0000000), wk =   0.0277778
        k(   47) = (   0.0611994   0.0876117   0.0000000), wk =   0.0277778
        k(   48) = (   0.0611994   0.1051340   0.0000000), wk =   0.0277778
        k(   49) = (   0.0611994   0.1226563   0.0000000), wk =   0.0277778
        k(   50) = (   0.0611994  -0.0700893   0.0000000), wk =   0.0277778
        k(   51) = (   0.0611994  -0.0525670   0.0000000), wk =   0.0277778
        k(   52) = (   0.0611994  -0.0350447   0.0000000), wk =   0.0277778
        k(   53) = (   0.0611994  -0.0175223   0.0000000), wk =   0.0277778
        k(   54) = (   0.0611994   0.0000000   0.0000000), wk =   0.0277778
        k(   55) = (   0.0611994   0.0175223   0.0000000), wk =   0.0277778
        k(   56) = (   0.0764993   0.0438058   0.0000000), wk =   0.0277778
        k(   57) = (   0.0764993   0.0613282   0.0000000), wk =   0.0277778
        k(   58) = (   0.0764993   0.0788505   0.0000000), wk =   0.0277778
        k(   59) = (   0.0764993   0.0963728   0.0000000), wk =   0.0277778
        k(   60) = (   0.0764993   0.1138952   0.0000000), wk =   0.0277778
        k(   61) = (   0.0764993   0.1314175   0.0000000), wk =   0.0277778
        k(   62) = (   0.0764993  -0.0613282   0.0000000), wk =   0.0277778
        k(   63) = (   0.0764993  -0.0438058   0.0000000), wk =   0.0277778
        k(   64) = (   0.0764993  -0.0262835   0.0000000), wk =   0.0277778
        k(   65) = (   0.0764993  -0.0087612   0.0000000), wk =   0.0277778
        k(   66) = (   0.0764993   0.0087612   0.0000000), wk =   0.0277778
        k(   67) = (   0.0764993   0.0262835   0.0000000), wk =   0.0277778
        k(   68) = (  -0.0917991  -0.0525670   0.0000000), wk =   0.0138889
        k(   69) = (  -0.0917991  -0.0350447   0.0000000), wk =   0.0277778
        k(   70) = (  -0.0917991  -0.0175223   0.0000000), wk =   0.0277778
        k(   71) = (  -0.0917991   0.0000000   0.0000000), wk =   0.0277778
        k(   72) = (  -0.0917991   0.0175223   0.0000000), wk =   0.0277778
        k(   73) = (  -0.0917991   0.0350447   0.0000000), wk =   0.0277778
        k(   74) = (  -0.0917991  -0.1577010   0.0000000), wk =   0.0138889

     Initial potential from superposition of free atoms

     starting charge  149.99765, renormalised to  150.00000

     negative rho (up, down):  5.020E-04 0.000E+00

     %%%%%%%%%%%%%%%%%%%%%%%%%%%%%%%%%%%%%%%%%%%%%%%%%%%%%%%%%%%%%%%%%%%%%%%%
     %                                                                      %
     % You are using vdW-DF, which was implemented by the Thonhauser group. %
     % Please cite the following two papers that made this development      %
     % possible and the two reviews that describe the various versions:     %
     %                                                                      %
     %   T. Thonhauser et al., PRL 115, 136402 (2015).                      %
     %   T. Thonhauser et al., PRB 76, 125112 (2007).                       %
     %   K. Berland et al., Rep. Prog. Phys. 78, 066501 (2015).             %
     %   D.C. Langreth et al., J. Phys.: Condens. Matter 21, 084203 (2009). %
     %                                                                      %
     %                                                                      %
     % If you are calculating the stress with vdW-DF, please also cite:     %
     %                                                                      %
     %   R. Sabatini et al., J. Phys.: Condens. Matter 24, 424209 (2012).   %
     %                                                                      %
     %%%%%%%%%%%%%%%%%%%%%%%%%%%%%%%%%%%%%%%%%%%%%%%%%%%%%%%%%%%%%%%%%%%%%%%%

     Adding external electric field

     Computed dipole along edir(3) :
        Dipole               -0.0000 Ry au,         -0.0000 Debye
        Dipole field         -0.0000 Ry au,

        Potential amp.        0.0000 Ry
        Total length         45.0768 bohr

     Starting wfcs are  114 randomized atomic wfcs

     Self-consistent Calculation

     iteration #  1     ecut=    55.12 Ry     beta= 0.10
     Davidson diagonalization with overlap
     ethr =  1.00E-02,  avg # of iterations =  2.0

     Threshold (ethr) on eigenvalues was too large:
     Diagonalizing with lowered threshold

     Davidson diagonalization with overlap
     ethr =  3.64E-04,  avg # of iterations =  3.6

[...]

     total energy              =   -1582.01643046 Ry
     estimated scf accuracy    <       0.64863380 Ry

[...]

     total energy              =   -1582.01970680 Ry
     estimated scf accuracy    <       0.00002953 Ry

     iteration # 13     ecut=    55.12 Ry     beta= 0.10
     Davidson diagonalization with overlap
     ethr =  1.97E-08,  avg # of iterations =  2.0

[...]

     Adding external electric field

     Computed dipole along edir(3) :
        Dipole                0.0108 Ry au,          0.0274 Debye
        Dipole field          0.0000 Ry au,

        Potential amp.       -0.0029 Ry
        Total length         45.0768 bohr

     End of self-consistent calculation

          k = 0.0000 0.0000 0.0000 ( 29521 PWs)   bands (ev):

   -85.2695 -85.2402 -84.7543 -84.7251 -84.6623 -84.6332 -44.7542 -44.6529
   -44.5989 -44.5285 -44.4771 -44.2555 -44.2430 -44.1714 -44.0181 -43.9889
   -43.9670 -43.9391 -43.9174 -43.8736 -43.8664 -43.8251 -43.7491 -43.6662
    -7.8553  -5.7945  -5.4340  -5.1839  -5.1718  -5.1667  -4.8552  -4.8479
    -4.8435  -4.3400  -4.3015  -4.2842  -3.9093  -3.9010  -3.8491  -2.4945
    -2.4147  -2.3590  -1.8162  -1.6537  -1.6463  -1.4311  -1.3996  -1.3661
    -1.2813  -1.1388  -0.9542  -0.9373  -0.9014  -0.8246  -0.5960  -0.5333
    -0.4415  -0.3815  -0.1439   0.8622   0.9016   0.9707   1.0460   1.1428
     1.2692   1.2715   1.2776   1.3645   2.0451   2.2812   2.3343   2.4117
     2.6573   2.7281   2.9271   3.0299   3.1430   3.1659   3.2005   3.2186
     3.2244   3.2526   3.2847   3.5175   3.6863   3.7895   3.8421   4.0586
     4.1820   4.3033

[...]

          k = 0.0765 0.0263 0.0000 ( 29578 PWs)   bands (ev):

[...]

          k =-0.0918-0.0526 0.0000 ( 29590 PWs)   bands (ev):

[...]

          k =-0.0918-0.1577 0.0000 ( 29590 PWs)   bands (ev):

   -85.2548 -85.2548 -84.7397 -84.7396 -84.6478 -84.6477 -44.6267 -44.6266
   -44.5057 -44.5056 -44.5027 -44.5027 -44.0071 -44.0070 -43.9935 -43.9935
   -43.9646 -43.9646 -43.9234 -43.9234 -43.8933 -43.8933 -43.8502 -43.8501
    -5.9236  -5.9236  -4.3540  -4.3540  -4.0539  -4.0539  -3.9558  -3.9558
    -3.8920  -3.8920  -3.3430  -3.3430  -2.9335  -2.9335  -2.7981  -2.7981
    -2.5195  -2.5195  -2.3980  -2.3980  -1.9322  -1.9322  -1.4039  -1.4038
    -1.1747  -1.1746  -1.0639  -1.0639  -0.9455  -0.9455  -0.8354  -0.8354
    -0.5994  -0.5994  -0.4780  -0.4779  -0.4390  -0.4390  -0.3778  -0.3778
     0.2792   0.2792   0.6094   0.6095   0.9136   0.9136   1.0441   1.0441
     1.3809   1.3809   1.5592   1.5592   1.7648   1.7648   2.0396   2.0396
     2.1503   2.1503   2.7987   2.7987   3.3085   3.3085   3.6174   3.6174
     4.4373   4.4373

     the Fermi energy is     2.0039 ev

!    total energy              =   -1582.01971059 Ry
     estimated scf accuracy    <       0.00000449 Ry
     smearing contrib. (-TS)   =      -0.05562175 Ry
     internal energy E=F+TS    =   -1581.96408884 Ry

     The total energy is F=E-TS. E is the sum of the following terms:
     one-electron contribution =  -13000.76748972 Ry
     hartree contribution      =    6522.67420723 Ry
     xc contribution           =    -430.85293834 Ry
     ewald contribution        =    5326.98213165 Ry
     electric field correction =       0.00000034 Ry

     convergence has been achieved in  13 iterations

     negative rho (up, down):  3.877E-04 0.000E+00

     Forces acting on atoms (cartesian axes, Ry/au):

     atom    1 type  1   force =    -0.00000504    0.01607685    0.01997729
     atom    2 type  1   force =     0.00000220    0.01606540    0.01998653
     atom    3 type  2   force =     0.00000151   -0.02094064    0.02285822
     atom    4 type  2   force =    -0.00000202   -0.02093942    0.02285860
     atom    5 type  1   force =     0.00000771    0.00050991   -0.02818250
     atom    6 type  1   force =    -0.00000539    0.00051418   -0.02819296
     atom    7 type  2   force =     0.00000263    0.00175013   -0.01947979
     atom    8 type  2   force =    -0.00000145    0.00174827   -0.01947562
     atom    9 type  1   force =     0.00000275    0.00007701    0.00133749
     atom   10 type  1   force =    -0.00000467    0.00007390    0.00134168
     atom   11 type  2   force =     0.00000201    0.00253299    0.00348626
     atom   12 type  2   force =    -0.00000024    0.00253141    0.00348479

     Total force =     0.075049     Total SCF correction =     0.009384
     SCF correction compared to forces is large: reduce conv_thr to get better values

     Writing output data file ./Os2Ir2/Os2Ir2_beef.save/

     General routines

     Parallel routines

   This run was terminated on:  15:57:52  24Jun2022

   JOB DONE.