     Program PWSCF v.6.6 starts on 24Jun2022 at 12: 4: 9

     R & G space division:  proc/nbgrp/npool/nimage =      37
     Fft bands division:     nmany     =       1
     Reading input from Os2Pt2.in
Warning: card &CELL ignored
Warning: card / ignored

     Current dimensions of program PWSCF are:
     Max number of different atomic species (ntypx) = 10
     Max number of k-points (npk) =  40000
     Max angular momentum in pseudopotentials (lmaxx) =  3
     Presently stress not available with electric field and gates

     Message from routine cell_base_init:
     DEPRECATED: use true lattice parameter, not A to a.u. conversion factor
     file Pt.pbe-n-rrkjus_psl.1.0.0.UPF: wavefunction(s)  6S renormalized

     IMPORTANT: XC functional enforced from input :
     Exchange-correlation= BEEF-VDW
                           (   1   4  43  14   2   0   0)
     Any further DFT definition will be discarded
     Please, verify this is what you really want

     Subspace diagonalization in iterative solution of the eigenvalue problem:
     a serial algorithm will be used

     Found symmetry operation: I + (  0.5000  0.0000  0.0000)
     This is a supercell, fractional translations are disabled

     bravais-lattice index     =            0
     lattice parameter (alat)  =       1.8897  a.u.
     unit-cell volume          =    4392.8144 (a.u.)^3
     number of atoms/cell      =           12
     number of atomic types    =            2
     number of electrons       =       156.00
     number of Kohn-Sham states=           94
     kinetic-energy cutoff     =      55.1240  Ry
     charge density cutoff     =     551.2396  Ry
     convergence threshold     =      1.0E-05
     mixing beta               =       0.1000
     number of iterations used =           10  plain     mixing
     Exchange-correlation= BEEF-VDW
                           (   1   4  43  14   2   0   0)

     celldm(1)=   1.889726  celldm(2)=   0.000000  celldm(3)=   0.000000
     celldm(4)=   0.000000  celldm(5)=   0.000000  celldm(6)=   0.000000

     crystal axes: (cart. coord. in units of alat)
               a(1) = (   5.501872   0.000000   0.000000 )
               a(2) = (  -2.750936   4.825177   0.000000 )
               a(3) = (   0.000000   0.000000  24.520121 )

     reciprocal axes: (cart. coord. in units 2 pi/alat)
               b(1) = (  0.181756  0.103623 -0.000000 )
               b(2) = (  0.000000  0.207246  0.000000 )
               b(3) = (  0.000000 -0.000000  0.040783 )

     PseudoPot. # 1 for Os read from file:
     ../pseudo/Os.pbe-spn-rrkjus_psl.1.0.0.UPF
     MD5 check sum: 3e7416ed594f6513d36e5cb31ba709d9
     Pseudo is Ultrasoft + core correction, Zval = 16.0
     Generated using "atomic" code by A. Dal Corso v.6.2.2
     Using radial grid of 1275 points,  6 beta functions with:
                l(1) =   0
                l(2) =   0
                l(3) =   1
                l(4) =   1
                l(5) =   2
                l(6) =   2
     Q(r) pseudized with 0 coefficients

     PseudoPot. # 2 for Pt read from file:
     ../pseudo/Pt.pbe-n-rrkjus_psl.1.0.0.UPF
     MD5 check sum: 6bc887cfe28d63a5fc1f72d35a7d3ef7
     Pseudo is Ultrasoft + core correction, Zval = 10.0
     Generated using "atomic" code by A. Dal Corso v.6.3
     Using radial grid of 1277 points,  6 beta functions with:
                l(1) =   0
                l(2) =   0
                l(3) =   1
                l(4) =   1
                l(5) =   2
                l(6) =   2
     Q(r) pseudized with 0 coefficients

     atomic species   valence    mass     pseudopotential
        Os            16.00   190.23000     Os( 1.00)
        Pt            10.00   195.08400     Pt( 1.00)

     No symmetry found

   Cartesian axes

     site n.     atom                  positions (alat units)
         1           Os  tau(   1) = (   0.0000000   0.0000000  10.0000000  )
         2           Os  tau(   2) = (   2.7509358   0.0000000  10.0000000  )
         3           Pt  tau(   3) = (   1.3754679   2.4125883  10.0000000  )
         4           Pt  tau(   4) = (  -1.3754679   2.4125883  10.0000000  )
         5           Os  tau(   5) = (   2.7509358   1.5683670  12.2600603  )
         6           Os  tau(   6) = (   0.0000000   1.5683670  12.2600603  )
         7           Pt  tau(   7) = (  -1.3754679   3.9809553  12.2600603  )
         8           Pt  tau(   8) = (   1.3754679   3.9809553  12.2600603  )
         9           Os  tau(   9) = (   0.0000067   3.0873722  14.4194277  )
        10           Os  tau(  10) = (   2.7509511   3.0873796  14.4194372  )
        11           Pt  tau(  11) = (   4.1263961   0.7627775  14.5230516  )
        12           Pt  tau(  12) = (   1.3754590   0.7627802  14.5230513  )

     number of k points=    74  Fermi-Dirac smearing, width (Ry)=  0.0100
                       cart. coord. in units 2pi/alat
        k(    1) = (   0.0000000   0.0000000   0.0000000), wk =   0.0138889
        k(    2) = (   0.0000000   0.0172705   0.0000000), wk =   0.0277778
        k(    3) = (   0.0000000   0.0345410   0.0000000), wk =   0.0277778
        k(    4) = (   0.0000000   0.0518116   0.0000000), wk =   0.0277778
        k(    5) = (   0.0000000   0.0690821   0.0000000), wk =   0.0277778
        k(    6) = (   0.0000000   0.0863526   0.0000000), wk =   0.0277778
        k(    7) = (   0.0000000  -0.1036231   0.0000000), wk =   0.0138889
        k(    8) = (   0.0151464   0.0086353   0.0000000), wk =   0.0277778
        k(    9) = (   0.0151464   0.0259058   0.0000000), wk =   0.0277778
        k(   10) = (   0.0151464   0.0431763   0.0000000), wk =   0.0277778
        k(   11) = (   0.0151464   0.0604468   0.0000000), wk =   0.0277778
        k(   12) = (   0.0151464   0.0777174   0.0000000), wk =   0.0277778
        k(   13) = (   0.0151464   0.0949879   0.0000000), wk =   0.0277778
        k(   14) = (   0.0151464  -0.0949879   0.0000000), wk =   0.0277778
        k(   15) = (   0.0151464  -0.0777174   0.0000000), wk =   0.0277778
        k(   16) = (   0.0151464  -0.0604468   0.0000000), wk =   0.0277778
        k(   17) = (   0.0151464  -0.0431763   0.0000000), wk =   0.0277778
        k(   18) = (   0.0151464  -0.0259058   0.0000000), wk =   0.0277778
        k(   19) = (   0.0151464  -0.0086353   0.0000000), wk =   0.0277778
        k(   20) = (   0.0302927   0.0172705   0.0000000), wk =   0.0277778
        k(   21) = (   0.0302927   0.0345410   0.0000000), wk =   0.0277778
        k(   22) = (   0.0302927   0.0518116   0.0000000), wk =   0.0277778
        k(   23) = (   0.0302927   0.0690821   0.0000000), wk =   0.0277778
        k(   24) = (   0.0302927   0.0863526   0.0000000), wk =   0.0277778
        k(   25) = (   0.0302927   0.1036231   0.0000000), wk =   0.0277778
        k(   26) = (   0.0302927  -0.0863526   0.0000000), wk =   0.0277778
        k(   27) = (   0.0302927  -0.0690821   0.0000000), wk =   0.0277778
        k(   28) = (   0.0302927  -0.0518116   0.0000000), wk =   0.0277778
        k(   29) = (   0.0302927  -0.0345410   0.0000000), wk =   0.0277778
        k(   30) = (   0.0302927  -0.0172705   0.0000000), wk =   0.0277778
        k(   31) = (   0.0302927  -0.0000000   0.0000000), wk =   0.0277778
        k(   32) = (   0.0454391   0.0259058   0.0000000), wk =   0.0277778
        k(   33) = (   0.0454391   0.0431763   0.0000000), wk =   0.0277778
        k(   34) = (   0.0454391   0.0604468   0.0000000), wk =   0.0277778
        k(   35) = (   0.0454391   0.0777174   0.0000000), wk =   0.0277778
        k(   36) = (   0.0454391   0.0949879   0.0000000), wk =   0.0277778
        k(   37) = (   0.0454391   0.1122584   0.0000000), wk =   0.0277778
        k(   38) = (   0.0454391  -0.0777174   0.0000000), wk =   0.0277778
        k(   39) = (   0.0454391  -0.0604468   0.0000000), wk =   0.0277778
        k(   40) = (   0.0454391  -0.0431763   0.0000000), wk =   0.0277778
        k(   41) = (   0.0454391  -0.0259058   0.0000000), wk =   0.0277778
        k(   42) = (   0.0454391  -0.0086353   0.0000000), wk =   0.0277778
        k(   43) = (   0.0454391   0.0086353   0.0000000), wk =   0.0277778
        k(   44) = (   0.0605854   0.0345410   0.0000000), wk =   0.0277778
        k(   45) = (   0.0605854   0.0518116   0.0000000), wk =   0.0277778
        k(   46) = (   0.0605854   0.0690821   0.0000000), wk =   0.0277778
        k(   47) = (   0.0605854   0.0863526   0.0000000), wk =   0.0277778
        k(   48) = (   0.0605854   0.1036231   0.0000000), wk =   0.0277778
        k(   49) = (   0.0605854   0.1208937   0.0000000), wk =   0.0277778
        k(   50) = (   0.0605854  -0.0690821   0.0000000), wk =   0.0277778
        k(   51) = (   0.0605854  -0.0518116   0.0000000), wk =   0.0277778
        k(   52) = (   0.0605854  -0.0345410   0.0000000), wk =   0.0277778
        k(   53) = (   0.0605854  -0.0172705   0.0000000), wk =   0.0277778
        k(   54) = (   0.0605854   0.0000000   0.0000000), wk =   0.0277778
        k(   55) = (   0.0605854   0.0172705   0.0000000), wk =   0.0277778
        k(   56) = (   0.0757318   0.0431763   0.0000000), wk =   0.0277778
        k(   57) = (   0.0757318   0.0604468   0.0000000), wk =   0.0277778
        k(   58) = (   0.0757318   0.0777174   0.0000000), wk =   0.0277778
        k(   59) = (   0.0757318   0.0949879   0.0000000), wk =   0.0277778
        k(   60) = (   0.0757318   0.1122584   0.0000000), wk =   0.0277778
        k(   61) = (   0.0757318   0.1295289   0.0000000), wk =   0.0277778
        k(   62) = (   0.0757318  -0.0604468   0.0000000), wk =   0.0277778
        k(   63) = (   0.0757318  -0.0431763   0.0000000), wk =   0.0277778
        k(   64) = (   0.0757318  -0.0259058   0.0000000), wk =   0.0277778
        k(   65) = (   0.0757318  -0.0086353   0.0000000), wk =   0.0277778
        k(   66) = (   0.0757318   0.0086353   0.0000000), wk =   0.0277778
        k(   67) = (   0.0757318   0.0259058   0.0000000), wk =   0.0277778
        k(   68) = (  -0.0908782  -0.0518116   0.0000000), wk =   0.0138889
        k(   69) = (  -0.0908782  -0.0345410   0.0000000), wk =   0.0277778
        k(   70) = (  -0.0908782  -0.0172705   0.0000000), wk =   0.0277778
        k(   71) = (  -0.0908782   0.0000000   0.0000000), wk =   0.0277778
        k(   72) = (  -0.0908782   0.0172705   0.0000000), wk =   0.0277778
        k(   73) = (  -0.0908782   0.0345410   0.0000000), wk =   0.0277778
        k(   74) = (  -0.0908782  -0.1554347   0.0000000), wk =   0.0138889

     Initial potential from superposition of free atoms

     starting charge  155.99752, renormalised to  156.00000

     negative rho (up, down):  7.518E-04 0.000E+00

     %%%%%%%%%%%%%%%%%%%%%%%%%%%%%%%%%%%%%%%%%%%%%%%%%%%%%%%%%%%%%%%%%%%%%%%%
     %                                                                      %
     % You are using vdW-DF, which was implemented by the Thonhauser group. %
     % Please cite the following two papers that made this development      %
     % possible and the two reviews that describe the various versions:     %
     %                                                                      %
     %   T. Thonhauser et al., PRL 115, 136402 (2015).                      %
     %   T. Thonhauser et al., PRB 76, 125112 (2007).                       %
     %   K. Berland et al., Rep. Prog. Phys. 78, 066501 (2015).             %
     %   D.C. Langreth et al., J. Phys.: Condens. Matter 21, 084203 (2009). %
     %                                                                      %
     %                                                                      %
     % If you are calculating the stress with vdW-DF, please also cite:     %
     %                                                                      %
     %   R. Sabatini et al., J. Phys.: Condens. Matter 24, 424209 (2012).   %
     %                                                                      %
     %%%%%%%%%%%%%%%%%%%%%%%%%%%%%%%%%%%%%%%%%%%%%%%%%%%%%%%%%%%%%%%%%%%%%%%%

     Adding external electric field

     Computed dipole along edir(3) :
        Dipole                0.0000 Ry au,          0.0000 Debye
        Dipole field          0.0000 Ry au,

        Potential amp.       -0.0000 Ry
        Total length         45.1779 bohr

     Starting wfcs are  114 randomized atomic wfcs

     Self-consistent Calculation

     iteration #  1     ecut=    55.12 Ry     beta= 0.10
     Davidson diagonalization with overlap
     ethr =  1.00E-02,  avg # of iterations =  2.8

[...]

     total energy              =   -1599.96877380 Ry
     estimated scf accuracy    <       3.76117426 Ry

[...]

     iteration #  8     ecut=    55.12 Ry     beta= 0.10
     Davidson diagonalization with overlap
     c_bands:  1 eigenvalues not converged
     c_bands:  1 eigenvalues not converged
     c_bands:  1 eigenvalues not converged
     ethr =  1.21E-05,  avg # of iterations =  7.0

[...]

     iteration #  9     ecut=    55.12 Ry     beta= 0.10
     Davidson diagonalization with overlap
     c_bands:  1 eigenvalues not converged
     ethr =  4.40E-06,  avg # of iterations =  5.4

[...]

     total energy              =   -1600.36130818 Ry
     estimated scf accuracy    <       0.00009389 Ry

     iteration # 14     ecut=    55.12 Ry     beta= 0.10
     Davidson diagonalization with overlap
     ethr =  3.22E-08,  avg # of iterations =  2.0

[...]

     Adding external electric field

     Computed dipole along edir(3) :
        Dipole                0.0049 Ry au,          0.0126 Debye
        Dipole field          0.0000 Ry au,

        Potential amp.       -0.0013 Ry
        Total length         45.1779 bohr

     End of self-consistent calculation

          k = 0.0000 0.0000 0.0000 ( 30457 PWs)   bands (ev):

   -85.3121 -85.2868 -84.8577 -84.8322 -84.7433 -84.7178 -44.7121 -44.7034
   -44.6552 -44.5976 -44.5517 -44.3638 -44.2701 -44.2533 -44.1325 -44.0865
   -44.0521 -44.0080 -44.0076 -43.9622 -43.9199 -43.9068 -43.8759 -43.8139
    -7.7730  -5.8409  -5.4742  -5.2344  -5.1626  -5.0978  -4.9279  -4.8971
    -4.7969  -4.4314  -4.3589  -4.3401  -4.1522  -4.1136  -3.9618  -2.8253
    -2.6303  -2.5077  -2.4496  -2.1825  -2.1208  -1.8849  -1.8329  -1.7229
    -1.6373  -1.5576  -1.5491  -1.2489  -1.2431  -1.1019  -1.0863  -1.0446
    -1.0323  -0.5874  -0.2632   0.0638   0.1719   0.2788   0.3734   0.4667
     0.5150   0.9066   0.9093   1.0617   1.3667   1.4208   1.5337   1.9913
     2.0056   2.0393   2.2090   2.2416   2.3663   2.3700   2.5446   2.6224
     2.7528   2.7680   2.8766   2.8831   2.8900   2.9042   3.2110   3.2565
     3.3821   3.5608   3.8763   4.7319   4.8834   5.0590

[...]

          k = 0.0757 0.0259 0.0000 ( 30378 PWs)   bands (ev):

[...]

          k =-0.0909-0.0518 0.0000 ( 30364 PWs)   bands (ev):

[...]

          k =-0.0909-0.1554 0.0000 ( 30364 PWs)   bands (ev):

   -85.2996 -85.2993 -84.8454 -84.8444 -84.7308 -84.7302 -44.6801 -44.6797
   -44.5762 -44.5759 -44.4866 -44.4862 -44.1395 -44.1385 -44.1111 -44.1101
   -44.0459 -44.0455 -44.0305 -44.0296 -43.9865 -43.9860 -43.8985 -43.8981
    -5.9179  -5.9178  -4.4468  -4.4467  -4.1443  -4.1443  -4.0838  -4.0837
    -3.9934  -3.9933  -3.5121  -3.5120  -3.1732  -3.1732  -3.0862  -3.0862
    -2.8208  -2.8207  -2.5058  -2.5057  -2.3437  -2.3437  -1.8459  -1.8459
    -1.7276  -1.7275  -1.6439  -1.6438  -1.5170  -1.5170  -1.3821  -1.3820
    -1.0314  -1.0313  -0.9100  -0.9099  -0.7503  -0.7502  -0.6436  -0.6435
    -0.2781  -0.2780   0.2124   0.2124   0.5897   0.5899   0.6670   0.6671
     0.8472   0.8474   1.0334   1.0335   1.1249   1.1250   1.4012   1.4013
     1.7277   1.7279   2.0261   2.0263   2.5477   2.5479   2.9083   2.9084
     3.8733   3.8733   4.6276   4.6277   5.3396   5.3397

     the Fermi energy is     1.7727 ev

!    total energy              =   -1600.36131451 Ry
     estimated scf accuracy    <       0.00000443 Ry
     smearing contrib. (-TS)   =      -0.07247492 Ry
     internal energy E=F+TS    =   -1600.28883959 Ry

     The total energy is F=E-TS. E is the sum of the following terms:
     one-electron contribution =  -13626.51492828 Ry
     hartree contribution      =    6839.51186439 Ry
     xc contribution           =    -383.90073242 Ry
     ewald contribution        =    5570.61495664 Ry
     electric field correction =       0.00000007 Ry

     convergence has been achieved in  14 iterations

     negative rho (up, down):  6.020E-04 0.000E+00

     Forces acting on atoms (cartesian axes, Ry/au):

     atom    1 type  1   force =     0.00001341    0.02081616    0.02570753
     atom    2 type  1   force =    -0.00000945    0.02078169    0.02565354
     atom    3 type  2   force =     0.00003825   -0.02313327   -0.00890532
     atom    4 type  2   force =    -0.00002802   -0.02313522   -0.00889233
     atom    5 type  1   force =    -0.00000667   -0.00603710   -0.00948271
     atom    6 type  1   force =     0.00000626   -0.00588411   -0.00933316
     atom    7 type  2   force =    -0.00014568    0.01001768   -0.01297713
     atom    8 type  2   force =     0.00014501    0.01003513   -0.01300122
     atom    9 type  1   force =     0.00000937   -0.00108567    0.00195834
     atom   10 type  1   force =    -0.00001403   -0.00107362    0.00184381
     atom   11 type  2   force =    -0.00005124   -0.00064668    0.00371237
     atom   12 type  2   force =     0.00004279   -0.00065500    0.00371628

     Total force =     0.065097     Total SCF correction =     0.012924
     SCF correction compared to forces is large: reduce conv_thr to get better values

     Writing output data file ./Os2Pt2/Os2Pt2_beef.save/

     General routines

     Parallel routines

   This run was terminated on:  12:51:30  24Jun2022

   JOB DONE.