     Program PWSCF v.6.6 starts on 23Jun2022 at 22: 0: 1

     R & G space division:  proc/nbgrp/npool/nimage =      37
     Fft bands division:     nmany     =       1
     Reading input from Pd2Ag2.in
Warning: card &CELL ignored
Warning: card / ignored

     Current dimensions of program PWSCF are:
     Max number of different atomic species (ntypx) = 10
     Max number of k-points (npk) =  40000
     Max angular momentum in pseudopotentials (lmaxx) =  3
     Presently stress not available with electric field and gates

     Message from routine cell_base_init:
     DEPRECATED: use true lattice parameter, not A to a.u. conversion factor
     file Pd.pbe-n-rrkjus_psl.1.0.0.UPF: wavefunction(s)  4D renormalized

     IMPORTANT: XC functional enforced from input :
     Exchange-correlation= BEEF-VDW
                           (   1   4  43  14   2   0   0)
     Any further DFT definition will be discarded
     Please, verify this is what you really want

     Subspace diagonalization in iterative solution of the eigenvalue problem:
     a serial algorithm will be used

     Found symmetry operation: I + (  0.5000  0.0000  0.0000)
     This is a supercell, fractional translations are disabled

     bravais-lattice index     =            0
     lattice parameter (alat)  =       1.8897  a.u.
     unit-cell volume          =    4838.4609 (a.u.)^3
     number of atoms/cell      =           12
     number of atomic types    =            2
     number of electrons       =       126.00
     number of Kohn-Sham states=           76
     kinetic-energy cutoff     =      55.1240  Ry
     charge density cutoff     =     551.2396  Ry
     convergence threshold     =      1.0E-05
     mixing beta               =       0.1000
     number of iterations used =           10  plain     mixing
     Exchange-correlation= BEEF-VDW
                           (   1   4  43  14   2   0   0)

     celldm(1)=   1.889726  celldm(2)=   0.000000  celldm(3)=   0.000000
     celldm(4)=   0.000000  celldm(5)=   0.000000  celldm(6)=   0.000000

     crystal axes: (cart. coord. in units of alat)
               a(1) = (   5.764607   0.000000   0.000000 )
               a(2) = (  -2.882303   5.030515   0.000000 )
               a(3) = (   0.000000   0.000000  24.724560 )

     reciprocal axes: (cart. coord. in units 2 pi/alat)
               b(1) = (  0.173472  0.099393 -0.000000 )
               b(2) = (  0.000000  0.198787  0.000000 )
               b(3) = (  0.000000 -0.000000  0.040446 )

     PseudoPot. # 1 for Pd read from file:
     ../pseudo/Pd.pbe-n-rrkjus_psl.1.0.0.UPF
     MD5 check sum: d9f693bf1c5b493397a6bd6f2231cfc3
     Pseudo is Ultrasoft + core correction, Zval = 10.0
     Generated using "atomic" code by A. Dal Corso v.6.3
     Using radial grid of 1235 points,  6 beta functions with:
                l(1) =   0
                l(2) =   0
                l(3) =   1
                l(4) =   1
                l(5) =   2
                l(6) =   2
     Q(r) pseudized with 0 coefficients

     PseudoPot. # 2 for Ag read from file:
     ../pseudo/Ag.pbe-n-rrkjus_psl.1.0.0.UPF
     MD5 check sum: d841cbfac2b0861aec33b46768a516bf
     Pseudo is Ultrasoft + core correction, Zval = 11.0
     Generated using "atomic" code by A. Dal Corso v.6.2.2
     Using radial grid of 1237 points,  6 beta functions with:
                l(1) =   0
                l(2) =   0
                l(3) =   1
                l(4) =   1
                l(5) =   2
                l(6) =   2
     Q(r) pseudized with 0 coefficients

     atomic species   valence    mass     pseudopotential
        Pd            10.00   106.42000     Pd( 1.00)
        Ag            11.00   107.86820     Ag( 1.00)

     No symmetry found

   Cartesian axes

     site n.     atom                  positions (alat units)
         1           Pd  tau(   1) = (   0.0000000   0.0000000  10.0000000  )
         2           Pd  tau(   2) = (   2.8823034   0.0000000  10.0000000  )
         3           Ag  tau(   3) = (   1.4411517   2.5152574  10.0000000  )
         4           Ag  tau(   4) = (  -1.4411517   2.5152574  10.0000000  )
         5           Pd  tau(   5) = (   2.8823034   1.6514559  12.3622800  )
         6           Pd  tau(   6) = (   0.0000000   1.6514559  12.3622800  )
         7           Ag  tau(   7) = (  -1.4411517   4.1667132  12.3622800  )
         8           Ag  tau(   8) = (   1.4411517   4.1667132  12.3622800  )
         9           Pd  tau(   9) = (  -0.0000002   3.2866913  14.6824627  )
        10           Pd  tau(  10) = (   2.8823037   3.2866913  14.6824616  )
        11           Ag  tau(  11) = (   4.3234553   0.7977121  14.7644377  )
        12           Ag  tau(  12) = (   1.4411516   0.7977113  14.7644383  )

     number of k points=    74  Fermi-Dirac smearing, width (Ry)=  0.0100
                       cart. coord. in units 2pi/alat
        k(    1) = (   0.0000000   0.0000000   0.0000000), wk =   0.0138889
        k(    2) = (   0.0000000   0.0165656   0.0000000), wk =   0.0277778
        k(    3) = (   0.0000000   0.0331311   0.0000000), wk =   0.0277778
        k(    4) = (   0.0000000   0.0496967   0.0000000), wk =   0.0277778
        k(    5) = (   0.0000000   0.0662623   0.0000000), wk =   0.0277778
        k(    6) = (   0.0000000   0.0828278   0.0000000), wk =   0.0277778
        k(    7) = (   0.0000000  -0.0993934   0.0000000), wk =   0.0138889
        k(    8) = (   0.0144560   0.0082828   0.0000000), wk =   0.0277778
        k(    9) = (   0.0144560   0.0248483   0.0000000), wk =   0.0277778
        k(   10) = (   0.0144560   0.0414139   0.0000000), wk =   0.0277778
        k(   11) = (   0.0144560   0.0579795   0.0000000), wk =   0.0277778
        k(   12) = (   0.0144560   0.0745451   0.0000000), wk =   0.0277778
        k(   13) = (   0.0144560   0.0911106   0.0000000), wk =   0.0277778
        k(   14) = (   0.0144560  -0.0911106   0.0000000), wk =   0.0277778
        k(   15) = (   0.0144560  -0.0745451   0.0000000), wk =   0.0277778
        k(   16) = (   0.0144560  -0.0579795   0.0000000), wk =   0.0277778
        k(   17) = (   0.0144560  -0.0414139   0.0000000), wk =   0.0277778
        k(   18) = (   0.0144560  -0.0248484   0.0000000), wk =   0.0277778
        k(   19) = (   0.0144560  -0.0082828   0.0000000), wk =   0.0277778
        k(   20) = (   0.0289121   0.0165656   0.0000000), wk =   0.0277778
        k(   21) = (   0.0289121   0.0331311   0.0000000), wk =   0.0277778
        k(   22) = (   0.0289121   0.0496967   0.0000000), wk =   0.0277778
        k(   23) = (   0.0289121   0.0662623   0.0000000), wk =   0.0277778
        k(   24) = (   0.0289121   0.0828278   0.0000000), wk =   0.0277778
        k(   25) = (   0.0289121   0.0993934   0.0000000), wk =   0.0277778
        k(   26) = (   0.0289121  -0.0828278   0.0000000), wk =   0.0277778
        k(   27) = (   0.0289121  -0.0662623   0.0000000), wk =   0.0277778
        k(   28) = (   0.0289121  -0.0496967   0.0000000), wk =   0.0277778
        k(   29) = (   0.0289121  -0.0331311   0.0000000), wk =   0.0277778
        k(   30) = (   0.0289121  -0.0165656   0.0000000), wk =   0.0277778
        k(   31) = (   0.0289121  -0.0000000   0.0000000), wk =   0.0277778
        k(   32) = (   0.0433681   0.0248483   0.0000000), wk =   0.0277778
        k(   33) = (   0.0433681   0.0414139   0.0000000), wk =   0.0277778
        k(   34) = (   0.0433681   0.0579795   0.0000000), wk =   0.0277778
        k(   35) = (   0.0433681   0.0745450   0.0000000), wk =   0.0277778
        k(   36) = (   0.0433681   0.0911106   0.0000000), wk =   0.0277778
        k(   37) = (   0.0433681   0.1076762   0.0000000), wk =   0.0277778
        k(   38) = (   0.0433681  -0.0745451   0.0000000), wk =   0.0277778
        k(   39) = (   0.0433681  -0.0579795   0.0000000), wk =   0.0277778
        k(   40) = (   0.0433681  -0.0414139   0.0000000), wk =   0.0277778
        k(   41) = (   0.0433681  -0.0248484   0.0000000), wk =   0.0277778
        k(   42) = (   0.0433681  -0.0082828   0.0000000), wk =   0.0277778
        k(   43) = (   0.0433681   0.0082828   0.0000000), wk =   0.0277778
        k(   44) = (   0.0578241   0.0331311   0.0000000), wk =   0.0277778
        k(   45) = (   0.0578241   0.0496967   0.0000000), wk =   0.0277778
        k(   46) = (   0.0578241   0.0662623   0.0000000), wk =   0.0277778
        k(   47) = (   0.0578241   0.0828278   0.0000000), wk =   0.0277778
        k(   48) = (   0.0578241   0.0993934   0.0000000), wk =   0.0277778
        k(   49) = (   0.0578241   0.1159590   0.0000000), wk =   0.0277778
        k(   50) = (   0.0578241  -0.0662623   0.0000000), wk =   0.0277778
        k(   51) = (   0.0578241  -0.0496967   0.0000000), wk =   0.0277778
        k(   52) = (   0.0578241  -0.0331311   0.0000000), wk =   0.0277778
        k(   53) = (   0.0578241  -0.0165656   0.0000000), wk =   0.0277778
        k(   54) = (   0.0578241  -0.0000000   0.0000000), wk =   0.0277778
        k(   55) = (   0.0578241   0.0165656   0.0000000), wk =   0.0277778
        k(   56) = (   0.0722802   0.0414139   0.0000000), wk =   0.0277778
        k(   57) = (   0.0722802   0.0579795   0.0000000), wk =   0.0277778
        k(   58) = (   0.0722802   0.0745450   0.0000000), wk =   0.0277778
        k(   59) = (   0.0722802   0.0911106   0.0000000), wk =   0.0277778
        k(   60) = (   0.0722802   0.1076762   0.0000000), wk =   0.0277778
        k(   61) = (   0.0722802   0.1242417   0.0000000), wk =   0.0277778
        k(   62) = (   0.0722802  -0.0579795   0.0000000), wk =   0.0277778
        k(   63) = (   0.0722802  -0.0414139   0.0000000), wk =   0.0277778
        k(   64) = (   0.0722802  -0.0248484   0.0000000), wk =   0.0277778
        k(   65) = (   0.0722802  -0.0082828   0.0000000), wk =   0.0277778
        k(   66) = (   0.0722802   0.0082828   0.0000000), wk =   0.0277778
        k(   67) = (   0.0722802   0.0248483   0.0000000), wk =   0.0277778
        k(   68) = (  -0.0867362  -0.0496967   0.0000000), wk =   0.0138889
        k(   69) = (  -0.0867362  -0.0331311   0.0000000), wk =   0.0277778
        k(   70) = (  -0.0867362  -0.0165656   0.0000000), wk =   0.0277778
        k(   71) = (  -0.0867362   0.0000000   0.0000000), wk =   0.0277778
        k(   72) = (  -0.0867362   0.0165656   0.0000000), wk =   0.0277778
        k(   73) = (  -0.0867362   0.0331311   0.0000000), wk =   0.0277778
        k(   74) = (  -0.0867362  -0.1490901   0.0000000), wk =   0.0138889

     Initial potential from superposition of free atoms

     starting charge  125.99418, renormalised to  126.00000

     negative rho (up, down):  9.254E-04 0.000E+00

     %%%%%%%%%%%%%%%%%%%%%%%%%%%%%%%%%%%%%%%%%%%%%%%%%%%%%%%%%%%%%%%%%%%%%%%%
     %                                                                      %
     % You are using vdW-DF, which was implemented by the Thonhauser group. %
     % Please cite the following two papers that made this development      %
     % possible and the two reviews that describe the various versions:     %
     %                                                                      %
     %   T. Thonhauser et al., PRL 115, 136402 (2015).                      %
     %   T. Thonhauser et al., PRB 76, 125112 (2007).                       %
     %   K. Berland et al., Rep. Prog. Phys. 78, 066501 (2015).             %
     %   D.C. Langreth et al., J. Phys.: Condens. Matter 21, 084203 (2009). %
     %                                                                      %
     %                                                                      %
     % If you are calculating the stress with vdW-DF, please also cite:     %
     %                                                                      %
     %   R. Sabatini et al., J. Phys.: Condens. Matter 24, 424209 (2012).   %
     %                                                                      %
     %%%%%%%%%%%%%%%%%%%%%%%%%%%%%%%%%%%%%%%%%%%%%%%%%%%%%%%%%%%%%%%%%%%%%%%%

     Adding external electric field

     Computed dipole along edir(3) :
        Dipole               -0.0000 Ry au,         -0.0001 Debye
        Dipole field         -0.0000 Ry au,

        Potential amp.        0.0000 Ry
        Total length         45.5546 bohr

     Starting wfcs are  108 randomized atomic wfcs

     Self-consistent Calculation

     iteration #  1     ecut=    55.12 Ry     beta= 0.10
     Davidson diagonalization with overlap
     ethr =  1.00E-02,  avg # of iterations =  3.3

     Threshold (ethr) on eigenvalues was too large:
     Diagonalizing with lowered threshold

     Davidson diagonalization with overlap
     ethr =  3.26E-04,  avg # of iterations =  6.6

[...]

     total energy              =    -921.40548859 Ry
     estimated scf accuracy    <       0.43006569 Ry

[...]

     iteration #  3     ecut=    55.12 Ry     beta= 0.10
     Davidson diagonalization with overlap
     c_bands:  1 eigenvalues not converged
     c_bands:  1 eigenvalues not converged
     c_bands:  2 eigenvalues not converged
     c_bands:  1 eigenvalues not converged
     c_bands:  1 eigenvalues not converged
     ethr =  1.17E-04,  avg # of iterations =  6.4

[...]

     iteration #  5     ecut=    55.12 Ry     beta= 0.10
     Davidson diagonalization with overlap
     c_bands:  1 eigenvalues not converged
     ethr =  1.73E-05,  avg # of iterations =  2.4

[...]

     total energy              =    -921.39372068 Ry
     estimated scf accuracy    <       0.00009349 Ry

     iteration # 12     ecut=    55.12 Ry     beta= 0.10
     Davidson diagonalization with overlap
     ethr =  7.42E-08,  avg # of iterations =  2.1

[...]

     Adding external electric field

     Computed dipole along edir(3) :
        Dipole                0.0093 Ry au,          0.0236 Debye
        Dipole field          0.0000 Ry au,

        Potential amp.       -0.0022 Ry
        Total length         45.5546 bohr

     End of self-consistent calculation

          k = 0.0000 0.0000 0.0000 ( 33357 PWs)   bands (ev):

    -6.0449  -5.3859  -5.2439  -5.2214  -5.2157  -5.1936  -5.0827  -5.0186
    -4.9841  -4.9814  -4.9382  -4.8101  -4.7849  -4.6645  -4.4848  -4.4689
    -4.1887  -4.0987  -4.0433  -4.0187  -3.9421  -3.8187  -3.8055  -3.6831
    -3.6320  -3.5921  -3.5653  -3.5193  -3.4715  -3.2972  -3.1272  -2.8597
    -2.6845  -2.6411  -2.6311  -2.3195  -2.3149  -2.1733  -2.0645  -1.9905
    -1.9239  -1.7826  -1.6316  -1.5843  -1.4681  -1.4412  -1.4208  -1.3897
    -1.2077  -1.0889  -1.0507  -0.9034  -0.8978  -0.8935  -0.8064  -0.7793
    -0.6692  -0.6319  -0.5925  -0.5511  -0.4742  -0.3844  -0.1350   1.0322
     1.4074   1.5350   1.6702   2.4693   2.5329   2.5790   2.7869   2.9206
     2.9543   3.9823   4.3340   4.6516

[...]

          k = 0.0723 0.0248 0.0000 ( 33438 PWs)   bands (ev):

[...]

          k =-0.0867-0.0497 0.0000 ( 33412 PWs)   bands (ev):

[...]

          k =-0.0867-0.1491 0.0000 ( 33412 PWs)   bands (ev):

    -4.9672  -4.9671  -4.8274  -4.8274  -4.6907  -4.6907  -4.5897  -4.5897
    -4.4976  -4.4976  -4.4051  -4.4051  -4.3686  -4.3686  -4.2350  -4.2350
    -4.1101  -4.1101  -4.0683  -4.0683  -3.9773  -3.9773  -3.8524  -3.8524
    -3.8411  -3.8411  -3.7319  -3.7319  -3.6010  -3.6010  -3.5326  -3.5326
    -3.0486  -3.0486  -2.5001  -2.5001  -2.3352  -2.3352  -2.1253  -2.1253
    -1.9791  -1.9791  -1.7768  -1.7768  -1.7122  -1.7122  -1.6478  -1.6478
    -1.6165  -1.6165  -1.5358  -1.5358  -1.4623  -1.4623  -1.4291  -1.4291
    -1.1355  -1.1355  -0.9577  -0.9577  -0.8647  -0.8647  -0.6513  -0.6513
     1.3066   1.3067   1.3480   1.3480   2.3915   2.3915   3.6291   3.6291
     4.4488   4.4488   5.3625   5.3626

     the Fermi energy is    -0.2394 ev

!    total energy              =    -921.39372766 Ry
     estimated scf accuracy    <       0.00000765 Ry
     smearing contrib. (-TS)   =      -0.03349704 Ry
     internal energy E=F+TS    =    -921.36023062 Ry

     The total energy is F=E-TS. E is the sum of the following terms:
     one-electron contribution =   -7877.34658737 Ry
     hartree contribution      =    4026.85377758 Ry
     xc contribution           =    -273.87449194 Ry
     ewald contribution        =    3203.00707088 Ry
     electric field correction =       0.00000022 Ry

     convergence has been achieved in  12 iterations

     negative rho (up, down):  8.789E-04 0.000E+00

     Forces acting on atoms (cartesian axes, Ry/au):

     atom    1 type  1   force =     0.00000050    0.00393628    0.00501406
     atom    2 type  1   force =    -0.00000159    0.00393827    0.00501275
     atom    3 type  2   force =     0.00000058   -0.00313536   -0.00766168
     atom    4 type  2   force =     0.00000132   -0.00314316   -0.00765910
     atom    5 type  1   force =    -0.00000025   -0.00293882    0.00040918
     atom    6 type  1   force =    -0.00000136   -0.00293736    0.00040476
     atom    7 type  2   force =    -0.00000180    0.00315528   -0.00130103
     atom    8 type  2   force =    -0.00000187    0.00315407   -0.00130281
     atom    9 type  1   force =     0.00000134    0.00069207    0.00099101
     atom   10 type  1   force =     0.00000040    0.00069161    0.00098731
     atom   11 type  2   force =     0.00000358   -0.00170696    0.00255650
     atom   12 type  2   force =    -0.00000087   -0.00170592    0.00254905

     Total force =     0.016763     Total SCF correction =     0.014255
     SCF correction compared to forces is large: reduce conv_thr to get better values

     Writing output data file ./Pd2Ag2/Pd2Ag2_beef.save/

     General routines

     Parallel routines

   This run was terminated on:  22:23:21  23Jun2022

   JOB DONE.