     Program PWSCF v.6.6 starts on 23Jun2022 at 22:24:46

     R & G space division:  proc/nbgrp/npool/nimage =      37
     Fft bands division:     nmany     =       1
     Reading input from Pd2Au2.in
Warning: card &CELL ignored
Warning: card / ignored

     Current dimensions of program PWSCF are:
     Max number of different atomic species (ntypx) = 10
     Max number of k-points (npk) =  40000
     Max angular momentum in pseudopotentials (lmaxx) =  3
     Presently stress not available with electric field and gates

     Message from routine cell_base_init:
     DEPRECATED: use true lattice parameter, not A to a.u. conversion factor
     file Pd.pbe-n-rrkjus_psl.1.0.0.UPF: wavefunction(s)  4D renormalized

     IMPORTANT: XC functional enforced from input :
     Exchange-correlation= BEEF-VDW
                           (   1   4  43  14   2   0   0)
     Any further DFT definition will be discarded
     Please, verify this is what you really want

     Subspace diagonalization in iterative solution of the eigenvalue problem:
     a serial algorithm will be used

     Found symmetry operation: I + ( -0.5000  0.5000  0.0000)
     This is a supercell, fractional translations are disabled

     bravais-lattice index     =            0
     lattice parameter (alat)  =       1.8897  a.u.
     unit-cell volume          =    4843.1446 (a.u.)^3
     number of atoms/cell      =           12
     number of atomic types    =            2
     number of electrons       =       126.00
     number of Kohn-Sham states=           76
     kinetic-energy cutoff     =      55.1240  Ry
     charge density cutoff     =     551.2396  Ry
     convergence threshold     =      1.0E-05
     mixing beta               =       0.1000
     number of iterations used =           10  plain     mixing
     Exchange-correlation= BEEF-VDW
                           (   1   4  43  14   2   0   0)

     celldm(1)=   1.889726  celldm(2)=   0.000000  celldm(3)=   0.000000
     celldm(4)=   0.000000  celldm(5)=   0.000000  celldm(6)=   0.000000

     crystal axes: (cart. coord. in units of alat)
               a(1) = (   5.775225   0.000000   0.000000 )
               a(2) = (   2.845222   5.025728   0.000000 )
               a(3) = (   0.000000   0.000000  24.726522 )

     reciprocal axes: (cart. coord. in units 2 pi/alat)
               b(1) = (  0.173153 -0.098028  0.000000 )
               b(2) = (  0.000000  0.198976  0.000000 )
               b(3) = (  0.000000  0.000000  0.040442 )

     PseudoPot. # 1 for Pd read from file:
     ../pseudo/Pd.pbe-n-rrkjus_psl.1.0.0.UPF
     MD5 check sum: d9f693bf1c5b493397a6bd6f2231cfc3
     Pseudo is Ultrasoft + core correction, Zval = 10.0
     Generated using "atomic" code by A. Dal Corso v.6.3
     Using radial grid of 1235 points,  6 beta functions with:
                l(1) =   0
                l(2) =   0
                l(3) =   1
                l(4) =   1
                l(5) =   2
                l(6) =   2
     Q(r) pseudized with 0 coefficients

     PseudoPot. # 2 for Au read from file:
     ../pseudo/Au.pbe-n-rrkjus_psl.1.0.0.UPF
     MD5 check sum: d7e77ba19504afed2c9b41c931dde4f0
     Pseudo is Ultrasoft + core correction, Zval = 11.0
     Generated using "atomic" code by A. Dal Corso v.6.3
     Using radial grid of 1279 points,  6 beta functions with:
                l(1) =   0
                l(2) =   0
                l(3) =   1
                l(4) =   1
                l(5) =   2
                l(6) =   2
     Q(r) pseudized with 0 coefficients

     atomic species   valence    mass     pseudopotential
        Pd            10.00   106.42000     Pd( 1.00)
        Au            11.00   196.96657     Au( 1.00)

     No symmetry found

   Cartesian axes

     site n.     atom                  positions (alat units)
         1           Pd  tau(   1) = (   0.0000000   0.0000000  10.0000000  )
         2           Pd  tau(   2) = (   4.3102238   2.5128639  10.0000000  )
         3           Au  tau(   3) = (   2.8876127   0.0000000  10.0000000  )
         4           Au  tau(   4) = (   1.4226111   2.5128639  10.0000000  )
         5           Pd  tau(   5) = (   5.7752254   3.3669610  12.3632611  )
         6           Pd  tau(   6) = (   1.4650016   0.8540971  12.3632611  )
         7           Au  tau(   7) = (   2.8876127   3.3669610  12.3632611  )
         8           Au  tau(   8) = (   4.3526143   0.8540971  12.3632611  )
         9           Pd  tau(   9) = (   2.9269155   1.7063974  14.7116986  )
        10           Pd  tau(  10) = (   7.2371327   4.2192522  14.7117001  )
        11           Au  tau(  11) = (   5.8310094   1.7160140  14.7750591  )
        12           Au  tau(  12) = (   4.3660251   4.2288612  14.7750522  )

     number of k points=    74  Fermi-Dirac smearing, width (Ry)=  0.0100
                       cart. coord. in units 2pi/alat
        k(    1) = (   0.0000000   0.0000000   0.0000000), wk =   0.0138889
        k(    2) = (   0.0000000   0.0165813   0.0000000), wk =   0.0277778
        k(    3) = (   0.0000000   0.0331627   0.0000000), wk =   0.0277778
        k(    4) = (   0.0000000   0.0497440   0.0000000), wk =   0.0277778
        k(    5) = (   0.0000000   0.0663254   0.0000000), wk =   0.0277778
        k(    6) = (   0.0000000   0.0829067   0.0000000), wk =   0.0277778
        k(    7) = (   0.0000000  -0.0994881   0.0000000), wk =   0.0138889
        k(    8) = (   0.0144295  -0.0081690   0.0000000), wk =   0.0277778
        k(    9) = (   0.0144295   0.0084124   0.0000000), wk =   0.0277778
        k(   10) = (   0.0144295   0.0249937   0.0000000), wk =   0.0277778
        k(   11) = (   0.0144295   0.0415751   0.0000000), wk =   0.0277778
        k(   12) = (   0.0144295   0.0581564   0.0000000), wk =   0.0277778
        k(   13) = (   0.0144295   0.0747378   0.0000000), wk =   0.0277778
        k(   14) = (   0.0144295  -0.1076570   0.0000000), wk =   0.0277778
        k(   15) = (   0.0144295  -0.0910757   0.0000000), wk =   0.0277778
        k(   16) = (   0.0144295  -0.0744943   0.0000000), wk =   0.0277778
        k(   17) = (   0.0144295  -0.0579130   0.0000000), wk =   0.0277778
        k(   18) = (   0.0144295  -0.0413317   0.0000000), wk =   0.0277778
        k(   19) = (   0.0144295  -0.0247503   0.0000000), wk =   0.0277778
        k(   20) = (   0.0288589  -0.0163379   0.0000000), wk =   0.0277778
        k(   21) = (   0.0288589   0.0002434   0.0000000), wk =   0.0277778
        k(   22) = (   0.0288589   0.0168248   0.0000000), wk =   0.0277778
        k(   23) = (   0.0288589   0.0334061   0.0000000), wk =   0.0277778
        k(   24) = (   0.0288589   0.0499875   0.0000000), wk =   0.0277778
        k(   25) = (   0.0288589   0.0665688   0.0000000), wk =   0.0277778
        k(   26) = (   0.0288589  -0.1158260   0.0000000), wk =   0.0277778
        k(   27) = (   0.0288589  -0.0992447   0.0000000), wk =   0.0277778
        k(   28) = (   0.0288589  -0.0826633   0.0000000), wk =   0.0277778
        k(   29) = (   0.0288589  -0.0660820   0.0000000), wk =   0.0277778
        k(   30) = (   0.0288589  -0.0495006   0.0000000), wk =   0.0277778
        k(   31) = (   0.0288589  -0.0329193   0.0000000), wk =   0.0277778
        k(   32) = (   0.0432884  -0.0245069   0.0000000), wk =   0.0277778
        k(   33) = (   0.0432884  -0.0079255   0.0000000), wk =   0.0277778
        k(   34) = (   0.0432884   0.0086558   0.0000000), wk =   0.0277778
        k(   35) = (   0.0432884   0.0252371   0.0000000), wk =   0.0277778
        k(   36) = (   0.0432884   0.0418185   0.0000000), wk =   0.0277778
        k(   37) = (   0.0432884   0.0583998   0.0000000), wk =   0.0277778
        k(   38) = (   0.0432884  -0.1239950   0.0000000), wk =   0.0277778
        k(   39) = (   0.0432884  -0.1074136   0.0000000), wk =   0.0277778
        k(   40) = (   0.0432884  -0.0908323   0.0000000), wk =   0.0277778
        k(   41) = (   0.0432884  -0.0742509   0.0000000), wk =   0.0277778
        k(   42) = (   0.0432884  -0.0576696   0.0000000), wk =   0.0277778
        k(   43) = (   0.0432884  -0.0410882   0.0000000), wk =   0.0277778
        k(   44) = (   0.0577178  -0.0326759   0.0000000), wk =   0.0277778
        k(   45) = (   0.0577178  -0.0160945   0.0000000), wk =   0.0277778
        k(   46) = (   0.0577178   0.0004868   0.0000000), wk =   0.0277778
        k(   47) = (   0.0577178   0.0170682   0.0000000), wk =   0.0277778
        k(   48) = (   0.0577178   0.0336495   0.0000000), wk =   0.0277778
        k(   49) = (   0.0577178   0.0502309   0.0000000), wk =   0.0277778
        k(   50) = (   0.0577178  -0.1321639   0.0000000), wk =   0.0277778
        k(   51) = (   0.0577178  -0.1155826   0.0000000), wk =   0.0277778
        k(   52) = (   0.0577178  -0.0990012   0.0000000), wk =   0.0277778
        k(   53) = (   0.0577178  -0.0824199   0.0000000), wk =   0.0277778
        k(   54) = (   0.0577178  -0.0658386   0.0000000), wk =   0.0277778
        k(   55) = (   0.0577178  -0.0492572   0.0000000), wk =   0.0277778
        k(   56) = (   0.0721473  -0.0408448   0.0000000), wk =   0.0277778
        k(   57) = (   0.0721473  -0.0242635   0.0000000), wk =   0.0277778
        k(   58) = (   0.0721473  -0.0076821   0.0000000), wk =   0.0277778
        k(   59) = (   0.0721473   0.0088992   0.0000000), wk =   0.0277778
        k(   60) = (   0.0721473   0.0254806   0.0000000), wk =   0.0277778
        k(   61) = (   0.0721473   0.0420619   0.0000000), wk =   0.0277778
        k(   62) = (   0.0721473  -0.1403329   0.0000000), wk =   0.0277778
        k(   63) = (   0.0721473  -0.1237516   0.0000000), wk =   0.0277778
        k(   64) = (   0.0721473  -0.1071702   0.0000000), wk =   0.0277778
        k(   65) = (   0.0721473  -0.0905889   0.0000000), wk =   0.0277778
        k(   66) = (   0.0721473  -0.0740075   0.0000000), wk =   0.0277778
        k(   67) = (   0.0721473  -0.0574262   0.0000000), wk =   0.0277778
        k(   68) = (  -0.0865767   0.0490138   0.0000000), wk =   0.0138889
        k(   69) = (  -0.0865767   0.0655951   0.0000000), wk =   0.0277778
        k(   70) = (  -0.0865767   0.0821765   0.0000000), wk =   0.0277778
        k(   71) = (  -0.0865767   0.0987578   0.0000000), wk =   0.0277778
        k(   72) = (  -0.0865767   0.1153392   0.0000000), wk =   0.0277778
        k(   73) = (  -0.0865767   0.1319205   0.0000000), wk =   0.0277778
        k(   74) = (  -0.0865767  -0.0504743   0.0000000), wk =   0.0138889

     Initial potential from superposition of free atoms

     starting charge  125.99591, renormalised to  126.00000

     negative rho (up, down):  1.340E-03 0.000E+00

     %%%%%%%%%%%%%%%%%%%%%%%%%%%%%%%%%%%%%%%%%%%%%%%%%%%%%%%%%%%%%%%%%%%%%%%%
     %                                                                      %
     % You are using vdW-DF, which was implemented by the Thonhauser group. %
     % Please cite the following two papers that made this development      %
     % possible and the two reviews that describe the various versions:     %
     %                                                                      %
     %   T. Thonhauser et al., PRL 115, 136402 (2015).                      %
     %   T. Thonhauser et al., PRB 76, 125112 (2007).                       %
     %   K. Berland et al., Rep. Prog. Phys. 78, 066501 (2015).             %
     %   D.C. Langreth et al., J. Phys.: Condens. Matter 21, 084203 (2009). %
     %                                                                      %
     %                                                                      %
     % If you are calculating the stress with vdW-DF, please also cite:     %
     %                                                                      %
     %   R. Sabatini et al., J. Phys.: Condens. Matter 24, 424209 (2012).   %
     %                                                                      %
     %%%%%%%%%%%%%%%%%%%%%%%%%%%%%%%%%%%%%%%%%%%%%%%%%%%%%%%%%%%%%%%%%%%%%%%%

     Adding external electric field

     Computed dipole along edir(3) :
        Dipole               -0.0001 Ry au,         -0.0001 Debye
        Dipole field         -0.0000 Ry au,

        Potential amp.        0.0000 Ry
        Total length         45.5582 bohr

     Starting wfcs are  108 randomized atomic wfcs

     Self-consistent Calculation

     iteration #  1     ecut=    55.12 Ry     beta= 0.10
     Davidson diagonalization with overlap
     ethr =  1.00E-02,  avg # of iterations =  3.4

     Threshold (ethr) on eigenvalues was too large:
     Diagonalizing with lowered threshold

     Davidson diagonalization with overlap
     ethr =  6.99E-04,  avg # of iterations =  2.1

[...]

     total energy              =    -929.97075490 Ry
     estimated scf accuracy    <       0.91163657 Ry

[...]

     iteration #  3     ecut=    55.12 Ry     beta= 0.10
     Davidson diagonalization with overlap
     c_bands:  1 eigenvalues not converged
     c_bands:  1 eigenvalues not converged
     ethr =  1.77E-04,  avg # of iterations =  7.3

[...]

     iteration #  9     ecut=    55.12 Ry     beta= 0.10
     Davidson diagonalization with overlap
     c_bands:  1 eigenvalues not converged
     c_bands:  1 eigenvalues not converged
     ethr =  1.86E-06,  avg # of iterations =  7.4

[...]

     total energy              =    -930.00273500 Ry
     estimated scf accuracy    <       0.00031635 Ry

     iteration # 12     ecut=    55.12 Ry     beta= 0.10
     Davidson diagonalization with overlap
     ethr =  9.65E-08,  avg # of iterations =  2.0

[...]

     Adding external electric field

     Computed dipole along edir(3) :
        Dipole               -0.0089 Ry au,         -0.0227 Debye
        Dipole field         -0.0000 Ry au,

        Potential amp.        0.0021 Ry
        Total length         45.5582 bohr

     End of self-consistent calculation

          k = 0.0000 0.0000 0.0000 ( 33345 PWs)   bands (ev):

    -7.0305  -5.8032  -5.5940  -5.3802  -5.1890  -5.1623  -5.1214  -5.0387
    -4.9246  -4.9015  -4.8617  -4.8434  -4.6541  -4.6395  -4.4501  -4.1078
    -3.8054  -3.7044  -3.6445  -3.6418  -3.5055  -3.3835  -3.3834  -3.2822
    -3.2342  -3.1236  -3.0705  -3.0334  -2.9575  -2.6071  -2.4412  -2.4288
    -2.4268  -2.2809  -2.1428  -1.8409  -1.8074  -1.7401  -1.7045  -1.5907
    -1.5577  -1.4089  -1.2786  -1.2102  -1.1901  -1.1723  -0.9280  -0.8893
    -0.8466  -0.8150  -0.7901  -0.6753  -0.6172  -0.6135  -0.5641  -0.5157
    -0.4887  -0.4154  -0.3737  -0.3269  -0.3260  -0.2072  -0.0954   1.1351
     1.3561   1.5757   1.6805   2.3354   2.5781   2.6195   2.6781   2.8150
     2.9934   4.0768   4.3111   4.8093

[...]

          k = 0.0721-0.0574 0.0000 ( 33492 PWs)   bands (ev):

[...]

          k =-0.0866 0.0490 0.0000 ( 33484 PWs)   bands (ev):

[...]

          k =-0.0866-0.0505 0.0000 ( 33442 PWs)   bands (ev):

    -6.0443  -5.5518  -5.1649  -4.9359  -4.8371  -4.6503  -4.6017  -4.5145
    -4.5117  -4.4307  -4.2269  -4.1290  -4.1118  -4.0227  -4.0217  -3.9413
    -3.9000  -3.6335  -3.4904  -3.4848  -3.2707  -3.2390  -3.2121  -3.1311
    -3.1289  -3.0685  -2.8729  -2.8240  -2.7784  -2.7628  -2.6982  -2.6921
    -2.6864  -2.5887  -2.5759  -2.5452  -2.5269  -2.3573  -2.3190  -2.3186
    -2.2016  -2.1091  -2.0307  -1.9389  -1.9084  -1.8882  -1.8866  -1.7340
    -1.4715  -1.3743  -1.3722  -1.2148  -1.1845  -1.1294  -1.1145  -1.0920
    -1.0662  -0.8881  -0.8650  -0.6036  -0.5835  -0.5523  -0.5046  -0.1199
     0.7590   1.2919   1.5446   1.8101   1.8554   2.6837   3.8200   3.9345
     4.0532   4.6512   5.7758   5.7887

     the Fermi energy is    -0.1693 ev

!    total energy              =    -930.00276549 Ry
     estimated scf accuracy    <       0.00000742 Ry
     smearing contrib. (-TS)   =      -0.04587738 Ry
     internal energy E=F+TS    =    -929.95688811 Ry

     The total energy is F=E-TS. E is the sum of the following terms:
     one-electron contribution =   -7741.95486463 Ry
     hartree contribution      =    3956.86095819 Ry
     xc contribution           =    -333.98533268 Ry
     ewald contribution        =    3189.12235080 Ry
     electric field correction =       0.00000021 Ry

     convergence has been achieved in  12 iterations

     negative rho (up, down):  1.334E-03 0.000E+00

     Forces acting on atoms (cartesian axes, Ry/au):

     atom    1 type  1   force =     0.00256491    0.00149497    0.00135073
     atom    2 type  1   force =     0.00256410    0.00149440    0.00135511
     atom    3 type  2   force =    -0.00469451   -0.00276082   -0.00922220
     atom    4 type  2   force =    -0.00467288   -0.00274436   -0.00920401
     atom    5 type  1   force =    -0.00206294   -0.00120305    0.00333547
     atom    6 type  1   force =    -0.00206648   -0.00120508    0.00333209
     atom    7 type  2   force =     0.00264419    0.00154593    0.00150375
     atom    8 type  2   force =     0.00265865    0.00156791    0.00150014
     atom    9 type  1   force =     0.00062522    0.00036264    0.00124297
     atom   10 type  1   force =     0.00062004    0.00036285    0.00124501
     atom   11 type  2   force =     0.00091126    0.00054454    0.00177987
     atom   12 type  2   force =     0.00090844    0.00054007    0.00178108

     Total force =     0.017885     Total SCF correction =     0.007641
     SCF correction compared to forces is large: reduce conv_thr to get better values

     Writing output data file ./Pd2Au2/Pd2Au2_beef.save/

     General routines

     Parallel routines

   This run was terminated on:  22:49:37  23Jun2022

   JOB DONE.