     Program PWSCF v.6.6 starts on 23Jun2022 at 22:50:29

     R & G space division:  proc/nbgrp/npool/nimage =      37
     Fft bands division:     nmany     =       1
     Reading input from Pd2Cd2.in
Warning: card &CELL ignored
Warning: card / ignored

     Current dimensions of program PWSCF are:
     Max number of different atomic species (ntypx) = 10
     Max number of k-points (npk) =  40000
     Max angular momentum in pseudopotentials (lmaxx) =  3
     Presently stress not available with electric field and gates

     Message from routine cell_base_init:
     DEPRECATED: use true lattice parameter, not A to a.u. conversion factor
     file Pd.pbe-n-rrkjus_psl.1.0.0.UPF: wavefunction(s)  4D renormalized
     file Cd.pbe-n-rrkjus_psl.1.0.0.UPF: wavefunction(s)  4D renormalized

     IMPORTANT: XC functional enforced from input :
     Exchange-correlation= BEEF-VDW
                           (   1   4  43  14   2   0   0)
     Any further DFT definition will be discarded
     Please, verify this is what you really want

     Subspace diagonalization in iterative solution of the eigenvalue problem:
     a serial algorithm will be used

     Found symmetry operation: I + ( -0.5000  0.5000  0.0000)
     This is a supercell, fractional translations are disabled

     bravais-lattice index     =            0
     lattice parameter (alat)  =       1.8897  a.u.
     unit-cell volume          =    5058.0746 (a.u.)^3
     number of atoms/cell      =           12
     number of atomic types    =            2
     number of electrons       =       132.00
     number of Kohn-Sham states=           79
     kinetic-energy cutoff     =      55.1240  Ry
     charge density cutoff     =     551.2396  Ry
     convergence threshold     =      1.0E-05
     mixing beta               =       0.1000
     number of iterations used =           10  plain     mixing
     Exchange-correlation= BEEF-VDW
                           (   1   4  43  14   2   0   0)

     celldm(1)=   1.889726  celldm(2)=   0.000000  celldm(3)=   0.000000
     celldm(4)=   0.000000  celldm(5)=   0.000000  celldm(6)=   0.000000

     crystal axes: (cart. coord. in units of alat)
               a(1) = (   5.777095   0.000000   0.000000 )
               a(2) = (   2.444021   5.234653   0.000000 )
               a(3) = (   0.000000   0.000000  24.785136 )

     reciprocal axes: (cart. coord. in units 2 pi/alat)
               b(1) = (  0.173097 -0.080818  0.000000 )
               b(2) = (  0.000000  0.191035  0.000000 )
               b(3) = (  0.000000  0.000000  0.040347 )

     PseudoPot. # 1 for Pd read from file:
     ../pseudo/Pd.pbe-n-rrkjus_psl.1.0.0.UPF
     MD5 check sum: d9f693bf1c5b493397a6bd6f2231cfc3
     Pseudo is Ultrasoft + core correction, Zval = 10.0
     Generated using "atomic" code by A. Dal Corso v.6.3
     Using radial grid of 1235 points,  6 beta functions with:
                l(1) =   0
                l(2) =   0
                l(3) =   1
                l(4) =   1
                l(5) =   2
                l(6) =   2
     Q(r) pseudized with 0 coefficients

     PseudoPot. # 2 for Cd read from file:
     ../pseudo/Cd.pbe-n-rrkjus_psl.1.0.0.UPF
     MD5 check sum: a744746c89d2344a134ead0d8ab94e7a
     Pseudo is Ultrasoft + core correction, Zval = 12.0
     Generated using "atomic" code by A. Dal Corso v.6.3
     Using radial grid of 1239 points,  6 beta functions with:
                l(1) =   0
                l(2) =   0
                l(3) =   1
                l(4) =   1
                l(5) =   2
                l(6) =   2
     Q(r) pseudized with 0 coefficients

     atomic species   valence    mass     pseudopotential
        Pd            10.00   106.42000     Pd( 1.00)
        Cd            12.00   112.41400     Cd( 1.00)

     No symmetry found

   Cartesian axes

     site n.     atom                  positions (alat units)
         1           Pd  tau(   1) = (   0.0000000   0.0000000  10.0000000  )
         2           Pd  tau(   2) = (   4.1105582   2.6173263  10.0000000  )
         3           Cd  tau(   3) = (   2.8885475   0.0000000  10.0000000  )
         4           Cd  tau(   4) = (   1.2220106   2.6173263  10.0000000  )
         5           Pd  tau(   5) = (   5.7770951   3.6784646  12.3925681  )
         6           Pd  tau(   6) = (   1.6665369   1.0611383  12.3925681  )
         7           Cd  tau(   7) = (   2.8885475   3.6784646  12.3925681  )
         8           Cd  tau(   8) = (   4.5550844   1.0611383  12.3925681  )
         9           Pd  tau(   9) = (   3.3339556   2.1228400  14.6694475  )
        10           Pd  tau(  10) = (   7.4445140   4.7401577  14.6694474  )
        11           Cd  tau(  11) = (   6.2357537   2.1312455  14.8911910  )
        12           Cd  tau(  12) = (   4.5692218   4.7485966  14.8911745  )

     number of k points=    74  Fermi-Dirac smearing, width (Ry)=  0.0100
                       cart. coord. in units 2pi/alat
        k(    1) = (   0.0000000   0.0000000   0.0000000), wk =   0.0138889
        k(    2) = (   0.0000000   0.0159196   0.0000000), wk =   0.0277778
        k(    3) = (   0.0000000   0.0318391   0.0000000), wk =   0.0277778
        k(    4) = (   0.0000000   0.0477587   0.0000000), wk =   0.0277778
        k(    5) = (   0.0000000   0.0636782   0.0000000), wk =   0.0277778
        k(    6) = (   0.0000000   0.0795978   0.0000000), wk =   0.0277778
        k(    7) = (   0.0000000  -0.0955173   0.0000000), wk =   0.0138889
        k(    8) = (   0.0144248  -0.0067348   0.0000000), wk =   0.0277778
        k(    9) = (   0.0144248   0.0091847   0.0000000), wk =   0.0277778
        k(   10) = (   0.0144248   0.0251043   0.0000000), wk =   0.0277778
        k(   11) = (   0.0144248   0.0410238   0.0000000), wk =   0.0277778
        k(   12) = (   0.0144248   0.0569434   0.0000000), wk =   0.0277778
        k(   13) = (   0.0144248   0.0728629   0.0000000), wk =   0.0277778
        k(   14) = (   0.0144248  -0.1022521   0.0000000), wk =   0.0277778
        k(   15) = (   0.0144248  -0.0863326   0.0000000), wk =   0.0277778
        k(   16) = (   0.0144248  -0.0704130   0.0000000), wk =   0.0277778
        k(   17) = (   0.0144248  -0.0544935   0.0000000), wk =   0.0277778
        k(   18) = (   0.0144248  -0.0385739   0.0000000), wk =   0.0277778
        k(   19) = (   0.0144248  -0.0226544   0.0000000), wk =   0.0277778
        k(   20) = (   0.0288496  -0.0134696   0.0000000), wk =   0.0277778
        k(   21) = (   0.0288496   0.0024499   0.0000000), wk =   0.0277778
        k(   22) = (   0.0288496   0.0183695   0.0000000), wk =   0.0277778
        k(   23) = (   0.0288496   0.0342890   0.0000000), wk =   0.0277778
        k(   24) = (   0.0288496   0.0502086   0.0000000), wk =   0.0277778
        k(   25) = (   0.0288496   0.0661281   0.0000000), wk =   0.0277778
        k(   26) = (   0.0288496  -0.1089870   0.0000000), wk =   0.0277778
        k(   27) = (   0.0288496  -0.0930674   0.0000000), wk =   0.0277778
        k(   28) = (   0.0288496  -0.0771479   0.0000000), wk =   0.0277778
        k(   29) = (   0.0288496  -0.0612283   0.0000000), wk =   0.0277778
        k(   30) = (   0.0288496  -0.0453088   0.0000000), wk =   0.0277778
        k(   31) = (   0.0288496  -0.0293892   0.0000000), wk =   0.0277778
        k(   32) = (   0.0432743  -0.0202045   0.0000000), wk =   0.0277778
        k(   33) = (   0.0432743  -0.0042849   0.0000000), wk =   0.0277778
        k(   34) = (   0.0432743   0.0116346   0.0000000), wk =   0.0277778
        k(   35) = (   0.0432743   0.0275542   0.0000000), wk =   0.0277778
        k(   36) = (   0.0432743   0.0434737   0.0000000), wk =   0.0277778
        k(   37) = (   0.0432743   0.0593933   0.0000000), wk =   0.0277778
        k(   38) = (   0.0432743  -0.1157218   0.0000000), wk =   0.0277778
        k(   39) = (   0.0432743  -0.0998022   0.0000000), wk =   0.0277778
        k(   40) = (   0.0432743  -0.0838827   0.0000000), wk =   0.0277778
        k(   41) = (   0.0432743  -0.0679631   0.0000000), wk =   0.0277778
        k(   42) = (   0.0432743  -0.0520436   0.0000000), wk =   0.0277778
        k(   43) = (   0.0432743  -0.0361240   0.0000000), wk =   0.0277778
        k(   44) = (   0.0576991  -0.0269393   0.0000000), wk =   0.0277778
        k(   45) = (   0.0576991  -0.0110197   0.0000000), wk =   0.0277778
        k(   46) = (   0.0576991   0.0048998   0.0000000), wk =   0.0277778
        k(   47) = (   0.0576991   0.0208194   0.0000000), wk =   0.0277778
        k(   48) = (   0.0576991   0.0367389   0.0000000), wk =   0.0277778
        k(   49) = (   0.0576991   0.0526585   0.0000000), wk =   0.0277778
        k(   50) = (   0.0576991  -0.1224566   0.0000000), wk =   0.0277778
        k(   51) = (   0.0576991  -0.1065371   0.0000000), wk =   0.0277778
        k(   52) = (   0.0576991  -0.0906175   0.0000000), wk =   0.0277778
        k(   53) = (   0.0576991  -0.0746980   0.0000000), wk =   0.0277778
        k(   54) = (   0.0576991  -0.0587784   0.0000000), wk =   0.0277778
        k(   55) = (   0.0576991  -0.0428589   0.0000000), wk =   0.0277778
        k(   56) = (   0.0721239  -0.0336741   0.0000000), wk =   0.0277778
        k(   57) = (   0.0721239  -0.0177546   0.0000000), wk =   0.0277778
        k(   58) = (   0.0721239  -0.0018350   0.0000000), wk =   0.0277778
        k(   59) = (   0.0721239   0.0140845   0.0000000), wk =   0.0277778
        k(   60) = (   0.0721239   0.0300041   0.0000000), wk =   0.0277778
        k(   61) = (   0.0721239   0.0459236   0.0000000), wk =   0.0277778
        k(   62) = (   0.0721239  -0.1291914   0.0000000), wk =   0.0277778
        k(   63) = (   0.0721239  -0.1132719   0.0000000), wk =   0.0277778
        k(   64) = (   0.0721239  -0.0973523   0.0000000), wk =   0.0277778
        k(   65) = (   0.0721239  -0.0814328   0.0000000), wk =   0.0277778
        k(   66) = (   0.0721239  -0.0655132   0.0000000), wk =   0.0277778
        k(   67) = (   0.0721239  -0.0495937   0.0000000), wk =   0.0277778
        k(   68) = (  -0.0865487   0.0404089   0.0000000), wk =   0.0138889
        k(   69) = (  -0.0865487   0.0563285   0.0000000), wk =   0.0277778
        k(   70) = (  -0.0865487   0.0722481   0.0000000), wk =   0.0277778
        k(   71) = (  -0.0865487   0.0881676   0.0000000), wk =   0.0277778
        k(   72) = (  -0.0865487   0.1040872   0.0000000), wk =   0.0277778
        k(   73) = (  -0.0865487   0.1200067   0.0000000), wk =   0.0277778
        k(   74) = (  -0.0865487  -0.0551084   0.0000000), wk =   0.0138889

     Initial potential from superposition of free atoms

     starting charge  131.96727, renormalised to  132.00000

     negative rho (up, down):  2.951E-03 0.000E+00

     %%%%%%%%%%%%%%%%%%%%%%%%%%%%%%%%%%%%%%%%%%%%%%%%%%%%%%%%%%%%%%%%%%%%%%%%
     %                                                                      %
     % You are using vdW-DF, which was implemented by the Thonhauser group. %
     % Please cite the following two papers that made this development      %
     % possible and the two reviews that describe the various versions:     %
     %                                                                      %
     %   T. Thonhauser et al., PRL 115, 136402 (2015).                      %
     %   T. Thonhauser et al., PRB 76, 125112 (2007).                       %
     %   K. Berland et al., Rep. Prog. Phys. 78, 066501 (2015).             %
     %   D.C. Langreth et al., J. Phys.: Condens. Matter 21, 084203 (2009). %
     %                                                                      %
     %                                                                      %
     % If you are calculating the stress with vdW-DF, please also cite:     %
     %                                                                      %
     %   R. Sabatini et al., J. Phys.: Condens. Matter 24, 424209 (2012).   %
     %                                                                      %
     %%%%%%%%%%%%%%%%%%%%%%%%%%%%%%%%%%%%%%%%%%%%%%%%%%%%%%%%%%%%%%%%%%%%%%%%

     Adding external electric field

     Computed dipole along edir(3) :
        Dipole                0.0016 Ry au,          0.0041 Debye
        Dipole field          0.0000 Ry au,

        Potential amp.       -0.0004 Ry
        Total length         45.6662 bohr

     Starting wfcs are  108 randomized atomic wfcs

     Self-consistent Calculation

     iteration #  1     ecut=    55.12 Ry     beta= 0.10
     Davidson diagonalization with overlap
     ethr =  1.00E-02,  avg # of iterations =  2.2

     Threshold (ethr) on eigenvalues was too large:
     Diagonalizing with lowered threshold

     Davidson diagonalization with overlap
     ethr =  4.49E-04,  avg # of iterations =  4.0

[...]

     total energy              =   -1018.74069369 Ry
     estimated scf accuracy    <       0.58367690 Ry

[...]

     iteration #  4     ecut=    55.12 Ry     beta= 0.10
     Davidson diagonalization with overlap
     c_bands:  1 eigenvalues not converged
     c_bands:  1 eigenvalues not converged
     c_bands:  1 eigenvalues not converged
     c_bands:  1 eigenvalues not converged
     c_bands:  1 eigenvalues not converged
     c_bands:  2 eigenvalues not converged
     ethr =  6.52E-05,  avg # of iterations = 11.1

[...]

     iteration # 10     ecut=    55.12 Ry     beta= 0.10
     Davidson diagonalization with overlap
     c_bands:  2 eigenvalues not converged
     ethr =  2.67E-07,  avg # of iterations =  4.1

[...]

     total energy              =   -1018.69769922 Ry
     estimated scf accuracy    <       0.00002536 Ry

     iteration # 13     ecut=    55.12 Ry     beta= 0.10
     Davidson diagonalization with overlap
     ethr =  1.92E-08,  avg # of iterations =  2.0

[...]

     Adding external electric field

     Computed dipole along edir(3) :
        Dipole                0.0264 Ry au,          0.0670 Debye
        Dipole field          0.0001 Ry au,

        Potential amp.       -0.0060 Ry
        Total length         45.6662 bohr

     End of self-consistent calculation

          k = 0.0000 0.0000 0.0000 ( 34931 PWs)   bands (ev):

    -8.9251  -8.8577  -8.7533  -8.7473  -8.7347  -8.6721  -8.6605  -8.6154
    -8.5680  -8.5419  -8.5211  -8.4749  -8.3961  -8.3652  -8.2914  -8.2819
    -8.2781  -8.2741  -8.2210  -8.2119  -8.2035  -8.1963  -8.1130  -8.0986
    -8.0472  -8.0153  -8.0051  -7.9195  -7.8981  -7.7387  -6.8999  -5.2445
    -4.0137  -3.7461  -3.3152  -3.1133  -2.7468  -2.5384  -2.4692  -2.3595
    -2.2892  -2.2697  -2.1257  -2.0738  -1.8966  -1.8802  -1.7575  -1.6303
    -1.6151  -1.5371  -1.4571  -1.4403  -1.3372  -1.2738  -1.2504  -1.1845
    -1.1276  -1.0779  -1.0587  -1.0357  -0.9063  -0.8067  -0.5631   0.2626
     0.3260   0.6034   0.7033   1.0364   1.1086   1.1348   1.2646   2.0961
     2.9237   3.0560   3.4813   3.7253   4.0924   4.2036   4.2493

[...]

          k = 0.0721-0.0496 0.0000 ( 34950 PWs)   bands (ev):

[...]

          k =-0.0865 0.0404 0.0000 ( 34998 PWs)   bands (ev):

[...]

          k =-0.0865-0.0551 0.0000 ( 34960 PWs)   bands (ev):

    -8.8757  -8.7464  -8.7348  -8.7192  -8.6223  -8.5497  -8.5349  -8.5009
    -8.4894  -8.4855  -8.4695  -8.4613  -8.3536  -8.3135  -8.2824  -8.2640
    -8.2269  -8.2101  -8.2014  -8.1942  -8.1593  -8.1286  -8.1089  -8.0749
    -8.0486  -8.0325  -7.9910  -7.9735  -7.8971  -7.7322  -5.1951  -5.0924
    -3.6016  -3.5297  -3.3689  -3.3169  -3.1741  -3.0823  -2.9120  -2.8578
    -2.7170  -2.5628  -2.5186  -2.4928  -2.4859  -2.4368  -2.3800  -2.1181
    -2.0015  -1.9157  -1.9157  -1.6578  -1.6423  -1.5662  -1.5575  -1.3563
    -1.3219  -1.2991  -1.2200  -1.1412  -1.0745  -1.0101  -0.9487  -0.7701
    -0.5408   0.2178   0.5654   0.7585   0.8707   1.3608   2.4407   2.7575
     3.0786   3.1840   5.0970   5.3390   5.3423   5.3965   5.7887

     the Fermi energy is     0.3037 ev

!    total energy              =   -1018.69770131 Ry
     estimated scf accuracy    <       0.00000635 Ry
     smearing contrib. (-TS)   =      -0.01960805 Ry
     internal energy E=F+TS    =   -1018.67809327 Ry

     The total energy is F=E-TS. E is the sum of the following terms:
     one-electron contribution =   -8296.09781200 Ry
     hartree contribution      =    4231.75975640 Ry
     xc contribution           =    -277.69782285 Ry
     ewald contribution        =    3323.35778346 Ry
     electric field correction =       0.00000173 Ry

     convergence has been achieved in  13 iterations

     negative rho (up, down):  3.143E-03 0.000E+00

     Forces acting on atoms (cartesian axes, Ry/au):

     atom    1 type  1   force =     0.00075314    0.00047907    0.01531563
     atom    2 type  1   force =     0.00075253    0.00048251    0.01530569
     atom    3 type  2   force =    -0.00258167   -0.00164372   -0.01023525
     atom    4 type  2   force =    -0.00256777   -0.00163942   -0.01021761
     atom    5 type  1   force =    -0.00263408   -0.00168003    0.00488621
     atom    6 type  1   force =    -0.00263536   -0.00167489    0.00487745
     atom    7 type  2   force =     0.00399501    0.00256073   -0.01106778
     atom    8 type  2   force =     0.00401232    0.00252953   -0.01105721
     atom    9 type  1   force =     0.00060969    0.00038096    0.00128711
     atom   10 type  1   force =     0.00060967    0.00039041    0.00128324
     atom   11 type  2   force =    -0.00016541   -0.00009566   -0.00018576
     atom   12 type  2   force =    -0.00014807   -0.00008948   -0.00019173

     Total force =     0.032553     Total SCF correction =     0.006472
     SCF correction compared to forces is large: reduce conv_thr to get better values

     Writing output data file ./Pd2Cd2/Pd2Cd2_beef.save/

     General routines

     Parallel routines

   This run was terminated on:  23:20:14  23Jun2022

   JOB DONE.