     Program PWSCF v.6.6 starts on 23Jun2022 at 23:24:37

     R & G space division:  proc/nbgrp/npool/nimage =      37
     Fft bands division:     nmany     =       1
     Reading input from Pd2Hg2.in
Warning: card &CELL ignored
Warning: card / ignored

     Current dimensions of program PWSCF are:
     Max number of different atomic species (ntypx) = 10
     Max number of k-points (npk) =  40000
     Max angular momentum in pseudopotentials (lmaxx) =  3
     Presently stress not available with electric field and gates

     Message from routine cell_base_init:
     DEPRECATED: use true lattice parameter, not A to a.u. conversion factor
     file Pd.pbe-n-rrkjus_psl.1.0.0.UPF: wavefunction(s)  4D renormalized
     file Hg.pbe-n-rrkjus_psl.1.0.0.UPF: wavefunction(s)  6S renormalized

     IMPORTANT: XC functional enforced from input :
     Exchange-correlation= BEEF-VDW
                           (   1   4  43  14   2   0   0)
     Any further DFT definition will be discarded
     Please, verify this is what you really want

     Subspace diagonalization in iterative solution of the eigenvalue problem:
     a serial algorithm will be used

     Found symmetry operation: I + (  0.5000 -0.5000  0.0000)
     This is a supercell, fractional translations are disabled

     bravais-lattice index     =            0
     lattice parameter (alat)  =       1.8897  a.u.
     unit-cell volume          =    5198.0689 (a.u.)^3
     number of atoms/cell      =           12
     number of atomic types    =            2
     number of electrons       =       132.00
     number of Kohn-Sham states=           79
     kinetic-energy cutoff     =      55.1240  Ry
     charge density cutoff     =     551.2396  Ry
     convergence threshold     =      1.0E-05
     mixing beta               =       0.1000
     number of iterations used =           10  plain     mixing
     Exchange-correlation= BEEF-VDW
                           (   1   4  43  14   2   0   0)

     celldm(1)=   1.889726  celldm(2)=   0.000000  celldm(3)=   0.000000
     celldm(4)=   0.000000  celldm(5)=   0.000000  celldm(6)=   0.000000

     crystal axes: (cart. coord. in units of alat)
               a(1) = (   5.862316   0.000000   0.000000 )
               a(2) = (   2.533113   5.286784   0.000000 )
               a(3) = (   0.000000   0.000000  24.853338 )

     reciprocal axes: (cart. coord. in units 2 pi/alat)
               b(1) = (  0.170581 -0.081732  0.000000 )
               b(2) = (  0.000000  0.189151  0.000000 )
               b(3) = (  0.000000  0.000000  0.040236 )

     PseudoPot. # 1 for Pd read from file:
     ../pseudo/Pd.pbe-n-rrkjus_psl.1.0.0.UPF
     MD5 check sum: d9f693bf1c5b493397a6bd6f2231cfc3
     Pseudo is Ultrasoft + core correction, Zval = 10.0
     Generated using "atomic" code by A. Dal Corso v.6.3
     Using radial grid of 1235 points,  6 beta functions with:
                l(1) =   0
                l(2) =   0
                l(3) =   1
                l(4) =   1
                l(5) =   2
                l(6) =   2
     Q(r) pseudized with 0 coefficients

     PseudoPot. # 2 for Hg read from file:
     ../pseudo/Hg.pbe-n-rrkjus_psl.1.0.0.UPF
     MD5 check sum: 7519ac2e5b9cac440d3cfd4127d6ea3c
     Pseudo is Ultrasoft + core correction, Zval = 12.0
     Generated using "atomic" code by A. Dal Corso v.6.3
     Using radial grid of 1279 points,  6 beta functions with:
                l(1) =   0
                l(2) =   0
                l(3) =   1
                l(4) =   1
                l(5) =   2
                l(6) =   2
     Q(r) pseudized with 0 coefficients

     atomic species   valence    mass     pseudopotential
        Pd            10.00   106.42000     Pd( 1.00)
        Hg            12.00   200.59200     Hg( 1.00)

     No symmetry found

   Cartesian axes

     site n.     atom                  positions (alat units)
         1           Pd  tau(   1) = (   0.0000000   0.0000000  10.0000000  )
         2           Pd  tau(   2) = (   4.1977142   2.6433921  10.0000000  )
         3           Hg  tau(   3) = (   2.9311579   0.0000000  10.0000000  )
         4           Hg  tau(   4) = (   1.2665563   2.6433921  10.0000000  )
         5           Pd  tau(   5) = (   5.8623158   3.6916279  12.4266692  )
         6           Pd  tau(   6) = (   1.6646015   1.0482358  12.4266692  )
         7           Hg  tau(   7) = (   2.9311579   3.6916279  12.4266692  )
         8           Hg  tau(   8) = (   4.5957594   1.0482358  12.4266692  )
         9           Pd  tau(   9) = (   3.3046841   2.0810258  14.7221000  )
        10           Pd  tau(  10) = (   7.5023942   4.7244241  14.7221004  )
        11           Hg  tau(  11) = (   6.2613334   2.0970830  15.0914839  )
        12           Hg  tau(  12) = (   4.5967373   4.7404808  15.0914925  )

     number of k points=    74  Fermi-Dirac smearing, width (Ry)=  0.0100
                       cart. coord. in units 2pi/alat
        k(    1) = (   0.0000000   0.0000000   0.0000000), wk =   0.0138889
        k(    2) = (   0.0000000   0.0157626   0.0000000), wk =   0.0277778
        k(    3) = (   0.0000000   0.0315252   0.0000000), wk =   0.0277778
        k(    4) = (   0.0000000   0.0472877   0.0000000), wk =   0.0277778
        k(    5) = (   0.0000000   0.0630503   0.0000000), wk =   0.0277778
        k(    6) = (   0.0000000   0.0788129   0.0000000), wk =   0.0277778
        k(    7) = (   0.0000000  -0.0945755   0.0000000), wk =   0.0138889
        k(    8) = (   0.0142151  -0.0068110   0.0000000), wk =   0.0277778
        k(    9) = (   0.0142151   0.0089515   0.0000000), wk =   0.0277778
        k(   10) = (   0.0142151   0.0247141   0.0000000), wk =   0.0277778
        k(   11) = (   0.0142151   0.0404767   0.0000000), wk =   0.0277778
        k(   12) = (   0.0142151   0.0562393   0.0000000), wk =   0.0277778
        k(   13) = (   0.0142151   0.0720019   0.0000000), wk =   0.0277778
        k(   14) = (   0.0142151  -0.1013865   0.0000000), wk =   0.0277778
        k(   15) = (   0.0142151  -0.0856239   0.0000000), wk =   0.0277778
        k(   16) = (   0.0142151  -0.0698613   0.0000000), wk =   0.0277778
        k(   17) = (   0.0142151  -0.0540988   0.0000000), wk =   0.0277778
        k(   18) = (   0.0142151  -0.0383362   0.0000000), wk =   0.0277778
        k(   19) = (   0.0142151  -0.0225736   0.0000000), wk =   0.0277778
        k(   20) = (   0.0284302  -0.0136221   0.0000000), wk =   0.0277778
        k(   21) = (   0.0284302   0.0021405   0.0000000), wk =   0.0277778
        k(   22) = (   0.0284302   0.0179031   0.0000000), wk =   0.0277778
        k(   23) = (   0.0284302   0.0336657   0.0000000), wk =   0.0277778
        k(   24) = (   0.0284302   0.0494283   0.0000000), wk =   0.0277778
        k(   25) = (   0.0284302   0.0651908   0.0000000), wk =   0.0277778
        k(   26) = (   0.0284302  -0.1081975   0.0000000), wk =   0.0277778
        k(   27) = (   0.0284302  -0.0924349   0.0000000), wk =   0.0277778
        k(   28) = (   0.0284302  -0.0766724   0.0000000), wk =   0.0277778
        k(   29) = (   0.0284302  -0.0609098   0.0000000), wk =   0.0277778
        k(   30) = (   0.0284302  -0.0451472   0.0000000), wk =   0.0277778
        k(   31) = (   0.0284302  -0.0293846   0.0000000), wk =   0.0277778
        k(   32) = (   0.0426453  -0.0204331   0.0000000), wk =   0.0277778
        k(   33) = (   0.0426453  -0.0046705   0.0000000), wk =   0.0277778
        k(   34) = (   0.0426453   0.0110921   0.0000000), wk =   0.0277778
        k(   35) = (   0.0426453   0.0268546   0.0000000), wk =   0.0277778
        k(   36) = (   0.0426453   0.0426172   0.0000000), wk =   0.0277778
        k(   37) = (   0.0426453   0.0583798   0.0000000), wk =   0.0277778
        k(   38) = (   0.0426453  -0.1150085   0.0000000), wk =   0.0277778
        k(   39) = (   0.0426453  -0.0992460   0.0000000), wk =   0.0277778
        k(   40) = (   0.0426453  -0.0834834   0.0000000), wk =   0.0277778
        k(   41) = (   0.0426453  -0.0677208   0.0000000), wk =   0.0277778
        k(   42) = (   0.0426453  -0.0519582   0.0000000), wk =   0.0277778
        k(   43) = (   0.0426453  -0.0361957   0.0000000), wk =   0.0277778
        k(   44) = (   0.0568603  -0.0272441   0.0000000), wk =   0.0277778
        k(   45) = (   0.0568603  -0.0114815   0.0000000), wk =   0.0277778
        k(   46) = (   0.0568603   0.0042810   0.0000000), wk =   0.0277778
        k(   47) = (   0.0568603   0.0200436   0.0000000), wk =   0.0277778
        k(   48) = (   0.0568603   0.0358062   0.0000000), wk =   0.0277778
        k(   49) = (   0.0568603   0.0515688   0.0000000), wk =   0.0277778
        k(   50) = (   0.0568603  -0.1218196   0.0000000), wk =   0.0277778
        k(   51) = (   0.0568603  -0.1060570   0.0000000), wk =   0.0277778
        k(   52) = (   0.0568603  -0.0902944   0.0000000), wk =   0.0277778
        k(   53) = (   0.0568603  -0.0745318   0.0000000), wk =   0.0277778
        k(   54) = (   0.0568603  -0.0587693   0.0000000), wk =   0.0277778
        k(   55) = (   0.0568603  -0.0430067   0.0000000), wk =   0.0277778
        k(   56) = (   0.0710754  -0.0340551   0.0000000), wk =   0.0277778
        k(   57) = (   0.0710754  -0.0182926   0.0000000), wk =   0.0277778
        k(   58) = (   0.0710754  -0.0025300   0.0000000), wk =   0.0277778
        k(   59) = (   0.0710754   0.0132326   0.0000000), wk =   0.0277778
        k(   60) = (   0.0710754   0.0289952   0.0000000), wk =   0.0277778
        k(   61) = (   0.0710754   0.0447577   0.0000000), wk =   0.0277778
        k(   62) = (   0.0710754  -0.1286306   0.0000000), wk =   0.0277778
        k(   63) = (   0.0710754  -0.1128680   0.0000000), wk =   0.0277778
        k(   64) = (   0.0710754  -0.0971054   0.0000000), wk =   0.0277778
        k(   65) = (   0.0710754  -0.0813429   0.0000000), wk =   0.0277778
        k(   66) = (   0.0710754  -0.0655803   0.0000000), wk =   0.0277778
        k(   67) = (   0.0710754  -0.0498177   0.0000000), wk =   0.0277778
        k(   68) = (  -0.0852905   0.0408662   0.0000000), wk =   0.0138889
        k(   69) = (  -0.0852905   0.0566287   0.0000000), wk =   0.0277778
        k(   70) = (  -0.0852905   0.0723913   0.0000000), wk =   0.0277778
        k(   71) = (  -0.0852905   0.0881539   0.0000000), wk =   0.0277778
        k(   72) = (  -0.0852905   0.1039165   0.0000000), wk =   0.0277778
        k(   73) = (  -0.0852905   0.1196790   0.0000000), wk =   0.0277778
        k(   74) = (  -0.0852905  -0.0537093   0.0000000), wk =   0.0138889

     Initial potential from superposition of free atoms

     starting charge  131.99608, renormalised to  132.00000

     negative rho (up, down):  1.589E-03 0.000E+00

     %%%%%%%%%%%%%%%%%%%%%%%%%%%%%%%%%%%%%%%%%%%%%%%%%%%%%%%%%%%%%%%%%%%%%%%%
     %                                                                      %
     % You are using vdW-DF, which was implemented by the Thonhauser group. %
     % Please cite the following two papers that made this development      %
     % possible and the two reviews that describe the various versions:     %
     %                                                                      %
     %   T. Thonhauser et al., PRL 115, 136402 (2015).                      %
     %   T. Thonhauser et al., PRB 76, 125112 (2007).                       %
     %   K. Berland et al., Rep. Prog. Phys. 78, 066501 (2015).             %
     %   D.C. Langreth et al., J. Phys.: Condens. Matter 21, 084203 (2009). %
     %                                                                      %
     %                                                                      %
     % If you are calculating the stress with vdW-DF, please also cite:     %
     %                                                                      %
     %   R. Sabatini et al., J. Phys.: Condens. Matter 24, 424209 (2012).   %
     %                                                                      %
     %%%%%%%%%%%%%%%%%%%%%%%%%%%%%%%%%%%%%%%%%%%%%%%%%%%%%%%%%%%%%%%%%%%%%%%%

     Adding external electric field

     Computed dipole along edir(3) :
        Dipole               -0.0004 Ry au,         -0.0010 Debye
        Dipole field         -0.0000 Ry au,

        Potential amp.        0.0001 Ry
        Total length         45.7918 bohr

     Starting wfcs are  108 randomized atomic wfcs

     Self-consistent Calculation

     iteration #  1     ecut=    55.12 Ry     beta= 0.10
     Davidson diagonalization with overlap
     ethr =  1.00E-02,  avg # of iterations =  3.5

     Threshold (ethr) on eigenvalues was too large:
     Diagonalizing with lowered threshold

     Davidson diagonalization with overlap
     ethr =  6.13E-04,  avg # of iterations =  2.6

[...]

     total energy              =   -1017.85867827 Ry
     estimated scf accuracy    <       0.79167855 Ry

[...]

     iteration #  3     ecut=    55.12 Ry     beta= 0.10
     Davidson diagonalization with overlap
     c_bands:  1 eigenvalues not converged
     ethr =  2.15E-04,  avg # of iterations =  8.6

[...]

     iteration #  8     ecut=    55.12 Ry     beta= 0.10
     Davidson diagonalization with overlap
     c_bands:  1 eigenvalues not converged
     c_bands:  1 eigenvalues not converged
     ethr =  1.23E-06,  avg # of iterations =  7.1

[...]

     total energy              =   -1017.87816432 Ry
     estimated scf accuracy    <       0.00010896 Ry

     iteration # 13     ecut=    55.12 Ry     beta= 0.10
     Davidson diagonalization with overlap
     ethr =  6.70E-08,  avg # of iterations =  2.0

[...]

     Adding external electric field

     Computed dipole along edir(3) :
        Dipole                0.0139 Ry au,          0.0354 Debye
        Dipole field          0.0000 Ry au,

        Potential amp.       -0.0031 Ry
        Total length         45.7918 bohr

     End of self-consistent calculation

          k = 0.0000 0.0000 0.0000 ( 35801 PWs)   bands (ev):

    -7.7297  -7.4017  -7.3568  -7.2987  -7.2740  -7.1776  -7.1403  -6.9914
    -6.9855  -6.9751  -6.9221  -6.8859  -6.6825  -6.6370  -6.6133  -6.5621
    -6.4651  -6.4551  -6.4089  -6.3893  -6.3116  -6.3087  -6.2510  -6.1717
    -6.0968  -6.0726  -5.9954  -5.9809  -5.8776  -5.8753  -5.5672  -5.4460
    -4.1032  -3.5633  -2.9926  -2.9129  -2.3285  -2.2261  -2.1011  -2.0045
    -1.9285  -1.8977  -1.8807  -1.6177  -1.5852  -1.5150  -1.4304  -1.3151
    -1.2674  -1.1477  -1.0856  -1.0707  -0.9920  -0.9804  -0.9422  -0.9106
    -0.7821  -0.7550  -0.7545  -0.7362  -0.6946  -0.6720  -0.3476   0.5359
     0.5412   0.7026   0.9158   0.9234   1.3862   1.4033   1.4155   1.7184
     2.1834   2.8214   2.9047   3.4692   4.3868   4.3914   4.4019

[...]

          k = 0.0711-0.0498 0.0000 ( 35949 PWs)   bands (ev):

[...]

          k =-0.0853 0.0409 0.0000 ( 35946 PWs)   bands (ev):

[...]

          k =-0.0853-0.0537 0.0000 ( 35972 PWs)   bands (ev):

    -7.5381  -7.2383  -7.2351  -7.1112  -7.0906  -7.0770  -6.9192  -6.8603
    -6.8306  -6.8057  -6.7302  -6.6726  -6.5356  -6.5158  -6.4659  -6.4635
    -6.3975  -6.3781  -6.3424  -6.3112  -6.2719  -6.2475  -6.1878  -6.0513
    -6.0049  -5.9888  -5.9541  -5.8833  -5.8705  -5.5581  -5.4631  -5.2464
    -3.9706  -3.2699  -3.1839  -3.0017  -2.9655  -2.7195  -2.6301  -2.4572
    -2.4568  -2.3143  -2.2695  -2.2085  -2.1912  -2.1097  -2.0546  -1.9356
    -1.7583  -1.7197  -1.5799  -1.5400  -1.3900  -1.3801  -1.3071  -1.2436
    -1.1075  -1.0319  -0.9900  -0.9099  -0.7826  -0.7586  -0.7341  -0.6547
    -0.3063  -0.2182   0.5410   0.8979   0.9524   1.3870   1.5975   2.9292
     3.2549   3.4311   5.0173   5.1487   5.3361   5.4894   6.1345

     the Fermi energy is     0.3438 ev

!    total energy              =   -1017.87817730 Ry
     estimated scf accuracy    <       0.00000391 Ry
     smearing contrib. (-TS)   =      -0.01846026 Ry
     internal energy E=F+TS    =   -1017.85971704 Ry

     The total energy is F=E-TS. E is the sum of the following terms:
     one-electron contribution =   -7874.31799587 Ry
     hartree contribution      =    4022.53836140 Ry
     xc contribution           =    -335.73120444 Ry
     ewald contribution        =    3169.65112140 Ry
     electric field correction =       0.00000047 Ry

     convergence has been achieved in  13 iterations

     negative rho (up, down):  1.490E-03 0.000E+00

     Forces acting on atoms (cartesian axes, Ry/au):

     atom    1 type  1   force =     0.00299657    0.00188624    0.01658023
     atom    2 type  1   force =     0.00299625    0.00188894    0.01657931
     atom    3 type  2   force =    -0.00384585   -0.00242694   -0.01767135
     atom    4 type  2   force =    -0.00382437   -0.00242545   -0.01768388
     atom    5 type  1   force =    -0.00429553   -0.00270405    0.00761689
     atom    6 type  1   force =    -0.00429635   -0.00270349    0.00761846
     atom    7 type  2   force =     0.00644649    0.00405454   -0.00670529
     atom    8 type  2   force =     0.00642726    0.00406258   -0.00672763
     atom    9 type  1   force =    -0.00083461   -0.00052134    0.00141393
     atom   10 type  1   force =    -0.00083223   -0.00052339    0.00141500
     atom   11 type  2   force =    -0.00046392   -0.00030000   -0.00121762
     atom   12 type  2   force =    -0.00047372   -0.00028765   -0.00121803

     Total force =     0.040301     Total SCF correction =     0.003923

     Writing output data file ./Pd2Hg2/Pd2Hg2_beef.save/

     General routines

     Parallel routines

   This run was terminated on:  23:56:13  23Jun2022

   JOB DONE.