     Program PWSCF v.6.6 starts on 25Jun2022 at 10: 9:14

     R & G space division:  proc/nbgrp/npool/nimage =      37
     Fft bands division:     nmany     =       1
     Reading input from Pd2Hf2.in
Warning: card &CELL ignored
Warning: card / ignored

     Current dimensions of program PWSCF are:
     Max number of different atomic species (ntypx) = 10
     Max number of k-points (npk) =  40000
     Max angular momentum in pseudopotentials (lmaxx) =  3
     Presently stress not available with electric field and gates

     Message from routine cell_base_init:
     DEPRECATED: use true lattice parameter, not A to a.u. conversion factor
     file Pd.pbe-n-rrkjus_psl.1.0.0.UPF: wavefunction(s)  4D renormalized

     IMPORTANT: XC functional enforced from input :
     Exchange-correlation= BEEF-VDW
                           (   1   4  43  14   2   0   0)
     Any further DFT definition will be discarded
     Please, verify this is what you really want

     Subspace diagonalization in iterative solution of the eigenvalue problem:
     a serial algorithm will be used

     Found symmetry operation: I + (  0.5000  0.5000  0.0000)
     This is a supercell, fractional translations are disabled

     bravais-lattice index     =            0
     lattice parameter (alat)  =       1.8897  a.u.
     unit-cell volume          =    5201.1352 (a.u.)^3
     number of atoms/cell      =           12
     number of atomic types    =            2
     number of electrons       =       132.00
     number of Kohn-Sham states=           79
     kinetic-energy cutoff     =      55.1240  Ry
     charge density cutoff     =     551.2396  Ry
     convergence threshold     =      1.0E-05
     mixing beta               =       0.1000
     number of iterations used =           10  plain     mixing
     Exchange-correlation= BEEF-VDW
                           (   1   4  43  14   2   0   0)

     celldm(1)=   1.889726  celldm(2)=   0.000000  celldm(3)=   0.000000
     celldm(4)=   0.000000  celldm(5)=   0.000000  celldm(6)=   0.000000

     crystal axes: (cart. coord. in units of alat)
               a(1) = (   5.775407   0.000000   0.000000 )
               a(2) = (   2.070905   5.391353   0.000000 )
               a(3) = (   0.000000   0.000000  24.752625 )

     reciprocal axes: (cart. coord. in units 2 pi/alat)
               b(1) = (  0.173148 -0.066509  0.000000 )
               b(2) = (  0.000000  0.185482  0.000000 )
               b(3) = (  0.000000  0.000000  0.040400 )

     PseudoPot. # 1 for Pd read from file:
     ../pseudo/Pd.pbe-n-rrkjus_psl.1.0.0.UPF
     MD5 check sum: d9f693bf1c5b493397a6bd6f2231cfc3
     Pseudo is Ultrasoft + core correction, Zval = 10.0
     Generated using "atomic" code by A. Dal Corso v.6.3
     Using radial grid of 1235 points,  6 beta functions with:
                l(1) =   0
                l(2) =   0
                l(3) =   1
                l(4) =   1
                l(5) =   2
                l(6) =   2
     Q(r) pseudized with 0 coefficients

     PseudoPot. # 2 for Hf read from file:
     ../pseudo/Hf.pbe-spn-rrkjus_psl.1.0.0.UPF
     MD5 check sum: 9605440c6f839e558204c6a924125fd0
     Pseudo is Ultrasoft + core correction, Zval = 12.0
     Generated using "atomic" code by A. Dal Corso v.6.2.2
     Using radial grid of 1271 points,  6 beta functions with:
                l(1) =   0
                l(2) =   0
                l(3) =   1
                l(4) =   1
                l(5) =   2
                l(6) =   2
     Q(r) pseudized with 0 coefficients

     atomic species   valence    mass     pseudopotential
        Pd            10.00   106.42000     Pd( 1.00)
        Hf            12.00   178.49000     Hf( 1.00)

     No symmetry found

   Cartesian axes

     site n.     atom                  positions (alat units)
         1           Pd  tau(   1) = (   0.0000000   0.0000000  10.0000000  )
         2           Pd  tau(   2) = (   3.9231559   2.6956763  10.0000000  )
         3           Hf  tau(   3) = (   2.8877036   0.0000000  10.0000000  )
         4           Hf  tau(   4) = (   1.0354523   2.6956763  10.0000000  )
         5           Pd  tau(   5) = (   5.7754072   3.9683940  12.3763123  )
         6           Pd  tau(   6) = (   1.8522513   1.2727177  12.3763123  )
         7           Hf  tau(   7) = (   2.8877036   3.9683940  12.3763123  )
         8           Hf  tau(   8) = (   4.7399549   1.2727177  12.3763123  )
         9           Pd  tau(   9) = (   3.7133256   2.5514974  14.6130157  )
        10           Pd  tau(  10) = (   7.6364840   5.2471740  14.6130151  )
        11           Hf  tau(  11) = (   6.6104095   2.5579440  14.7248645  )
        12           Hf  tau(  12) = (   4.7581620   5.2536214  14.7248668  )

     number of k points=    74  Fermi-Dirac smearing, width (Ry)=  0.0100
                       cart. coord. in units 2pi/alat
        k(    1) = (   0.0000000   0.0000000   0.0000000), wk =   0.0138889
        k(    2) = (   0.0000000   0.0154568   0.0000000), wk =   0.0277778
        k(    3) = (   0.0000000   0.0309137   0.0000000), wk =   0.0277778
        k(    4) = (   0.0000000   0.0463705   0.0000000), wk =   0.0277778
        k(    5) = (   0.0000000   0.0618274   0.0000000), wk =   0.0277778
        k(    6) = (   0.0000000   0.0772842   0.0000000), wk =   0.0277778
        k(    7) = (   0.0000000  -0.0927411   0.0000000), wk =   0.0138889
        k(    8) = (   0.0144290  -0.0055424   0.0000000), wk =   0.0277778
        k(    9) = (   0.0144290   0.0099144   0.0000000), wk =   0.0277778
        k(   10) = (   0.0144290   0.0253713   0.0000000), wk =   0.0277778
        k(   11) = (   0.0144290   0.0408281   0.0000000), wk =   0.0277778
        k(   12) = (   0.0144290   0.0562850   0.0000000), wk =   0.0277778
        k(   13) = (   0.0144290   0.0717418   0.0000000), wk =   0.0277778
        k(   14) = (   0.0144290  -0.0982835   0.0000000), wk =   0.0277778
        k(   15) = (   0.0144290  -0.0828267   0.0000000), wk =   0.0277778
        k(   16) = (   0.0144290  -0.0673698   0.0000000), wk =   0.0277778
        k(   17) = (   0.0144290  -0.0519130   0.0000000), wk =   0.0277778
        k(   18) = (   0.0144290  -0.0364561   0.0000000), wk =   0.0277778
        k(   19) = (   0.0144290  -0.0209993   0.0000000), wk =   0.0277778
        k(   20) = (   0.0288580  -0.0110848   0.0000000), wk =   0.0277778
        k(   21) = (   0.0288580   0.0043720   0.0000000), wk =   0.0277778
        k(   22) = (   0.0288580   0.0198289   0.0000000), wk =   0.0277778
        k(   23) = (   0.0288580   0.0352857   0.0000000), wk =   0.0277778
        k(   24) = (   0.0288580   0.0507426   0.0000000), wk =   0.0277778
        k(   25) = (   0.0288580   0.0661994   0.0000000), wk =   0.0277778
        k(   26) = (   0.0288580  -0.1038259   0.0000000), wk =   0.0277778
        k(   27) = (   0.0288580  -0.0883691   0.0000000), wk =   0.0277778
        k(   28) = (   0.0288580  -0.0729122   0.0000000), wk =   0.0277778
        k(   29) = (   0.0288580  -0.0574554   0.0000000), wk =   0.0277778
        k(   30) = (   0.0288580  -0.0419985   0.0000000), wk =   0.0277778
        k(   31) = (   0.0288580  -0.0265417   0.0000000), wk =   0.0277778
        k(   32) = (   0.0432870  -0.0166272   0.0000000), wk =   0.0277778
        k(   33) = (   0.0432870  -0.0011704   0.0000000), wk =   0.0277778
        k(   34) = (   0.0432870   0.0142865   0.0000000), wk =   0.0277778
        k(   35) = (   0.0432870   0.0297433   0.0000000), wk =   0.0277778
        k(   36) = (   0.0432870   0.0452002   0.0000000), wk =   0.0277778
        k(   37) = (   0.0432870   0.0606570   0.0000000), wk =   0.0277778
        k(   38) = (   0.0432870  -0.1093683   0.0000000), wk =   0.0277778
        k(   39) = (   0.0432870  -0.0939115   0.0000000), wk =   0.0277778
        k(   40) = (   0.0432870  -0.0784546   0.0000000), wk =   0.0277778
        k(   41) = (   0.0432870  -0.0629978   0.0000000), wk =   0.0277778
        k(   42) = (   0.0432870  -0.0475409   0.0000000), wk =   0.0277778
        k(   43) = (   0.0432870  -0.0320841   0.0000000), wk =   0.0277778
        k(   44) = (   0.0577160  -0.0221696   0.0000000), wk =   0.0277778
        k(   45) = (   0.0577160  -0.0067128   0.0000000), wk =   0.0277778
        k(   46) = (   0.0577160   0.0087441   0.0000000), wk =   0.0277778
        k(   47) = (   0.0577160   0.0242009   0.0000000), wk =   0.0277778
        k(   48) = (   0.0577160   0.0396578   0.0000000), wk =   0.0277778
        k(   49) = (   0.0577160   0.0551146   0.0000000), wk =   0.0277778
        k(   50) = (   0.0577160  -0.1149107   0.0000000), wk =   0.0277778
        k(   51) = (   0.0577160  -0.0994539   0.0000000), wk =   0.0277778
        k(   52) = (   0.0577160  -0.0839970   0.0000000), wk =   0.0277778
        k(   53) = (   0.0577160  -0.0685402   0.0000000), wk =   0.0277778
        k(   54) = (   0.0577160  -0.0530833   0.0000000), wk =   0.0277778
        k(   55) = (   0.0577160  -0.0376265   0.0000000), wk =   0.0277778
        k(   56) = (   0.0721450  -0.0277120   0.0000000), wk =   0.0277778
        k(   57) = (   0.0721450  -0.0122552   0.0000000), wk =   0.0277778
        k(   58) = (   0.0721450   0.0032017   0.0000000), wk =   0.0277778
        k(   59) = (   0.0721450   0.0186585   0.0000000), wk =   0.0277778
        k(   60) = (   0.0721450   0.0341154   0.0000000), wk =   0.0277778
        k(   61) = (   0.0721450   0.0495722   0.0000000), wk =   0.0277778
        k(   62) = (   0.0721450  -0.1204531   0.0000000), wk =   0.0277778
        k(   63) = (   0.0721450  -0.1049963   0.0000000), wk =   0.0277778
        k(   64) = (   0.0721450  -0.0895394   0.0000000), wk =   0.0277778
        k(   65) = (   0.0721450  -0.0740826   0.0000000), wk =   0.0277778
        k(   66) = (   0.0721450  -0.0586257   0.0000000), wk =   0.0277778
        k(   67) = (   0.0721450  -0.0431689   0.0000000), wk =   0.0277778
        k(   68) = (  -0.0865740   0.0332545   0.0000000), wk =   0.0138889
        k(   69) = (  -0.0865740   0.0487113   0.0000000), wk =   0.0277778
        k(   70) = (  -0.0865740   0.0641682   0.0000000), wk =   0.0277778
        k(   71) = (  -0.0865740   0.0796250   0.0000000), wk =   0.0277778
        k(   72) = (  -0.0865740   0.0950819   0.0000000), wk =   0.0277778
        k(   73) = (  -0.0865740   0.1105387   0.0000000), wk =   0.0277778
        k(   74) = (  -0.0865740  -0.0594866   0.0000000), wk =   0.0138889

     Initial potential from superposition of free atoms

     starting charge  131.98494, renormalised to  132.00000

     negative rho (up, down):  1.006E-03 0.000E+00

     %%%%%%%%%%%%%%%%%%%%%%%%%%%%%%%%%%%%%%%%%%%%%%%%%%%%%%%%%%%%%%%%%%%%%%%%
     %                                                                      %
     % You are using vdW-DF, which was implemented by the Thonhauser group. %
     % Please cite the following two papers that made this development      %
     % possible and the two reviews that describe the various versions:     %
     %                                                                      %
     %   T. Thonhauser et al., PRL 115, 136402 (2015).                      %
     %   T. Thonhauser et al., PRB 76, 125112 (2007).                       %
     %   K. Berland et al., Rep. Prog. Phys. 78, 066501 (2015).             %
     %   D.C. Langreth et al., J. Phys.: Condens. Matter 21, 084203 (2009). %
     %                                                                      %
     %                                                                      %
     % If you are calculating the stress with vdW-DF, please also cite:     %
     %                                                                      %
     %   R. Sabatini et al., J. Phys.: Condens. Matter 24, 424209 (2012).   %
     %                                                                      %
     %%%%%%%%%%%%%%%%%%%%%%%%%%%%%%%%%%%%%%%%%%%%%%%%%%%%%%%%%%%%%%%%%%%%%%%%

     Adding external electric field

     Computed dipole along edir(3) :
        Dipole                0.0002 Ry au,          0.0006 Debye
        Dipole field          0.0000 Ry au,

        Potential amp.       -0.0001 Ry
        Total length         45.6063 bohr

     Starting wfcs are  114 randomized atomic wfcs

     Self-consistent Calculation

     iteration #  1     ecut=    55.12 Ry     beta= 0.10
     Davidson diagonalization with overlap
     ethr =  1.00E-02,  avg # of iterations =  2.1

[...]

     total energy              =   -1168.44874623 Ry
     estimated scf accuracy    <       1.78833185 Ry

[...]

     iteration #  9     ecut=    55.12 Ry     beta= 0.10
     Davidson diagonalization with overlap
     c_bands:  1 eigenvalues not converged
     c_bands:  1 eigenvalues not converged
     c_bands:  1 eigenvalues not converged
     c_bands:  2 eigenvalues not converged
     c_bands:  1 eigenvalues not converged
     c_bands:  3 eigenvalues not converged
     c_bands:  1 eigenvalues not converged
     ethr =  3.51E-06,  avg # of iterations = 10.4

[...]

     iteration # 13     ecut=    55.12 Ry     beta= 0.10
     Davidson diagonalization with overlap
     c_bands:  1 eigenvalues not converged
     ethr =  2.62E-07,  avg # of iterations =  2.6

[...]

     total energy              =   -1168.57717563 Ry
     estimated scf accuracy    <       0.00002892 Ry

     iteration # 15     ecut=    55.12 Ry     beta= 0.10
     Davidson diagonalization with overlap
     ethr =  2.19E-08,  avg # of iterations =  2.4

[...]

     Adding external electric field

     Computed dipole along edir(3) :
        Dipole                0.0219 Ry au,          0.0556 Debye
        Dipole field          0.0001 Ry au,

        Potential amp.       -0.0048 Ry
        Total length         45.6063 bohr

     End of self-consistent calculation

          k = 0.0000 0.0000 0.0000 ( 35913 PWs)   bands (ev):

   -62.1053 -62.0932 -62.0873 -62.0752 -61.7246 -61.7122 -30.6565 -30.6319
   -30.6281 -30.6001 -30.5540 -30.5347 -30.5273 -30.5059 -30.5016 -30.4769
   -30.3384 -30.2694 -30.2508 -30.1844 -30.1510 -30.1471 -30.1142 -30.0416
    -5.7721  -4.2674  -3.9104  -3.7771  -3.6895  -3.5370  -3.4065  -3.4041
    -3.3473  -3.3258  -3.1657  -2.9492  -2.6986  -2.6812  -2.6554  -2.4633
    -2.4196  -2.3490  -2.2617  -2.2265  -2.2104  -2.0972  -2.0479  -1.8294
    -1.8064  -1.5880  -1.5771  -1.5441  -1.3061  -1.2193  -1.1358  -0.8710
    -0.3762   0.2120   0.2912   0.3738   0.5167   1.0891   1.1021   1.4860
     1.5594   1.6887   1.7537   1.9198   2.1060   2.1642   2.2207   2.3579
     2.3631   2.4178   2.6016   3.0886   3.1781   3.2734   3.5364

[...]

          k = 0.0721-0.0432 0.0000 ( 35918 PWs)   bands (ev):

[...]

          k =-0.0866 0.0333 0.0000 ( 35944 PWs)   bands (ev):

[...]

          k =-0.0866-0.0595 0.0000 ( 35952 PWs)   bands (ev):

   -62.1051 -62.0932 -62.0871 -62.0752 -61.7245 -61.7121 -30.6640 -30.6295
   -30.6270 -30.5986 -30.5596 -30.5434 -30.5400 -30.5125 -30.5047 -30.4790
   -30.3416 -30.2708 -30.2522 -30.1845 -30.1582 -30.1439 -30.1208 -30.0443
    -3.9946  -3.9517  -3.1061  -3.0350  -3.0279  -2.9561  -2.9100  -2.8823
    -2.7927  -2.7534  -2.6243  -2.5681  -2.5537  -2.4267  -2.4036  -2.1474
    -2.0845  -2.0757  -2.0745  -1.9871  -1.9531  -1.9398  -1.8895  -1.8717
    -1.7325  -1.7288  -1.6619  -1.6271  -1.5497  -1.5225  -1.4879  -1.2392
    -1.2241  -0.8774  -0.1731  -0.1244  -0.0960   0.0010   0.0322   0.1964
     0.2387   0.8512   1.0174   1.0889   1.1994   1.2255   1.3168   1.4976
     1.7310   2.1103   2.1304   2.1502   2.6456   2.8086   3.0345

     the Fermi energy is     1.4113 ev

!    total energy              =   -1168.57716840 Ry
     estimated scf accuracy    <       0.00000921 Ry
     smearing contrib. (-TS)   =      -0.06271811 Ry
     internal energy E=F+TS    =   -1168.51445029 Ry

     The total energy is F=E-TS. E is the sum of the following terms:
     one-electron contribution =   -8161.86629564 Ry
     hartree contribution      =    4113.03785778 Ry
     xc contribution           =    -390.85869369 Ry
     ewald contribution        =    3271.17268010 Ry
     electric field correction =       0.00000115 Ry

     convergence has been achieved in  15 iterations

     negative rho (up, down):  7.455E-04 0.000E+00

     Forces acting on atoms (cartesian axes, Ry/au):

     atom    1 type  1   force =    -0.00034375   -0.00023725    0.01776437
     atom    2 type  1   force =    -0.00034519   -0.00023618    0.01775470
     atom    3 type  2   force =    -0.00221630   -0.00152666    0.00275507
     atom    4 type  2   force =    -0.00222032   -0.00152378    0.00275756
     atom    5 type  1   force =    -0.00061094   -0.00041809   -0.00049393
     atom    6 type  1   force =    -0.00060896   -0.00042046   -0.00048781
     atom    7 type  2   force =     0.00081206    0.00057131   -0.01668356
     atom    8 type  2   force =     0.00082682    0.00055476   -0.01668239
     atom    9 type  1   force =     0.00147403    0.00101388   -0.00235337
     atom   10 type  1   force =     0.00147363    0.00101216   -0.00235401
     atom   11 type  2   force =     0.00088259    0.00060006   -0.00098878
     atom   12 type  2   force =     0.00087633    0.00061026   -0.00098785

     Total force =     0.035253     Total SCF correction =     0.012429
     SCF correction compared to forces is large: reduce conv_thr to get better values

     Writing output data file ./Pd2Hf2/Pd2Hf2_beef.save/

     General routines

     Parallel routines

   This run was terminated on:  11:11:25  25Jun2022

   JOB DONE.