     Program PWSCF v.6.6 starts on 24Jun2022 at  0: 0: 5

     R & G space division:  proc/nbgrp/npool/nimage =      37
     Fft bands division:     nmany     =       1
     Reading input from Pd2Ir2.in
Warning: card &CELL ignored
Warning: card / ignored

     Current dimensions of program PWSCF are:
     Max number of different atomic species (ntypx) = 10
     Max number of k-points (npk) =  40000
     Max angular momentum in pseudopotentials (lmaxx) =  3
     Presently stress not available with electric field and gates

     Message from routine cell_base_init:
     DEPRECATED: use true lattice parameter, not A to a.u. conversion factor
     file Pd.pbe-n-rrkjus_psl.1.0.0.UPF: wavefunction(s)  4D renormalized
     file Ir.pbe-n-rrkjus_psl.0.2.3.UPF: wavefunction(s)  5D renormalized

     IMPORTANT: XC functional enforced from input :
     Exchange-correlation= BEEF-VDW
                           (   1   4  43  14   2   0   0)
     Any further DFT definition will be discarded
     Please, verify this is what you really want

     Subspace diagonalization in iterative solution of the eigenvalue problem:
     a serial algorithm will be used

     Found symmetry operation: I + (  0.5000  0.0000  0.0000)
     This is a supercell, fractional translations are disabled

     bravais-lattice index     =            0
     lattice parameter (alat)  =       1.8897  a.u.
     unit-cell volume          =    4408.4058 (a.u.)^3
     number of atoms/cell      =           12
     number of atomic types    =            2
     number of electrons       =       114.00
     number of Kohn-Sham states=           68
     kinetic-energy cutoff     =      55.1240  Ry
     charge density cutoff     =     551.2396  Ry
     convergence threshold     =      1.0E-05
     mixing beta               =       0.1000
     number of iterations used =           10  plain     mixing
     Exchange-correlation= BEEF-VDW
                           (   1   4  43  14   2   0   0)

     celldm(1)=   1.889726  celldm(2)=   0.000000  celldm(3)=   0.000000
     celldm(4)=   0.000000  celldm(5)=   0.000000  celldm(6)=   0.000000

     crystal axes: (cart. coord. in units of alat)
               a(1) = (   5.526097   0.000000   0.000000 )
               a(2) = (  -2.763048   4.819568   0.000000 )
               a(3) = (   0.000000   0.000000  24.527791 )

     reciprocal axes: (cart. coord. in units 2 pi/alat)
               b(1) = (  0.180960  0.103744 -0.000000 )
               b(2) = (  0.000000  0.207487  0.000000 )
               b(3) = (  0.000000 -0.000000  0.040770 )

     PseudoPot. # 1 for Pd read from file:
     ../pseudo/Pd.pbe-n-rrkjus_psl.1.0.0.UPF
     MD5 check sum: d9f693bf1c5b493397a6bd6f2231cfc3
     Pseudo is Ultrasoft + core correction, Zval = 10.0
     Generated using "atomic" code by A. Dal Corso v.6.3
     Using radial grid of 1235 points,  6 beta functions with:
                l(1) =   0
                l(2) =   0
                l(3) =   1
                l(4) =   1
                l(5) =   2
                l(6) =   2
     Q(r) pseudized with 0 coefficients

     PseudoPot. # 2 for Ir read from file:
     ../pseudo/Ir.pbe-n-rrkjus_psl.0.2.3.UPF
     MD5 check sum: a93e608e8ddc29ee62145620b5f41564
     Pseudo is Ultrasoft + core correction, Zval =  9.0
     Generated using "atomic" code by A. Dal Corso v.5.0.2 svn rev. 9415
     Using radial grid of 1277 points,  6 beta functions with:
                l(1) =   0
                l(2) =   0
                l(3) =   1
                l(4) =   1
                l(5) =   2
                l(6) =   2
     Q(r) pseudized with 0 coefficients

     atomic species   valence    mass     pseudopotential
        Pd            10.00   106.42000     Pd( 1.00)
        Ir             9.00   192.21700     Ir( 1.00)

     No symmetry found

   Cartesian axes

     site n.     atom                  positions (alat units)
         1           Pd  tau(   1) = (   0.0000000   0.0000000  10.0000000  )
         2           Pd  tau(   2) = (   2.7630483   0.0000000  10.0000000  )
         3           Ir  tau(   3) = (   1.3815241   2.4097842  10.0000000  )
         4           Ir  tau(   4) = (  -1.3815241   2.4097842  10.0000000  )
         5           Pd  tau(   5) = (   2.7630483   1.5840496  12.2638954  )
         6           Pd  tau(   6) = (  -0.0000000   1.5840496  12.2638954  )
         7           Ir  tau(   7) = (  -1.3815241   3.9938339  12.2638954  )
         8           Ir  tau(   8) = (   1.3815241   3.9938339  12.2638954  )
         9           Pd  tau(   9) = (   0.0000436   3.0544681  14.6119289  )
        10           Pd  tau(  10) = (   2.7631336   3.0544652  14.6119267  )
        11           Ir  tau(  11) = (   4.1446127   0.6092506  14.4271179  )
        12           Ir  tau(  12) = (   1.3815630   0.6092418  14.4271116  )

     number of k points=    74  Fermi-Dirac smearing, width (Ry)=  0.0100
                       cart. coord. in units 2pi/alat
        k(    1) = (   0.0000000   0.0000000   0.0000000), wk =   0.0138889
        k(    2) = (   0.0000000   0.0172906   0.0000000), wk =   0.0277778
        k(    3) = (   0.0000000   0.0345812   0.0000000), wk =   0.0277778
        k(    4) = (   0.0000000   0.0518719   0.0000000), wk =   0.0277778
        k(    5) = (   0.0000000   0.0691625   0.0000000), wk =   0.0277778
        k(    6) = (   0.0000000   0.0864531   0.0000000), wk =   0.0277778
        k(    7) = (   0.0000000  -0.1037437   0.0000000), wk =   0.0138889
        k(    8) = (   0.0150800   0.0086453   0.0000000), wk =   0.0277778
        k(    9) = (   0.0150800   0.0259359   0.0000000), wk =   0.0277778
        k(   10) = (   0.0150800   0.0432266   0.0000000), wk =   0.0277778
        k(   11) = (   0.0150800   0.0605172   0.0000000), wk =   0.0277778
        k(   12) = (   0.0150800   0.0778078   0.0000000), wk =   0.0277778
        k(   13) = (   0.0150800   0.0950984   0.0000000), wk =   0.0277778
        k(   14) = (   0.0150800  -0.0950984   0.0000000), wk =   0.0277778
        k(   15) = (   0.0150800  -0.0778078   0.0000000), wk =   0.0277778
        k(   16) = (   0.0150800  -0.0605172   0.0000000), wk =   0.0277778
        k(   17) = (   0.0150800  -0.0432266   0.0000000), wk =   0.0277778
        k(   18) = (   0.0150800  -0.0259359   0.0000000), wk =   0.0277778
        k(   19) = (   0.0150800  -0.0086453   0.0000000), wk =   0.0277778
        k(   20) = (   0.0301599   0.0172906   0.0000000), wk =   0.0277778
        k(   21) = (   0.0301599   0.0345812   0.0000000), wk =   0.0277778
        k(   22) = (   0.0301599   0.0518719   0.0000000), wk =   0.0277778
        k(   23) = (   0.0301599   0.0691625   0.0000000), wk =   0.0277778
        k(   24) = (   0.0301599   0.0864531   0.0000000), wk =   0.0277778
        k(   25) = (   0.0301599   0.1037437   0.0000000), wk =   0.0277778
        k(   26) = (   0.0301599  -0.0864531   0.0000000), wk =   0.0277778
        k(   27) = (   0.0301599  -0.0691625   0.0000000), wk =   0.0277778
        k(   28) = (   0.0301599  -0.0518719   0.0000000), wk =   0.0277778
        k(   29) = (   0.0301599  -0.0345812   0.0000000), wk =   0.0277778
        k(   30) = (   0.0301599  -0.0172906   0.0000000), wk =   0.0277778
        k(   31) = (   0.0301599  -0.0000000   0.0000000), wk =   0.0277778
        k(   32) = (   0.0452399   0.0259359   0.0000000), wk =   0.0277778
        k(   33) = (   0.0452399   0.0432266   0.0000000), wk =   0.0277778
        k(   34) = (   0.0452399   0.0605172   0.0000000), wk =   0.0277778
        k(   35) = (   0.0452399   0.0778078   0.0000000), wk =   0.0277778
        k(   36) = (   0.0452399   0.0950984   0.0000000), wk =   0.0277778
        k(   37) = (   0.0452399   0.1123890   0.0000000), wk =   0.0277778
        k(   38) = (   0.0452399  -0.0778078   0.0000000), wk =   0.0277778
        k(   39) = (   0.0452399  -0.0605172   0.0000000), wk =   0.0277778
        k(   40) = (   0.0452399  -0.0432266   0.0000000), wk =   0.0277778
        k(   41) = (   0.0452399  -0.0259359   0.0000000), wk =   0.0277778
        k(   42) = (   0.0452399  -0.0086453   0.0000000), wk =   0.0277778
        k(   43) = (   0.0452399   0.0086453   0.0000000), wk =   0.0277778
        k(   44) = (   0.0603198   0.0345812   0.0000000), wk =   0.0277778
        k(   45) = (   0.0603198   0.0518719   0.0000000), wk =   0.0277778
        k(   46) = (   0.0603198   0.0691625   0.0000000), wk =   0.0277778
        k(   47) = (   0.0603198   0.0864531   0.0000000), wk =   0.0277778
        k(   48) = (   0.0603198   0.1037437   0.0000000), wk =   0.0277778
        k(   49) = (   0.0603198   0.1210344   0.0000000), wk =   0.0277778
        k(   50) = (   0.0603198  -0.0691625   0.0000000), wk =   0.0277778
        k(   51) = (   0.0603198  -0.0518719   0.0000000), wk =   0.0277778
        k(   52) = (   0.0603198  -0.0345813   0.0000000), wk =   0.0277778
        k(   53) = (   0.0603198  -0.0172906   0.0000000), wk =   0.0277778
        k(   54) = (   0.0603198  -0.0000000   0.0000000), wk =   0.0277778
        k(   55) = (   0.0603198   0.0172906   0.0000000), wk =   0.0277778
        k(   56) = (   0.0753998   0.0432265   0.0000000), wk =   0.0277778
        k(   57) = (   0.0753998   0.0605172   0.0000000), wk =   0.0277778
        k(   58) = (   0.0753998   0.0778078   0.0000000), wk =   0.0277778
        k(   59) = (   0.0753998   0.0950984   0.0000000), wk =   0.0277778
        k(   60) = (   0.0753998   0.1123890   0.0000000), wk =   0.0277778
        k(   61) = (   0.0753998   0.1296797   0.0000000), wk =   0.0277778
        k(   62) = (   0.0753998  -0.0605172   0.0000000), wk =   0.0277778
        k(   63) = (   0.0753998  -0.0432266   0.0000000), wk =   0.0277778
        k(   64) = (   0.0753998  -0.0259359   0.0000000), wk =   0.0277778
        k(   65) = (   0.0753998  -0.0086453   0.0000000), wk =   0.0277778
        k(   66) = (   0.0753998   0.0086453   0.0000000), wk =   0.0277778
        k(   67) = (   0.0753998   0.0259359   0.0000000), wk =   0.0277778
        k(   68) = (  -0.0904798  -0.0518719   0.0000000), wk =   0.0138889
        k(   69) = (  -0.0904798  -0.0345812   0.0000000), wk =   0.0277778
        k(   70) = (  -0.0904798  -0.0172906   0.0000000), wk =   0.0277778
        k(   71) = (  -0.0904798   0.0000000   0.0000000), wk =   0.0277778
        k(   72) = (  -0.0904798   0.0172906   0.0000000), wk =   0.0277778
        k(   73) = (  -0.0904798   0.0345813   0.0000000), wk =   0.0277778
        k(   74) = (  -0.0904798  -0.1556156   0.0000000), wk =   0.0138889

     Initial potential from superposition of free atoms

     starting charge  113.99568, renormalised to  114.00000

     negative rho (up, down):  9.539E-04 0.000E+00

     %%%%%%%%%%%%%%%%%%%%%%%%%%%%%%%%%%%%%%%%%%%%%%%%%%%%%%%%%%%%%%%%%%%%%%%%
     %                                                                      %
     % You are using vdW-DF, which was implemented by the Thonhauser group. %
     % Please cite the following two papers that made this development      %
     % possible and the two reviews that describe the various versions:     %
     %                                                                      %
     %   T. Thonhauser et al., PRL 115, 136402 (2015).                      %
     %   T. Thonhauser et al., PRB 76, 125112 (2007).                       %
     %   K. Berland et al., Rep. Prog. Phys. 78, 066501 (2015).             %
     %   D.C. Langreth et al., J. Phys.: Condens. Matter 21, 084203 (2009). %
     %                                                                      %
     %                                                                      %
     % If you are calculating the stress with vdW-DF, please also cite:     %
     %                                                                      %
     %   R. Sabatini et al., J. Phys.: Condens. Matter 24, 424209 (2012).   %
     %                                                                      %
     %%%%%%%%%%%%%%%%%%%%%%%%%%%%%%%%%%%%%%%%%%%%%%%%%%%%%%%%%%%%%%%%%%%%%%%%

     Adding external electric field

     Computed dipole along edir(3) :
        Dipole                0.0001 Ry au,          0.0003 Debye
        Dipole field          0.0000 Ry au,

        Potential amp.       -0.0000 Ry
        Total length         45.1920 bohr

     Starting wfcs are  108 randomized atomic wfcs

     Self-consistent Calculation

     iteration #  1     ecut=    55.12 Ry     beta= 0.10
     Davidson diagonalization with overlap
     ethr =  1.00E-02,  avg # of iterations =  2.0

[...]

     total energy              =    -788.90687422 Ry
     estimated scf accuracy    <       2.65747316 Ry

[...]

     total energy              =    -789.22427601 Ry
     estimated scf accuracy    <       0.00002234 Ry

     iteration # 15     ecut=    55.12 Ry     beta= 0.10
     Davidson diagonalization with overlap
     ethr =  1.96E-08,  avg # of iterations =  2.5

[...]

     Adding external electric field

     Computed dipole along edir(3) :
        Dipole                0.0247 Ry au,          0.0628 Debye
        Dipole field          0.0001 Ry au,

        Potential amp.       -0.0064 Ry
        Total length         45.1920 bohr

     End of self-consistent calculation

          k = 0.0000 0.0000 0.0000 ( 30561 PWs)   bands (ev):

    -7.5429  -5.9122  -5.6698  -5.5242  -5.4941  -5.2796  -5.1169  -5.0656
    -4.9899  -4.8039  -4.7913  -4.7844  -4.5305  -4.5032  -4.4240  -3.4275
    -3.3215  -3.2774  -3.0872  -2.9707  -2.9055  -2.8383  -2.7304  -2.7134
    -2.4234  -2.4065  -2.3353  -2.3297  -2.2991  -2.2070  -2.1943  -2.1296
    -1.6989  -1.6608  -1.4643  -1.1202  -1.0784  -1.0642  -0.8972  -0.8814
    -0.7044  -0.6405  -0.4566  -0.2723  -0.2447  -0.1245  -0.1224   0.0419
     0.2105   0.2627   0.3024   0.4254   0.4672   0.6397   0.6422   0.7265
     0.7990   0.8402   1.1040   1.1494   1.2084   1.3529   1.3811   1.6967
     1.8245   2.1874   2.2367   3.4800

[...]

          k = 0.0754 0.0259 0.0000 ( 30458 PWs)   bands (ev):

[...]

          k =-0.0905-0.0519 0.0000 ( 30460 PWs)   bands (ev):

[...]

          k =-0.0905-0.1556 0.0000 ( 30460 PWs)   bands (ev):

    -5.9014  -5.9014  -4.7527  -4.7527  -4.5123  -4.5123  -4.4654  -4.4654
    -4.2580  -4.2579  -4.0179  -4.0179  -3.7158  -3.7158  -3.6236  -3.6236
    -3.3227  -3.3227  -3.2023  -3.2022  -3.0639  -3.0639  -2.7221  -2.7220
    -2.4506  -2.4506  -2.3489  -2.3489  -2.2193  -2.2193  -2.1255  -2.1255
    -2.0227  -2.0227  -1.9782  -1.9781  -1.9232  -1.9231  -1.8122  -1.8121
    -1.4951  -1.4951  -1.2321  -1.2321  -0.9296  -0.9296  -0.8113  -0.8113
    -0.7211  -0.7211  -0.5550  -0.5550  -0.4099  -0.4099  -0.2985  -0.2985
     0.0866   0.0866   0.2151   0.2151   0.6079   0.6080   0.8765   0.8765
     2.3212   2.3212   3.0467   3.0467

     the Fermi energy is     0.3433 ev

!    total energy              =    -789.22426183 Ry
     estimated scf accuracy    <       0.00000809 Ry
     smearing contrib. (-TS)   =      -0.09200127 Ry
     internal energy E=F+TS    =    -789.13226056 Ry

     The total energy is F=E-TS. E is the sum of the following terms:
     one-electron contribution =   -6963.12901162 Ry
     hartree contribution      =    3556.49315327 Ry
     xc contribution           =    -329.36652527 Ry
     ewald contribution        =    2946.87012132 Ry
     electric field correction =       0.00000174 Ry

     convergence has been achieved in  15 iterations

     negative rho (up, down):  9.317E-04 0.000E+00

     Forces acting on atoms (cartesian axes, Ry/au):

     atom    1 type  1   force =    -0.00000104   -0.00396487   -0.01838361
     atom    2 type  1   force =     0.00000023   -0.00396321   -0.01838213
     atom    3 type  2   force =     0.00000510    0.01370462    0.02243801
     atom    4 type  2   force =    -0.00000403    0.01371181    0.02243018
     atom    5 type  1   force =     0.00000250    0.00643242   -0.00843318
     atom    6 type  1   force =     0.00000152    0.00643075   -0.00843202
     atom    7 type  2   force =     0.00000018   -0.01582891   -0.00106914
     atom    8 type  2   force =     0.00000088   -0.01582720   -0.00106509
     atom    9 type  1   force =     0.00001055   -0.00078944    0.00216197
     atom   10 type  1   force =    -0.00001453   -0.00078911    0.00216244
     atom   11 type  2   force =     0.00000175    0.00043686    0.00327824
     atom   12 type  2   force =    -0.00000309    0.00044628    0.00329435

     Total force =     0.053391     Total SCF correction =     0.015932
     SCF correction compared to forces is large: reduce conv_thr to get better values

     Writing output data file ./Pd2Ir2/Pd2Ir2_beef.save/

     General routines

     Parallel routines

   This run was terminated on:   0:20:30  24Jun2022

   JOB DONE.