     Program PWSCF v.6.6 starts on 24Jun2022 at  0:24: 9

     R & G space division:  proc/nbgrp/npool/nimage =      37
     Fft bands division:     nmany     =       1
     Reading input from Pd2Os2.in
Warning: card &CELL ignored
Warning: card / ignored

     Current dimensions of program PWSCF are:
     Max number of different atomic species (ntypx) = 10
     Max number of k-points (npk) =  40000
     Max angular momentum in pseudopotentials (lmaxx) =  3
     Presently stress not available with electric field and gates

     Message from routine cell_base_init:
     DEPRECATED: use true lattice parameter, not A to a.u. conversion factor
     file Pd.pbe-n-rrkjus_psl.1.0.0.UPF: wavefunction(s)  4D renormalized

     IMPORTANT: XC functional enforced from input :
     Exchange-correlation= BEEF-VDW
                           (   1   4  43  14   2   0   0)
     Any further DFT definition will be discarded
     Please, verify this is what you really want

     Subspace diagonalization in iterative solution of the eigenvalue problem:
     a serial algorithm will be used

     Found symmetry operation: I + (  0.5000  0.0000  0.0000)
     This is a supercell, fractional translations are disabled

     bravais-lattice index     =            0
     lattice parameter (alat)  =       1.8897  a.u.
     unit-cell volume          =    4367.6571 (a.u.)^3
     number of atoms/cell      =           12
     number of atomic types    =            2
     number of electrons       =       156.00
     number of Kohn-Sham states=           94
     kinetic-energy cutoff     =      55.1240  Ry
     charge density cutoff     =     551.2396  Ry
     convergence threshold     =      1.0E-05
     mixing beta               =       0.1000
     number of iterations used =           10  plain     mixing
     Exchange-correlation= BEEF-VDW
                           (   1   4  43  14   2   0   0)

     celldm(1)=   1.889726  celldm(2)=   0.000000  celldm(3)=   0.000000
     celldm(4)=   0.000000  celldm(5)=   0.000000  celldm(6)=   0.000000

     crystal axes: (cart. coord. in units of alat)
               a(1) = (   5.421209   0.000000   0.000000 )
               a(2) = (  -2.710604   4.871993   0.000000 )
               a(3) = (   0.000000   0.000000  24.504690 )

     reciprocal axes: (cart. coord. in units 2 pi/alat)
               b(1) = (  0.184461  0.102627 -0.000000 )
               b(2) = (  0.000000  0.205255  0.000000 )
               b(3) = (  0.000000 -0.000000  0.040809 )

     PseudoPot. # 1 for Pd read from file:
     ../pseudo/Pd.pbe-n-rrkjus_psl.1.0.0.UPF
     MD5 check sum: d9f693bf1c5b493397a6bd6f2231cfc3
     Pseudo is Ultrasoft + core correction, Zval = 10.0
     Generated using "atomic" code by A. Dal Corso v.6.3
     Using radial grid of 1235 points,  6 beta functions with:
                l(1) =   0
                l(2) =   0
                l(3) =   1
                l(4) =   1
                l(5) =   2
                l(6) =   2
     Q(r) pseudized with 0 coefficients

     PseudoPot. # 2 for Os read from file:
     ../pseudo/Os.pbe-spn-rrkjus_psl.1.0.0.UPF
     MD5 check sum: 3e7416ed594f6513d36e5cb31ba709d9
     Pseudo is Ultrasoft + core correction, Zval = 16.0
     Generated using "atomic" code by A. Dal Corso v.6.2.2
     Using radial grid of 1275 points,  6 beta functions with:
                l(1) =   0
                l(2) =   0
                l(3) =   1
                l(4) =   1
                l(5) =   2
                l(6) =   2
     Q(r) pseudized with 0 coefficients

     atomic species   valence    mass     pseudopotential
        Pd            10.00   106.42000     Pd( 1.00)
        Os            16.00   190.23000     Os( 1.00)

     No symmetry found

   Cartesian axes

     site n.     atom                  positions (alat units)
         1           Pd  tau(   1) = (   0.0000000   0.0000000  10.0000000  )
         2           Pd  tau(   2) = (   2.7106043   0.0000000  10.0000000  )
         3           Os  tau(   3) = (   1.3553022   2.4359967  10.0000000  )
         4           Os  tau(   4) = (  -1.3553022   2.4359967  10.0000000  )
         5           Pd  tau(   5) = (   2.7106043   1.5080841  12.2523451  )
         6           Pd  tau(   6) = (  -0.0000000   1.5080841  12.2523451  )
         7           Os  tau(   7) = (  -1.3553022   3.9440808  12.2523451  )
         8           Os  tau(   8) = (   1.3553022   3.9440808  12.2523451  )
         9           Pd  tau(   9) = (  -0.0000066   2.9288814  14.5726237  )
        10           Pd  tau(  10) = (   2.7105633   2.9288779  14.5726239  )
        11           Os  tau(  11) = (   4.0658947   0.4066330  14.3532258  )
        12           Os  tau(  12) = (   1.3552892   0.4066511  14.3532325  )

     number of k points=    74  Fermi-Dirac smearing, width (Ry)=  0.0100
                       cart. coord. in units 2pi/alat
        k(    1) = (   0.0000000   0.0000000   0.0000000), wk =   0.0138889
        k(    2) = (   0.0000000   0.0171046   0.0000000), wk =   0.0277778
        k(    3) = (   0.0000000   0.0342091   0.0000000), wk =   0.0277778
        k(    4) = (   0.0000000   0.0513137   0.0000000), wk =   0.0277778
        k(    5) = (   0.0000000   0.0684183   0.0000000), wk =   0.0277778
        k(    6) = (   0.0000000   0.0855228   0.0000000), wk =   0.0277778
        k(    7) = (   0.0000000  -0.1026274   0.0000000), wk =   0.0138889
        k(    8) = (   0.0153717   0.0085523   0.0000000), wk =   0.0277778
        k(    9) = (   0.0153717   0.0256568   0.0000000), wk =   0.0277778
        k(   10) = (   0.0153717   0.0427614   0.0000000), wk =   0.0277778
        k(   11) = (   0.0153717   0.0598660   0.0000000), wk =   0.0277778
        k(   12) = (   0.0153717   0.0769706   0.0000000), wk =   0.0277778
        k(   13) = (   0.0153717   0.0940751   0.0000000), wk =   0.0277778
        k(   14) = (   0.0153717  -0.0940751   0.0000000), wk =   0.0277778
        k(   15) = (   0.0153717  -0.0769706   0.0000000), wk =   0.0277778
        k(   16) = (   0.0153717  -0.0598660   0.0000000), wk =   0.0277778
        k(   17) = (   0.0153717  -0.0427614   0.0000000), wk =   0.0277778
        k(   18) = (   0.0153717  -0.0256569   0.0000000), wk =   0.0277778
        k(   19) = (   0.0153717  -0.0085523   0.0000000), wk =   0.0277778
        k(   20) = (   0.0307434   0.0171046   0.0000000), wk =   0.0277778
        k(   21) = (   0.0307434   0.0342091   0.0000000), wk =   0.0277778
        k(   22) = (   0.0307434   0.0513137   0.0000000), wk =   0.0277778
        k(   23) = (   0.0307434   0.0684183   0.0000000), wk =   0.0277778
        k(   24) = (   0.0307434   0.0855228   0.0000000), wk =   0.0277778
        k(   25) = (   0.0307434   0.1026274   0.0000000), wk =   0.0277778
        k(   26) = (   0.0307434  -0.0855228   0.0000000), wk =   0.0277778
        k(   27) = (   0.0307434  -0.0684183   0.0000000), wk =   0.0277778
        k(   28) = (   0.0307434  -0.0513137   0.0000000), wk =   0.0277778
        k(   29) = (   0.0307434  -0.0342091   0.0000000), wk =   0.0277778
        k(   30) = (   0.0307434  -0.0171046   0.0000000), wk =   0.0277778
        k(   31) = (   0.0307434  -0.0000000   0.0000000), wk =   0.0277778
        k(   32) = (   0.0461152   0.0256568   0.0000000), wk =   0.0277778
        k(   33) = (   0.0461152   0.0427614   0.0000000), wk =   0.0277778
        k(   34) = (   0.0461152   0.0598660   0.0000000), wk =   0.0277778
        k(   35) = (   0.0461152   0.0769705   0.0000000), wk =   0.0277778
        k(   36) = (   0.0461152   0.0940751   0.0000000), wk =   0.0277778
        k(   37) = (   0.0461152   0.1111797   0.0000000), wk =   0.0277778
        k(   38) = (   0.0461152  -0.0769706   0.0000000), wk =   0.0277778
        k(   39) = (   0.0461152  -0.0598660   0.0000000), wk =   0.0277778
        k(   40) = (   0.0461152  -0.0427614   0.0000000), wk =   0.0277778
        k(   41) = (   0.0461152  -0.0256569   0.0000000), wk =   0.0277778
        k(   42) = (   0.0461152  -0.0085523   0.0000000), wk =   0.0277778
        k(   43) = (   0.0461152   0.0085523   0.0000000), wk =   0.0277778
        k(   44) = (   0.0614869   0.0342091   0.0000000), wk =   0.0277778
        k(   45) = (   0.0614869   0.0513137   0.0000000), wk =   0.0277778
        k(   46) = (   0.0614869   0.0684183   0.0000000), wk =   0.0277778
        k(   47) = (   0.0614869   0.0855228   0.0000000), wk =   0.0277778
        k(   48) = (   0.0614869   0.1026274   0.0000000), wk =   0.0277778
        k(   49) = (   0.0614869   0.1197320   0.0000000), wk =   0.0277778
        k(   50) = (   0.0614869  -0.0684183   0.0000000), wk =   0.0277778
        k(   51) = (   0.0614869  -0.0513137   0.0000000), wk =   0.0277778
        k(   52) = (   0.0614869  -0.0342091   0.0000000), wk =   0.0277778
        k(   53) = (   0.0614869  -0.0171046   0.0000000), wk =   0.0277778
        k(   54) = (   0.0614869  -0.0000000   0.0000000), wk =   0.0277778
        k(   55) = (   0.0614869   0.0171046   0.0000000), wk =   0.0277778
        k(   56) = (   0.0768586   0.0427614   0.0000000), wk =   0.0277778
        k(   57) = (   0.0768586   0.0598660   0.0000000), wk =   0.0277778
        k(   58) = (   0.0768586   0.0769705   0.0000000), wk =   0.0277778
        k(   59) = (   0.0768586   0.0940751   0.0000000), wk =   0.0277778
        k(   60) = (   0.0768586   0.1111797   0.0000000), wk =   0.0277778
        k(   61) = (   0.0768586   0.1282842   0.0000000), wk =   0.0277778
        k(   62) = (   0.0768586  -0.0598660   0.0000000), wk =   0.0277778
        k(   63) = (   0.0768586  -0.0427614   0.0000000), wk =   0.0277778
        k(   64) = (   0.0768586  -0.0256569   0.0000000), wk =   0.0277778
        k(   65) = (   0.0768586  -0.0085523   0.0000000), wk =   0.0277778
        k(   66) = (   0.0768586   0.0085523   0.0000000), wk =   0.0277778
        k(   67) = (   0.0768586   0.0256568   0.0000000), wk =   0.0277778
        k(   68) = (  -0.0922303  -0.0513137   0.0000000), wk =   0.0138889
        k(   69) = (  -0.0922303  -0.0342091   0.0000000), wk =   0.0277778
        k(   70) = (  -0.0922303  -0.0171046   0.0000000), wk =   0.0277778
        k(   71) = (  -0.0922303   0.0000000   0.0000000), wk =   0.0277778
        k(   72) = (  -0.0922303   0.0171046   0.0000000), wk =   0.0277778
        k(   73) = (  -0.0922303   0.0342091   0.0000000), wk =   0.0277778
        k(   74) = (  -0.0922303  -0.1539411   0.0000000), wk =   0.0138889

     Initial potential from superposition of free atoms

     starting charge  155.99511, renormalised to  156.00000

     negative rho (up, down):  9.897E-04 0.000E+00

     %%%%%%%%%%%%%%%%%%%%%%%%%%%%%%%%%%%%%%%%%%%%%%%%%%%%%%%%%%%%%%%%%%%%%%%%
     %                                                                      %
     % You are using vdW-DF, which was implemented by the Thonhauser group. %
     % Please cite the following two papers that made this development      %
     % possible and the two reviews that describe the various versions:     %
     %                                                                      %
     %   T. Thonhauser et al., PRL 115, 136402 (2015).                      %
     %   T. Thonhauser et al., PRB 76, 125112 (2007).                       %
     %   K. Berland et al., Rep. Prog. Phys. 78, 066501 (2015).             %
     %   D.C. Langreth et al., J. Phys.: Condens. Matter 21, 084203 (2009). %
     %                                                                      %
     %                                                                      %
     % If you are calculating the stress with vdW-DF, please also cite:     %
     %                                                                      %
     %   R. Sabatini et al., J. Phys.: Condens. Matter 24, 424209 (2012).   %
     %                                                                      %
     %%%%%%%%%%%%%%%%%%%%%%%%%%%%%%%%%%%%%%%%%%%%%%%%%%%%%%%%%%%%%%%%%%%%%%%%

     Adding external electric field

     Computed dipole along edir(3) :
        Dipole                0.0002 Ry au,          0.0005 Debye
        Dipole field          0.0000 Ry au,

        Potential amp.       -0.0001 Ry
        Total length         45.1495 bohr

     Starting wfcs are  114 randomized atomic wfcs

     Self-consistent Calculation

     iteration #  1     ecut=    55.12 Ry     beta= 0.10
     Davidson diagonalization with overlap
     ethr =  1.00E-02,  avg # of iterations =  3.8

[...]

     total energy              =   -1614.26201638 Ry
     estimated scf accuracy    <       1.69098318 Ry

[...]

     total energy              =   -1614.41951216 Ry
     estimated scf accuracy    <       0.00005788 Ry

     iteration # 13     ecut=    55.12 Ry     beta= 0.10
     Davidson diagonalization with overlap
     ethr =  3.71E-08,  avg # of iterations =  2.0

[...]

     Adding external electric field

     Computed dipole along edir(3) :
        Dipole                0.0144 Ry au,          0.0365 Debye
        Dipole field          0.0000 Ry au,

        Potential amp.       -0.0037 Ry
        Total length         45.1495 bohr

     End of self-consistent calculation

          k = 0.0000 0.0000 0.0000 ( 30217 PWs)   bands (ev):

   -85.5619 -85.5311 -85.0795 -85.0484 -84.9343 -84.9031 -45.0525 -44.9945
   -44.9876 -44.8213 -44.7682 -44.6179 -44.5268 -44.4589 -44.3404 -44.2869
   -44.2438 -44.1924 -44.1833 -44.1297 -44.0907 -44.0898 -44.0401 -43.9983
    -6.8234  -5.0725  -4.8299  -4.7653  -4.7339  -4.5164  -4.2849  -4.2692
    -4.1865  -3.9857  -3.9342  -3.8883  -3.6474  -3.5600  -3.5488  -2.4938
    -2.4486  -2.4280  -2.3581  -2.0419  -2.0157  -1.9495  -1.8058  -1.6498
    -1.4888  -1.4113  -1.3425  -1.3216  -1.2952  -1.2782  -1.0711  -0.9552
    -0.7872  -0.7612  -0.2077  -0.1911  -0.1196  -0.1106   0.1292   0.1908
     0.3523   0.7167   0.7203   0.8385   0.8585   0.8964   0.9639   1.3357
     1.4191   1.6010   1.6196   1.7711   1.8334   1.9867   2.1704   2.3095
     2.3367   2.3722   2.7033   2.7806   2.8213   2.8514   2.9379   3.0263
     3.0989   3.2685   3.7257   4.2758   4.7944   4.8547

[...]

          k = 0.0769 0.0257 0.0000 ( 30215 PWs)   bands (ev):

[...]

          k =-0.0922-0.0513 0.0000 ( 30164 PWs)   bands (ev):

[...]

          k =-0.0922-0.1539 0.0000 ( 30164 PWs)   bands (ev):

   -85.5465 -85.5465 -85.0640 -85.0639 -84.9188 -84.9186 -45.0241 -45.0241
   -44.7956 -44.7956 -44.7277 -44.7277 -44.3583 -44.3582 -44.3144 -44.3144
   -44.2671 -44.2669 -44.2182 -44.2181 -44.1574 -44.1572 -44.0657 -44.0656
    -5.0946  -5.0946  -3.8928  -3.8928  -3.6729  -3.6729  -3.6142  -3.6142
    -3.4114  -3.4114  -3.1457  -3.1456  -2.7885  -2.7885  -2.7376  -2.7376
    -2.5039  -2.5039  -2.2795  -2.2795  -2.0783  -2.0783  -1.7562  -1.7561
    -1.5529  -1.5528  -1.4018  -1.4018  -1.2828  -1.2827  -1.2271  -1.2270
    -1.0931  -1.0930  -0.9436  -0.9436  -0.8236  -0.8236  -0.6948  -0.6948
    -0.4936  -0.4936  -0.0164  -0.0164   0.3762   0.3762   0.4489   0.4489
     0.5535   0.5535   0.7347   0.7348   0.8189   0.8190   0.9152   0.9152
     1.4038   1.4038   1.7000   1.7001   2.1423   2.1423   2.4241   2.4241
     3.6921   3.6921   4.3258   4.3258   5.0590   5.0590

     the Fermi energy is     1.3926 ev

!    total energy              =   -1614.41950023 Ry
     estimated scf accuracy    <       0.00000454 Ry
     smearing contrib. (-TS)   =      -0.06583018 Ry
     internal energy E=F+TS    =   -1614.35367005 Ry

     The total energy is F=E-TS. E is the sum of the following terms:
     one-electron contribution =  -13784.20422087 Ry
     hartree contribution      =    6921.86965687 Ry
     xc contribution           =    -370.17909140 Ry
     ewald contribution        =    5618.15998476 Ry
     electric field correction =       0.00000059 Ry

     convergence has been achieved in  13 iterations

     negative rho (up, down):  8.620E-04 0.000E+00

     Forces acting on atoms (cartesian axes, Ry/au):

     atom    1 type  1   force =    -0.00000076   -0.01778320   -0.01477502
     atom    2 type  1   force =     0.00000061   -0.01777942   -0.01477553
     atom    3 type  2   force =    -0.00000956    0.02101525    0.03198332
     atom    4 type  2   force =     0.00000966    0.02102026    0.03198070
     atom    5 type  1   force =     0.00000621    0.01122368   -0.01488720
     atom    6 type  1   force =    -0.00000684    0.01122149   -0.01488569
     atom    7 type  2   force =     0.00000688   -0.01400072   -0.00463134
     atom    8 type  2   force =    -0.00000644   -0.01401682   -0.00464740
     atom    9 type  1   force =    -0.00000940   -0.00046653    0.00210713
     atom   10 type  1   force =     0.00001213   -0.00046589    0.00210599
     atom   11 type  2   force =    -0.00000290    0.00002174    0.00021250
     atom   12 type  2   force =     0.00000039    0.00001016    0.00021253

     Total force =     0.071681     Total SCF correction =     0.015287
     SCF correction compared to forces is large: reduce conv_thr to get better values

     Writing output data file ./Pd2Os2/Pd2Os2_beef.save/

     General routines

     Parallel routines

   This run was terminated on:   0:50: 0  24Jun2022

   JOB DONE.