     Program PWSCF v.6.6 starts on 24Jun2022 at 10:13:58

     R & G space division:  proc/nbgrp/npool/nimage =      37
     Fft bands division:     nmany     =       1
     Reading input from Pd2Pt2.in
Warning: card &CELL ignored
Warning: card / ignored

     Current dimensions of program PWSCF are:
     Max number of different atomic species (ntypx) = 10
     Max number of k-points (npk) =  40000
     Max angular momentum in pseudopotentials (lmaxx) =  3
     Presently stress not available with electric field and gates

     Message from routine cell_base_init:
     DEPRECATED: use true lattice parameter, not A to a.u. conversion factor
     file Pd.pbe-n-rrkjus_psl.1.0.0.UPF: wavefunction(s)  4D renormalized
     file Pt.pbe-n-rrkjus_psl.1.0.0.UPF: wavefunction(s)  6S renormalized

     IMPORTANT: XC functional enforced from input :
     Exchange-correlation= BEEF-VDW
                           (   1   4  43  14   2   0   0)
     Any further DFT definition will be discarded
     Please, verify this is what you really want

     Subspace diagonalization in iterative solution of the eigenvalue problem:
     a serial algorithm will be used

     Found symmetry operation: I + (  0.5000  0.0000  0.0000)
     This is a supercell, fractional translations are disabled

     bravais-lattice index     =            0
     lattice parameter (alat)  =       1.8897  a.u.
     unit-cell volume          =    4557.7818 (a.u.)^3
     number of atoms/cell      =           12
     number of atomic types    =            2
     number of electrons       =       120.00
     number of Kohn-Sham states=           72
     kinetic-energy cutoff     =      55.1240  Ry
     charge density cutoff     =     551.2396  Ry
     convergence threshold     =      1.0E-05
     mixing beta               =       0.1000
     number of iterations used =           10  plain     mixing
     Exchange-correlation= BEEF-VDW
                           (   1   4  43  14   2   0   0)

     celldm(1)=   1.889726  celldm(2)=   0.000000  celldm(3)=   0.000000
     celldm(4)=   0.000000  celldm(5)=   0.000000  celldm(6)=   0.000000

     crystal axes: (cart. coord. in units of alat)
               a(1) = (   5.622628   0.000000   0.000000 )
               a(2) = (  -2.811314   4.883454   0.000000 )
               a(3) = (   0.000000   0.000000  24.597477 )

     reciprocal axes: (cart. coord. in units 2 pi/alat)
               b(1) = (  0.177853  0.102387 -0.000000 )
               b(2) = (  0.000000  0.204773  0.000000 )
               b(3) = (  0.000000 -0.000000  0.040655 )

     PseudoPot. # 1 for Pd read from file:
     ../pseudo/Pd.pbe-n-rrkjus_psl.1.0.0.UPF
     MD5 check sum: d9f693bf1c5b493397a6bd6f2231cfc3
     Pseudo is Ultrasoft + core correction, Zval = 10.0
     Generated using "atomic" code by A. Dal Corso v.6.3
     Using radial grid of 1235 points,  6 beta functions with:
                l(1) =   0
                l(2) =   0
                l(3) =   1
                l(4) =   1
                l(5) =   2
                l(6) =   2
     Q(r) pseudized with 0 coefficients

     PseudoPot. # 2 for Pt read from file:
     ../pseudo/Pt.pbe-n-rrkjus_psl.1.0.0.UPF
     MD5 check sum: 6bc887cfe28d63a5fc1f72d35a7d3ef7
     Pseudo is Ultrasoft + core correction, Zval = 10.0
     Generated using "atomic" code by A. Dal Corso v.6.3
     Using radial grid of 1277 points,  6 beta functions with:
                l(1) =   0
                l(2) =   0
                l(3) =   1
                l(4) =   1
                l(5) =   2
                l(6) =   2
     Q(r) pseudized with 0 coefficients

     atomic species   valence    mass     pseudopotential
        Pd            10.00   106.42000     Pd( 1.00)
        Pt            10.00   195.08400     Pt( 1.00)

     No symmetry found

   Cartesian axes

     site n.     atom                  positions (alat units)
         1           Pd  tau(   1) = (   0.0000000   0.0000000  10.0000000  )
         2           Pd  tau(   2) = (   2.8113138   0.0000000  10.0000000  )
         3           Pt  tau(   3) = (   1.4056569   2.4417270  10.0000000  )
         4           Pt  tau(   4) = (  -1.4056569   2.4417270  10.0000000  )
         5           Pd  tau(   5) = (   2.8113138   1.6184212  12.2987384  )
         6           Pd  tau(   6) = (  -0.0000000   1.6184212  12.2987384  )
         7           Pt  tau(   7) = (  -1.4056569   4.0601481  12.2987384  )
         8           Pt  tau(   8) = (   1.4056569   4.0601481  12.2987384  )
         9           Pd  tau(   9) = (   0.0000003   3.2295804  14.6533096  )
        10           Pd  tau(  10) = (   2.8113139   3.2295779  14.6533113  )
        11           Pt  tau(  11) = (   4.2169706   0.7821502  14.5607349  )
        12           Pt  tau(  12) = (   1.4056573   0.7821501  14.5607349  )

     number of k points=    74  Fermi-Dirac smearing, width (Ry)=  0.0100
                       cart. coord. in units 2pi/alat
        k(    1) = (   0.0000000   0.0000000   0.0000000), wk =   0.0138889
        k(    2) = (   0.0000000   0.0170644   0.0000000), wk =   0.0277778
        k(    3) = (   0.0000000   0.0341288   0.0000000), wk =   0.0277778
        k(    4) = (   0.0000000   0.0511933   0.0000000), wk =   0.0277778
        k(    5) = (   0.0000000   0.0682577   0.0000000), wk =   0.0277778
        k(    6) = (   0.0000000   0.0853221   0.0000000), wk =   0.0277778
        k(    7) = (   0.0000000  -0.1023865   0.0000000), wk =   0.0138889
        k(    8) = (   0.0148211   0.0085322   0.0000000), wk =   0.0277778
        k(    9) = (   0.0148211   0.0255966   0.0000000), wk =   0.0277778
        k(   10) = (   0.0148211   0.0426611   0.0000000), wk =   0.0277778
        k(   11) = (   0.0148211   0.0597255   0.0000000), wk =   0.0277778
        k(   12) = (   0.0148211   0.0767899   0.0000000), wk =   0.0277778
        k(   13) = (   0.0148211   0.0938543   0.0000000), wk =   0.0277778
        k(   14) = (   0.0148211  -0.0938543   0.0000000), wk =   0.0277778
        k(   15) = (   0.0148211  -0.0767899   0.0000000), wk =   0.0277778
        k(   16) = (   0.0148211  -0.0597255   0.0000000), wk =   0.0277778
        k(   17) = (   0.0148211  -0.0426611   0.0000000), wk =   0.0277778
        k(   18) = (   0.0148211  -0.0255966   0.0000000), wk =   0.0277778
        k(   19) = (   0.0148211  -0.0085322   0.0000000), wk =   0.0277778
        k(   20) = (   0.0296421   0.0170644   0.0000000), wk =   0.0277778
        k(   21) = (   0.0296421   0.0341288   0.0000000), wk =   0.0277778
        k(   22) = (   0.0296421   0.0511933   0.0000000), wk =   0.0277778
        k(   23) = (   0.0296421   0.0682577   0.0000000), wk =   0.0277778
        k(   24) = (   0.0296421   0.0853221   0.0000000), wk =   0.0277778
        k(   25) = (   0.0296421   0.1023865   0.0000000), wk =   0.0277778
        k(   26) = (   0.0296421  -0.0853221   0.0000000), wk =   0.0277778
        k(   27) = (   0.0296421  -0.0682577   0.0000000), wk =   0.0277778
        k(   28) = (   0.0296421  -0.0511933   0.0000000), wk =   0.0277778
        k(   29) = (   0.0296421  -0.0341288   0.0000000), wk =   0.0277778
        k(   30) = (   0.0296421  -0.0170644   0.0000000), wk =   0.0277778
        k(   31) = (   0.0296421  -0.0000000   0.0000000), wk =   0.0277778
        k(   32) = (   0.0444632   0.0255966   0.0000000), wk =   0.0277778
        k(   33) = (   0.0444632   0.0426611   0.0000000), wk =   0.0277778
        k(   34) = (   0.0444632   0.0597255   0.0000000), wk =   0.0277778
        k(   35) = (   0.0444632   0.0767899   0.0000000), wk =   0.0277778
        k(   36) = (   0.0444632   0.0938543   0.0000000), wk =   0.0277778
        k(   37) = (   0.0444632   0.1109188   0.0000000), wk =   0.0277778
        k(   38) = (   0.0444632  -0.0767899   0.0000000), wk =   0.0277778
        k(   39) = (   0.0444632  -0.0597255   0.0000000), wk =   0.0277778
        k(   40) = (   0.0444632  -0.0426611   0.0000000), wk =   0.0277778
        k(   41) = (   0.0444632  -0.0255966   0.0000000), wk =   0.0277778
        k(   42) = (   0.0444632  -0.0085322   0.0000000), wk =   0.0277778
        k(   43) = (   0.0444632   0.0085322   0.0000000), wk =   0.0277778
        k(   44) = (   0.0592843   0.0341288   0.0000000), wk =   0.0277778
        k(   45) = (   0.0592843   0.0511933   0.0000000), wk =   0.0277778
        k(   46) = (   0.0592843   0.0682577   0.0000000), wk =   0.0277778
        k(   47) = (   0.0592843   0.0853221   0.0000000), wk =   0.0277778
        k(   48) = (   0.0592843   0.1023865   0.0000000), wk =   0.0277778
        k(   49) = (   0.0592843   0.1194510   0.0000000), wk =   0.0277778
        k(   50) = (   0.0592843  -0.0682577   0.0000000), wk =   0.0277778
        k(   51) = (   0.0592843  -0.0511933   0.0000000), wk =   0.0277778
        k(   52) = (   0.0592843  -0.0341288   0.0000000), wk =   0.0277778
        k(   53) = (   0.0592843  -0.0170644   0.0000000), wk =   0.0277778
        k(   54) = (   0.0592843   0.0000000   0.0000000), wk =   0.0277778
        k(   55) = (   0.0592843   0.0170644   0.0000000), wk =   0.0277778
        k(   56) = (   0.0741053   0.0426611   0.0000000), wk =   0.0277778
        k(   57) = (   0.0741053   0.0597255   0.0000000), wk =   0.0277778
        k(   58) = (   0.0741053   0.0767899   0.0000000), wk =   0.0277778
        k(   59) = (   0.0741053   0.0938543   0.0000000), wk =   0.0277778
        k(   60) = (   0.0741053   0.1109188   0.0000000), wk =   0.0277778
        k(   61) = (   0.0741053   0.1279832   0.0000000), wk =   0.0277778
        k(   62) = (   0.0741053  -0.0597255   0.0000000), wk =   0.0277778
        k(   63) = (   0.0741053  -0.0426611   0.0000000), wk =   0.0277778
        k(   64) = (   0.0741053  -0.0255966   0.0000000), wk =   0.0277778
        k(   65) = (   0.0741053  -0.0085322   0.0000000), wk =   0.0277778
        k(   66) = (   0.0741053   0.0085322   0.0000000), wk =   0.0277778
        k(   67) = (   0.0741053   0.0255966   0.0000000), wk =   0.0277778
        k(   68) = (  -0.0889264  -0.0511933   0.0000000), wk =   0.0138889
        k(   69) = (  -0.0889264  -0.0341288   0.0000000), wk =   0.0277778
        k(   70) = (  -0.0889264  -0.0170644   0.0000000), wk =   0.0277778
        k(   71) = (  -0.0889264   0.0000000   0.0000000), wk =   0.0277778
        k(   72) = (  -0.0889264   0.0170644   0.0000000), wk =   0.0277778
        k(   73) = (  -0.0889264   0.0341288   0.0000000), wk =   0.0277778
        k(   74) = (  -0.0889264  -0.1535798   0.0000000), wk =   0.0138889

     Initial potential from superposition of free atoms

     starting charge  119.99555, renormalised to  120.00000

     negative rho (up, down):  1.133E-03 0.000E+00

     %%%%%%%%%%%%%%%%%%%%%%%%%%%%%%%%%%%%%%%%%%%%%%%%%%%%%%%%%%%%%%%%%%%%%%%%
     %                                                                      %
     % You are using vdW-DF, which was implemented by the Thonhauser group. %
     % Please cite the following two papers that made this development      %
     % possible and the two reviews that describe the various versions:     %
     %                                                                      %
     %   T. Thonhauser et al., PRL 115, 136402 (2015).                      %
     %   T. Thonhauser et al., PRB 76, 125112 (2007).                       %
     %   K. Berland et al., Rep. Prog. Phys. 78, 066501 (2015).             %
     %   D.C. Langreth et al., J. Phys.: Condens. Matter 21, 084203 (2009). %
     %                                                                      %
     %                                                                      %
     % If you are calculating the stress with vdW-DF, please also cite:     %
     %                                                                      %
     %   R. Sabatini et al., J. Phys.: Condens. Matter 24, 424209 (2012).   %
     %                                                                      %
     %%%%%%%%%%%%%%%%%%%%%%%%%%%%%%%%%%%%%%%%%%%%%%%%%%%%%%%%%%%%%%%%%%%%%%%%

     Adding external electric field

     Computed dipole along edir(3) :
        Dipole                0.0001 Ry au,          0.0002 Debye
        Dipole field          0.0000 Ry au,

        Potential amp.       -0.0000 Ry
        Total length         45.3204 bohr

     Starting wfcs are  108 randomized atomic wfcs

     Self-consistent Calculation

     iteration #  1     ecut=    55.12 Ry     beta= 0.10
     Davidson diagonalization with overlap
     ethr =  1.00E-02,  avg # of iterations =  2.0

     Threshold (ethr) on eigenvalues was too large:
     Diagonalizing with lowered threshold

     Davidson diagonalization with overlap
     ethr =  4.27E-04,  avg # of iterations =  3.8

[...]

     total energy              =    -807.90514998 Ry
     estimated scf accuracy    <       0.60844385 Ry

[...]

     iteration #  6     ecut=    55.12 Ry     beta= 0.10
     Davidson diagonalization with overlap
     c_bands:  1 eigenvalues not converged
     ethr =  5.26E-05,  avg # of iterations =  3.9

[...]

     total energy              =    -807.90860779 Ry
     estimated scf accuracy    <       0.00001670 Ry

     iteration # 14     ecut=    55.12 Ry     beta= 0.10
     Davidson diagonalization with overlap
     ethr =  1.39E-08,  avg # of iterations =  2.1

[...]

     Adding external electric field

     Computed dipole along edir(3) :
        Dipole                0.0046 Ry au,          0.0116 Debye
        Dipole field          0.0000 Ry au,

        Potential amp.       -0.0011 Ry
        Total length         45.3204 bohr

     End of self-consistent calculation

          k = 0.0000 0.0000 0.0000 ( 31585 PWs)   bands (ev):

    -7.2553  -5.7964  -5.5549  -5.2772  -5.2505  -5.1069  -4.9593  -4.9291
    -4.9122  -4.7328  -4.6965  -4.6218  -4.5387  -4.4635  -4.4258  -3.5084
    -3.3638  -3.2250  -3.0839  -3.0561  -3.0366  -2.8611  -2.8014  -2.7789
    -2.5617  -2.5476  -2.5086  -2.4823  -2.3948  -2.3929  -2.3662  -2.3598
    -1.9131  -1.7468  -1.6497  -1.2350  -1.2340  -1.2087  -1.1773  -1.1546
    -1.0615  -0.9951  -0.9398  -0.7030  -0.6577  -0.4201  -0.2927  -0.2886
    -0.2680  -0.1636  -0.1477  -0.1078  -0.1047  -0.0850  -0.0719   0.0786
     0.1276   0.1944   0.2249   0.3053   0.3664   0.4557   0.5475   1.3160
     1.7206   1.9199   2.0637   3.2207   3.2404   3.2943   3.4133   3.4603

[...]

          k = 0.0741 0.0256 0.0000 ( 31505 PWs)   bands (ev):

[...]

          k =-0.0889-0.0512 0.0000 ( 31486 PWs)   bands (ev):

[...]

          k =-0.0889-0.1536 0.0000 ( 31486 PWs)   bands (ev):

    -5.6756  -5.6755  -4.6509  -4.6509  -4.3690  -4.3690  -4.3444  -4.3444
    -4.1929  -4.1928  -3.9590  -3.9590  -3.7450  -3.7450  -3.6309  -3.6309
    -3.3144  -3.3144  -3.2352  -3.2352  -3.1780  -3.1779  -2.8247  -2.8247
    -2.5873  -2.5872  -2.4770  -2.4770  -2.4248  -2.4248  -2.3296  -2.3296
    -2.1581  -2.1581  -2.1057  -2.1057  -2.0712  -2.0712  -1.9869  -1.9869
    -1.6681  -1.6681  -1.4834  -1.4834  -1.4037  -1.4037  -1.2461  -1.2461
    -1.1959  -1.1959  -1.0872  -1.0872  -0.7603  -0.7603  -0.7162  -0.7162
    -0.3837  -0.3837  -0.2355  -0.2354  -0.0664  -0.0663   0.1384   0.1384
     1.7846   1.7846   2.4679   2.4679   3.2859   3.2859   4.5678   4.5679

     the Fermi energy is    -0.0096 ev

!    total energy              =    -807.90860000 Ry
     estimated scf accuracy    <       0.00000417 Ry
     smearing contrib. (-TS)   =      -0.10166238 Ry
     internal energy E=F+TS    =    -807.80693762 Ry

     The total energy is F=E-TS. E is the sum of the following terms:
     one-electron contribution =   -7462.67619483 Ry
     hartree contribution      =    3810.74389664 Ry
     xc contribution           =    -282.69369853 Ry
     ewald contribution        =    3126.81905904 Ry
     electric field correction =       0.00000006 Ry

     convergence has been achieved in  14 iterations

     negative rho (up, down):  1.104E-03 0.000E+00

     Forces acting on atoms (cartesian axes, Ry/au):

     atom    1 type  1   force =     0.00000517    0.00051268   -0.01308269
     atom    2 type  1   force =    -0.00000394    0.00051593   -0.01308422
     atom    3 type  2   force =    -0.00000062    0.00187475    0.00661588
     atom    4 type  2   force =    -0.00000563    0.00189825    0.00662835
     atom    5 type  1   force =    -0.00000029    0.00460709   -0.00113220
     atom    6 type  1   force =    -0.00000002    0.00460617   -0.00113284
     atom    7 type  2   force =    -0.00001196   -0.00490605    0.00336574
     atom    8 type  2   force =     0.00001167   -0.00492131    0.00336309
     atom    9 type  1   force =    -0.00000500   -0.00166399    0.00229821
     atom   10 type  1   force =     0.00000488   -0.00166495    0.00230009
     atom   11 type  2   force =     0.00000767   -0.00042641    0.00193174
     atom   12 type  2   force =    -0.00000195   -0.00043215    0.00192886

     Total force =     0.024033     Total SCF correction =     0.006617
     SCF correction compared to forces is large: reduce conv_thr to get better values

     Writing output data file ./Pd2Pt2/Pd2Pt2_beef.save/

     General routines

     Parallel routines

   This run was terminated on:  10:50:31  24Jun2022

   JOB DONE.