     Program PWSCF v.6.6 starts on 24Jun2022 at 10:50:38

     R & G space division:  proc/nbgrp/npool/nimage =      37
     Fft bands division:     nmany     =       1
     Reading input from Pd2Re2.in
Warning: card &CELL ignored
Warning: card / ignored

     Current dimensions of program PWSCF are:
     Max number of different atomic species (ntypx) = 10
     Max number of k-points (npk) =  40000
     Max angular momentum in pseudopotentials (lmaxx) =  3
     Presently stress not available with electric field and gates

     Message from routine cell_base_init:
     DEPRECATED: use true lattice parameter, not A to a.u. conversion factor
     file Pd.pbe-n-rrkjus_psl.1.0.0.UPF: wavefunction(s)  4D renormalized

     IMPORTANT: XC functional enforced from input :
     Exchange-correlation= BEEF-VDW
                           (   1   4  43  14   2   0   0)
     Any further DFT definition will be discarded
     Please, verify this is what you really want

     Subspace diagonalization in iterative solution of the eigenvalue problem:
     a serial algorithm will be used

     Found symmetry operation: I + ( -0.5000  0.0000  0.0000)
     This is a supercell, fractional translations are disabled

     bravais-lattice index     =            0
     lattice parameter (alat)  =       1.8897  a.u.
     unit-cell volume          =    4403.3194 (a.u.)^3
     number of atoms/cell      =           12
     number of atomic types    =            2
     number of electrons       =       150.00
     number of Kohn-Sham states=           90
     kinetic-energy cutoff     =      55.1240  Ry
     charge density cutoff     =     551.2396  Ry
     convergence threshold     =      1.0E-05
     mixing beta               =       0.1000
     number of iterations used =           10  plain     mixing
     Exchange-correlation= BEEF-VDW
                           (   1   4  43  14   2   0   0)

     celldm(1)=   1.889726  celldm(2)=   0.000000  celldm(3)=   0.000000
     celldm(4)=   0.000000  celldm(5)=   0.000000  celldm(6)=   0.000000

     crystal axes: (cart. coord. in units of alat)
               a(1) = (   5.391282   0.000000   0.000000 )
               a(2) = (  -2.695641   4.936645   0.000000 )
               a(3) = (   0.000000   0.000000  24.516571 )

     reciprocal axes: (cart. coord. in units 2 pi/alat)
               b(1) = (  0.185485  0.101283 -0.000000 )
               b(2) = (  0.000000  0.202567  0.000000 )
               b(3) = (  0.000000 -0.000000  0.040789 )

     PseudoPot. # 1 for Pd read from file:
     ../pseudo/Pd.pbe-n-rrkjus_psl.1.0.0.UPF
     MD5 check sum: d9f693bf1c5b493397a6bd6f2231cfc3
     Pseudo is Ultrasoft + core correction, Zval = 10.0
     Generated using "atomic" code by A. Dal Corso v.6.3
     Using radial grid of 1235 points,  6 beta functions with:
                l(1) =   0
                l(2) =   0
                l(3) =   1
                l(4) =   1
                l(5) =   2
                l(6) =   2
     Q(r) pseudized with 0 coefficients

     PseudoPot. # 2 for Re read from file:
     ../pseudo/Re.pbe-spn-rrkjus_psl.1.0.0.UPF
     MD5 check sum: 1282f1ec51ad523723a04c61ae80a9e6
     Pseudo is Ultrasoft + core correction, Zval = 15.0
     Generated using "atomic" code by A. Dal Corso v.6.2.2
     Using radial grid of 1275 points,  6 beta functions with:
                l(1) =   0
                l(2) =   0
                l(3) =   1
                l(4) =   1
                l(5) =   2
                l(6) =   2
     Q(r) pseudized with 0 coefficients

     atomic species   valence    mass     pseudopotential
        Pd            10.00   106.42000     Pd( 1.00)
        Re            15.00   186.20700     Re( 1.00)

     No symmetry found

   Cartesian axes

     site n.     atom                  positions (alat units)
         1           Pd  tau(   1) = (   0.0000000   0.0000000  10.0000000  )
         2           Pd  tau(   2) = (   2.6956412   0.0000000  10.0000000  )
         3           Re  tau(   3) = (   1.3478206   2.4683225  10.0000000  )
         4           Re  tau(   4) = (  -1.3478206   2.4683225  10.0000000  )
         5           Pd  tau(   5) = (   2.6956412   1.4719473  12.2582853  )
         6           Pd  tau(   6) = (  -0.0000000   1.4719473  12.2582853  )
         7           Re  tau(   7) = (  -1.3478206   3.9402698  12.2582853  )
         8           Re  tau(   8) = (   1.3478206   3.9402698  12.2582853  )
         9           Pd  tau(   9) = (  -0.0000135   2.9966407  14.5429905  )
        10           Pd  tau(  10) = (   2.6956263   2.9966394  14.5429901  )
        11           Re  tau(  11) = (   4.0434706   0.4423628  14.3819653  )
        12           Re  tau(  12) = (   1.3478302   0.4423666  14.3819795  )

     number of k points=    74  Fermi-Dirac smearing, width (Ry)=  0.0100
                       cart. coord. in units 2pi/alat
        k(    1) = (   0.0000000   0.0000000   0.0000000), wk =   0.0138889
        k(    2) = (   0.0000000   0.0168806   0.0000000), wk =   0.0277778
        k(    3) = (   0.0000000   0.0337611   0.0000000), wk =   0.0277778
        k(    4) = (   0.0000000   0.0506417   0.0000000), wk =   0.0277778
        k(    5) = (   0.0000000   0.0675222   0.0000000), wk =   0.0277778
        k(    6) = (   0.0000000   0.0844028   0.0000000), wk =   0.0277778
        k(    7) = (   0.0000000  -0.1012834   0.0000000), wk =   0.0138889
        k(    8) = (   0.0154571   0.0084403   0.0000000), wk =   0.0277778
        k(    9) = (   0.0154571   0.0253208   0.0000000), wk =   0.0277778
        k(   10) = (   0.0154571   0.0422014   0.0000000), wk =   0.0277778
        k(   11) = (   0.0154571   0.0590820   0.0000000), wk =   0.0277778
        k(   12) = (   0.0154571   0.0759625   0.0000000), wk =   0.0277778
        k(   13) = (   0.0154571   0.0928431   0.0000000), wk =   0.0277778
        k(   14) = (   0.0154571  -0.0928431   0.0000000), wk =   0.0277778
        k(   15) = (   0.0154571  -0.0759625   0.0000000), wk =   0.0277778
        k(   16) = (   0.0154571  -0.0590820   0.0000000), wk =   0.0277778
        k(   17) = (   0.0154571  -0.0422014   0.0000000), wk =   0.0277778
        k(   18) = (   0.0154571  -0.0253208   0.0000000), wk =   0.0277778
        k(   19) = (   0.0154571  -0.0084403   0.0000000), wk =   0.0277778
        k(   20) = (   0.0309141   0.0168806   0.0000000), wk =   0.0277778
        k(   21) = (   0.0309141   0.0337611   0.0000000), wk =   0.0277778
        k(   22) = (   0.0309141   0.0506417   0.0000000), wk =   0.0277778
        k(   23) = (   0.0309141   0.0675222   0.0000000), wk =   0.0277778
        k(   24) = (   0.0309141   0.0844028   0.0000000), wk =   0.0277778
        k(   25) = (   0.0309141   0.1012834   0.0000000), wk =   0.0277778
        k(   26) = (   0.0309141  -0.0844028   0.0000000), wk =   0.0277778
        k(   27) = (   0.0309141  -0.0675222   0.0000000), wk =   0.0277778
        k(   28) = (   0.0309141  -0.0506417   0.0000000), wk =   0.0277778
        k(   29) = (   0.0309141  -0.0337611   0.0000000), wk =   0.0277778
        k(   30) = (   0.0309141  -0.0168806   0.0000000), wk =   0.0277778
        k(   31) = (   0.0309141  -0.0000000   0.0000000), wk =   0.0277778
        k(   32) = (   0.0463712   0.0253208   0.0000000), wk =   0.0277778
        k(   33) = (   0.0463712   0.0422014   0.0000000), wk =   0.0277778
        k(   34) = (   0.0463712   0.0590820   0.0000000), wk =   0.0277778
        k(   35) = (   0.0463712   0.0759625   0.0000000), wk =   0.0277778
        k(   36) = (   0.0463712   0.0928431   0.0000000), wk =   0.0277778
        k(   37) = (   0.0463712   0.1097236   0.0000000), wk =   0.0277778
        k(   38) = (   0.0463712  -0.0759625   0.0000000), wk =   0.0277778
        k(   39) = (   0.0463712  -0.0590820   0.0000000), wk =   0.0277778
        k(   40) = (   0.0463712  -0.0422014   0.0000000), wk =   0.0277778
        k(   41) = (   0.0463712  -0.0253208   0.0000000), wk =   0.0277778
        k(   42) = (   0.0463712  -0.0084403   0.0000000), wk =   0.0277778
        k(   43) = (   0.0463712   0.0084403   0.0000000), wk =   0.0277778
        k(   44) = (   0.0618282   0.0337611   0.0000000), wk =   0.0277778
        k(   45) = (   0.0618282   0.0506417   0.0000000), wk =   0.0277778
        k(   46) = (   0.0618282   0.0675222   0.0000000), wk =   0.0277778
        k(   47) = (   0.0618282   0.0844028   0.0000000), wk =   0.0277778
        k(   48) = (   0.0618282   0.1012834   0.0000000), wk =   0.0277778
        k(   49) = (   0.0618282   0.1181639   0.0000000), wk =   0.0277778
        k(   50) = (   0.0618282  -0.0675222   0.0000000), wk =   0.0277778
        k(   51) = (   0.0618282  -0.0506417   0.0000000), wk =   0.0277778
        k(   52) = (   0.0618282  -0.0337611   0.0000000), wk =   0.0277778
        k(   53) = (   0.0618282  -0.0168806   0.0000000), wk =   0.0277778
        k(   54) = (   0.0618282   0.0000000   0.0000000), wk =   0.0277778
        k(   55) = (   0.0618282   0.0168806   0.0000000), wk =   0.0277778
        k(   56) = (   0.0772853   0.0422014   0.0000000), wk =   0.0277778
        k(   57) = (   0.0772853   0.0590820   0.0000000), wk =   0.0277778
        k(   58) = (   0.0772853   0.0759625   0.0000000), wk =   0.0277778
        k(   59) = (   0.0772853   0.0928431   0.0000000), wk =   0.0277778
        k(   60) = (   0.0772853   0.1097236   0.0000000), wk =   0.0277778
        k(   61) = (   0.0772853   0.1266042   0.0000000), wk =   0.0277778
        k(   62) = (   0.0772853  -0.0590820   0.0000000), wk =   0.0277778
        k(   63) = (   0.0772853  -0.0422014   0.0000000), wk =   0.0277778
        k(   64) = (   0.0772853  -0.0253208   0.0000000), wk =   0.0277778
        k(   65) = (   0.0772853  -0.0084403   0.0000000), wk =   0.0277778
        k(   66) = (   0.0772853   0.0084403   0.0000000), wk =   0.0277778
        k(   67) = (   0.0772853   0.0253208   0.0000000), wk =   0.0277778
        k(   68) = (  -0.0927423  -0.0506417   0.0000000), wk =   0.0138889
        k(   69) = (  -0.0927423  -0.0337611   0.0000000), wk =   0.0277778
        k(   70) = (  -0.0927423  -0.0168806   0.0000000), wk =   0.0277778
        k(   71) = (  -0.0927423   0.0000000   0.0000000), wk =   0.0277778
        k(   72) = (  -0.0927423   0.0168806   0.0000000), wk =   0.0277778
        k(   73) = (  -0.0927423   0.0337611   0.0000000), wk =   0.0277778
        k(   74) = (  -0.0927423  -0.1519250   0.0000000), wk =   0.0138889

     Initial potential from superposition of free atoms

     starting charge  149.99477, renormalised to  150.00000

     negative rho (up, down):  9.481E-04 0.000E+00

     %%%%%%%%%%%%%%%%%%%%%%%%%%%%%%%%%%%%%%%%%%%%%%%%%%%%%%%%%%%%%%%%%%%%%%%%
     %                                                                      %
     % You are using vdW-DF, which was implemented by the Thonhauser group. %
     % Please cite the following two papers that made this development      %
     % possible and the two reviews that describe the various versions:     %
     %                                                                      %
     %   T. Thonhauser et al., PRL 115, 136402 (2015).                      %
     %   T. Thonhauser et al., PRB 76, 125112 (2007).                       %
     %   K. Berland et al., Rep. Prog. Phys. 78, 066501 (2015).             %
     %   D.C. Langreth et al., J. Phys.: Condens. Matter 21, 084203 (2009). %
     %                                                                      %
     %                                                                      %
     % If you are calculating the stress with vdW-DF, please also cite:     %
     %                                                                      %
     %   R. Sabatini et al., J. Phys.: Condens. Matter 24, 424209 (2012).   %
     %                                                                      %
     %%%%%%%%%%%%%%%%%%%%%%%%%%%%%%%%%%%%%%%%%%%%%%%%%%%%%%%%%%%%%%%%%%%%%%%%

     Adding external electric field

     Computed dipole along edir(3) :
        Dipole                0.0001 Ry au,          0.0003 Debye
        Dipole field          0.0000 Ry au,

        Potential amp.       -0.0000 Ry
        Total length         45.1714 bohr

     Starting wfcs are  114 randomized atomic wfcs

     Self-consistent Calculation

     iteration #  1     ecut=    55.12 Ry     beta= 0.10
     Davidson diagonalization with overlap
     ethr =  1.00E-02,  avg # of iterations =  2.4

     Threshold (ethr) on eigenvalues was too large:
     Diagonalizing with lowered threshold

     Davidson diagonalization with overlap
     ethr =  8.99E-04,  avg # of iterations =  2.4

[...]

     total energy              =   -1486.50131763 Ry
     estimated scf accuracy    <       1.59984575 Ry

[...]

     iteration #  7     ecut=    55.12 Ry     beta= 0.10
     Davidson diagonalization with overlap
     c_bands:  1 eigenvalues not converged
     ethr =  2.12E-05,  avg # of iterations =  4.7

[...]

     total energy              =   -1486.56369713 Ry
     estimated scf accuracy    <       0.00001903 Ry

     iteration # 15     ecut=    55.12 Ry     beta= 0.10
     Davidson diagonalization with overlap
     ethr =  1.27E-08,  avg # of iterations =  3.5

[...]

     Adding external electric field

     Computed dipole along edir(3) :
        Dipole                0.0229 Ry au,          0.0583 Debye
        Dipole field          0.0001 Ry au,

        Potential amp.       -0.0059 Ry
        Total length         45.1714 bohr

     End of self-consistent calculation

          k = 0.0000 0.0000 0.0000 ( 30419 PWs)   bands (ev):

   -79.5366 -79.4887 -79.0933 -79.0549 -79.0456 -79.0072 -41.5592 -41.4254
   -41.3394 -41.2772 -41.1995 -41.0984 -41.0629 -40.8605 -40.8235 -40.8129
   -40.7829 -40.7620 -40.7356 -40.6845 -40.5898 -40.5208 -40.3658 -40.3325
    -6.7795  -4.9898  -4.7931  -4.6801  -4.6320  -4.5151  -4.3241  -4.2039
    -4.0967  -3.9445  -3.8976  -3.7731  -3.6577  -3.5327  -3.4296  -2.5400
    -2.5185  -2.3676  -2.3452  -2.1418  -1.8191  -1.7981  -1.7037  -1.5558
    -1.5364  -1.3461  -1.3115  -1.2965  -1.1840  -1.0112  -0.9633  -0.9181
    -0.8876  -0.4556  -0.2134  -0.1591  -0.0015   0.0068   0.2683   0.3144
     0.3446   0.8280   0.9021   0.9402   1.2166   1.3059   1.3880   1.5087
     1.7193   2.0161   2.0814   2.2246   2.2880   2.3472   2.7929   2.9313
     2.9493   3.0121   3.0227   3.1585   3.2376   3.5121   3.6056   3.6357
     3.6522   4.0772

[...]

          k = 0.0773 0.0253 0.0000 ( 30476 PWs)   bands (ev):

[...]

          k =-0.0927-0.0506 0.0000 ( 30462 PWs)   bands (ev):

[...]

          k =-0.0927-0.1519 0.0000 ( 30462 PWs)   bands (ev):

   -79.5127 -79.5127 -79.0695 -79.0695 -79.0311 -79.0311 -41.3835 -41.3835
   -41.2395 -41.2395 -41.1999 -41.1999 -40.8225 -40.8225 -40.7752 -40.7751
   -40.7404 -40.7404 -40.7239 -40.7238 -40.7060 -40.7060 -40.5557 -40.5557
    -5.0005  -5.0005  -3.7920  -3.7920  -3.6759  -3.6759  -3.5504  -3.5504
    -3.3279  -3.3279  -3.1072  -3.1071  -2.7676  -2.7676  -2.6917  -2.6917
    -2.5060  -2.5060  -2.1886  -2.1886  -2.0697  -2.0697  -1.6569  -1.6569
    -1.5445  -1.5444  -1.4248  -1.4248  -1.3721  -1.3721  -1.2137  -1.2137
    -1.0146  -1.0146  -0.9124  -0.9124  -0.7350  -0.7350  -0.4177  -0.4177
    -0.1859  -0.1859   0.3449   0.3449   0.7648   0.7648   0.9013   0.9014
     0.9527   0.9527   1.0964   1.0964   1.2182   1.2182   1.3289   1.3289
     1.7859   1.7859   2.3682   2.3682   2.7931   2.7932   3.0015   3.0015
     4.0835   4.0835

     the Fermi energy is     1.4091 ev

!    total energy              =   -1486.56368803 Ry
     estimated scf accuracy    <       0.00000321 Ry
     smearing contrib. (-TS)   =      -0.06644416 Ry
     internal energy E=F+TS    =   -1486.49724388 Ry

     The total energy is F=E-TS. E is the sum of the following terms:
     one-electron contribution =  -12580.03498839 Ry
     hartree contribution      =    6319.88112766 Ry
     xc contribution           =    -379.87013377 Ry
     ewald contribution        =    5153.52674912 Ry
     electric field correction =       0.00000150 Ry

     convergence has been achieved in  15 iterations

     negative rho (up, down):  8.125E-04 0.000E+00

     Forces acting on atoms (cartesian axes, Ry/au):

     atom    1 type  1   force =    -0.00000001   -0.02507314   -0.01281682
     atom    2 type  1   force =    -0.00000071   -0.02507324   -0.01281687
     atom    3 type  2   force =     0.00000334    0.01874073    0.03140133
     atom    4 type  2   force =    -0.00000036    0.01873780    0.03140437
     atom    5 type  1   force =    -0.00000038    0.01323252   -0.00881231
     atom    6 type  1   force =     0.00000255    0.01323289   -0.00881268
     atom    7 type  2   force =    -0.00000128   -0.00883182   -0.01137067
     atom    8 type  2   force =    -0.00000110   -0.00883219   -0.01137121
     atom    9 type  1   force =     0.00000133    0.00181801    0.00019822
     atom   10 type  1   force =     0.00000262    0.00181814    0.00019785
     atom   11 type  2   force =    -0.00000228    0.00011551    0.00140234
     atom   12 type  2   force =    -0.00000372    0.00011478    0.00139646

     Total force =     0.072050     Total SCF correction =     0.013804
     SCF correction compared to forces is large: reduce conv_thr to get better values

     Writing output data file ./Pd2Re2/Pd2Re2_beef.save/

     General routines

     Parallel routines

   This run was terminated on:  11:38:26  24Jun2022

   JOB DONE.