     Program PWSCF v.6.6 starts on 24Jun2022 at 11:38:28

     R & G space division:  proc/nbgrp/npool/nimage =      37
     Fft bands division:     nmany     =       1
     Reading input from Pd2W2.in
Warning: card &CELL ignored
Warning: card / ignored

     Current dimensions of program PWSCF are:
     Max number of different atomic species (ntypx) = 10
     Max number of k-points (npk) =  40000
     Max angular momentum in pseudopotentials (lmaxx) =  3
     Presently stress not available with electric field and gates

     Message from routine cell_base_init:
     DEPRECATED: use true lattice parameter, not A to a.u. conversion factor
     Message from routine emend_upf/check:
     BEWARE !!! Possible out of bounds while fixing pseudo
     Message from routine emend_upf/check:
     BEWARE !!! Possible out of bounds while fixing pseudo
     Message from routine read_upf:
     Pseudo file W.pbe-spn-rrkjus_psl.0.2.3.UPF has been fixed on the fly.
     To avoid this message in the future, permanently fix
     your pseudo files following these instructions:
     file Pd.pbe-n-rrkjus_psl.1.0.0.UPF: wavefunction(s)  4D renormalized

     IMPORTANT: XC functional enforced from input :
     Exchange-correlation= BEEF-VDW
                           (   1   4  43  14   2   0   0)
     Any further DFT definition will be discarded
     Please, verify this is what you really want

     Subspace diagonalization in iterative solution of the eigenvalue problem:
     a serial algorithm will be used

     Found symmetry operation: I + ( -0.5000  0.0000  0.0000)
     This is a supercell, fractional translations are disabled

     bravais-lattice index     =            0
     lattice parameter (alat)  =       1.8897  a.u.
     unit-cell volume          =    4520.2568 (a.u.)^3
     number of atoms/cell      =           12
     number of atomic types    =            2
     number of electrons       =       144.00
     number of Kohn-Sham states=           86
     kinetic-energy cutoff     =      55.1240  Ry
     charge density cutoff     =     551.2396  Ry
     convergence threshold     =      1.0E-05
     mixing beta               =       0.1000
     number of iterations used =           10  plain     mixing
     Exchange-correlation= BEEF-VDW
                           (   1   4  43  14   2   0   0)

     celldm(1)=   1.889726  celldm(2)=   0.000000  celldm(3)=   0.000000
     celldm(4)=   0.000000  celldm(5)=   0.000000  celldm(6)=   0.000000

     crystal axes: (cart. coord. in units of alat)
               a(1) = (   5.469240   0.000000   0.000000 )
               a(2) = (  -2.734620   4.984137   0.000000 )
               a(3) = (   0.000000   0.000000  24.572517 )

     reciprocal axes: (cart. coord. in units 2 pi/alat)
               b(1) = (  0.182841  0.100318 -0.000000 )
               b(2) = (  0.000000  0.200637  0.000000 )
               b(3) = (  0.000000 -0.000000  0.040696 )

     PseudoPot. # 1 for Pd read from file:
     ../pseudo/Pd.pbe-n-rrkjus_psl.1.0.0.UPF
     MD5 check sum: d9f693bf1c5b493397a6bd6f2231cfc3
     Pseudo is Ultrasoft + core correction, Zval = 10.0
     Generated using "atomic" code by A. Dal Corso v.6.3
     Using radial grid of 1235 points,  6 beta functions with:
                l(1) =   0
                l(2) =   0
                l(3) =   1
                l(4) =   1
                l(5) =   2
                l(6) =   2
     Q(r) pseudized with 0 coefficients

     PseudoPot. # 2 for W  read from file:
     ../pseudo/W.pbe-spn-rrkjus_psl.0.2.3.UPF
     MD5 check sum: 25b665cf2bbae626ad8d9f1bc024df95
     Pseudo is Ultrasoft + core correction, Zval = 14.0
     Generated using "atomic" code by A. Dal Corso v.5.0.2 svn rev. 10551
     Using radial grid of 1273 points,  6 beta functions with:
                l(1) =   0
                l(2) =   0
                l(3) =   1
                l(4) =   1
                l(5) =   2
                l(6) =   2
     Q(r) pseudized with 0 coefficients

     atomic species   valence    mass     pseudopotential
        Pd            10.00   106.42000     Pd( 1.00)
        W             14.00   183.84000     W ( 1.00)

     No symmetry found

   Cartesian axes

     site n.     atom                  positions (alat units)
         1           Pd  tau(   1) = (   0.0000000   0.0000000  10.0000000  )
         2           Pd  tau(   2) = (   2.7346200   0.0000000  10.0000000  )
         3           W   tau(   3) = (   1.3673100   2.4920683  10.0000000  )
         4           W   tau(   4) = (  -1.3673100   2.4920683  10.0000000  )
         5           Pd  tau(   5) = (   2.7346200   1.5003896  12.2862584  )
         6           Pd  tau(   6) = (   0.0000000   1.5003896  12.2862584  )
         7           W   tau(   7) = (  -1.3673100   3.9924579  12.2862584  )
         8           W   tau(   8) = (   1.3673100   3.9924579  12.2862584  )
         9           Pd  tau(   9) = (  -0.0000185   3.1031377  14.5705153  )
        10           Pd  tau(  10) = (   2.7346038   3.1031379  14.5705144  )
        11           W   tau(  11) = (   4.1018947   0.5478025  14.4422255  )
        12           W   tau(  12) = (   1.3672755   0.5478049  14.4422233  )

     number of k points=    74  Fermi-Dirac smearing, width (Ry)=  0.0100
                       cart. coord. in units 2pi/alat
        k(    1) = (   0.0000000   0.0000000   0.0000000), wk =   0.0138889
        k(    2) = (   0.0000000   0.0167197   0.0000000), wk =   0.0277778
        k(    3) = (   0.0000000   0.0334394   0.0000000), wk =   0.0277778
        k(    4) = (   0.0000000   0.0501591   0.0000000), wk =   0.0277778
        k(    5) = (   0.0000000   0.0668788   0.0000000), wk =   0.0277778
        k(    6) = (   0.0000000   0.0835986   0.0000000), wk =   0.0277778
        k(    7) = (   0.0000000  -0.1003183   0.0000000), wk =   0.0138889
        k(    8) = (   0.0152367   0.0083599   0.0000000), wk =   0.0277778
        k(    9) = (   0.0152367   0.0250796   0.0000000), wk =   0.0277778
        k(   10) = (   0.0152367   0.0417993   0.0000000), wk =   0.0277778
        k(   11) = (   0.0152367   0.0585190   0.0000000), wk =   0.0277778
        k(   12) = (   0.0152367   0.0752387   0.0000000), wk =   0.0277778
        k(   13) = (   0.0152367   0.0919584   0.0000000), wk =   0.0277778
        k(   14) = (   0.0152367  -0.0919584   0.0000000), wk =   0.0277778
        k(   15) = (   0.0152367  -0.0752387   0.0000000), wk =   0.0277778
        k(   16) = (   0.0152367  -0.0585190   0.0000000), wk =   0.0277778
        k(   17) = (   0.0152367  -0.0417993   0.0000000), wk =   0.0277778
        k(   18) = (   0.0152367  -0.0250796   0.0000000), wk =   0.0277778
        k(   19) = (   0.0152367  -0.0083599   0.0000000), wk =   0.0277778
        k(   20) = (   0.0304735   0.0167197   0.0000000), wk =   0.0277778
        k(   21) = (   0.0304735   0.0334394   0.0000000), wk =   0.0277778
        k(   22) = (   0.0304735   0.0501591   0.0000000), wk =   0.0277778
        k(   23) = (   0.0304735   0.0668788   0.0000000), wk =   0.0277778
        k(   24) = (   0.0304735   0.0835986   0.0000000), wk =   0.0277778
        k(   25) = (   0.0304735   0.1003183   0.0000000), wk =   0.0277778
        k(   26) = (   0.0304735  -0.0835986   0.0000000), wk =   0.0277778
        k(   27) = (   0.0304735  -0.0668788   0.0000000), wk =   0.0277778
        k(   28) = (   0.0304735  -0.0501591   0.0000000), wk =   0.0277778
        k(   29) = (   0.0304735  -0.0334394   0.0000000), wk =   0.0277778
        k(   30) = (   0.0304735  -0.0167197   0.0000000), wk =   0.0277778
        k(   31) = (   0.0304735  -0.0000000   0.0000000), wk =   0.0277778
        k(   32) = (   0.0457102   0.0250796   0.0000000), wk =   0.0277778
        k(   33) = (   0.0457102   0.0417993   0.0000000), wk =   0.0277778
        k(   34) = (   0.0457102   0.0585190   0.0000000), wk =   0.0277778
        k(   35) = (   0.0457102   0.0752387   0.0000000), wk =   0.0277778
        k(   36) = (   0.0457102   0.0919584   0.0000000), wk =   0.0277778
        k(   37) = (   0.0457102   0.1086781   0.0000000), wk =   0.0277778
        k(   38) = (   0.0457102  -0.0752387   0.0000000), wk =   0.0277778
        k(   39) = (   0.0457102  -0.0585190   0.0000000), wk =   0.0277778
        k(   40) = (   0.0457102  -0.0417993   0.0000000), wk =   0.0277778
        k(   41) = (   0.0457102  -0.0250796   0.0000000), wk =   0.0277778
        k(   42) = (   0.0457102  -0.0083599   0.0000000), wk =   0.0277778
        k(   43) = (   0.0457102   0.0083599   0.0000000), wk =   0.0277778
        k(   44) = (   0.0609469   0.0334394   0.0000000), wk =   0.0277778
        k(   45) = (   0.0609469   0.0501591   0.0000000), wk =   0.0277778
        k(   46) = (   0.0609469   0.0668788   0.0000000), wk =   0.0277778
        k(   47) = (   0.0609469   0.0835986   0.0000000), wk =   0.0277778
        k(   48) = (   0.0609469   0.1003183   0.0000000), wk =   0.0277778
        k(   49) = (   0.0609469   0.1170380   0.0000000), wk =   0.0277778
        k(   50) = (   0.0609469  -0.0668788   0.0000000), wk =   0.0277778
        k(   51) = (   0.0609469  -0.0501591   0.0000000), wk =   0.0277778
        k(   52) = (   0.0609469  -0.0334394   0.0000000), wk =   0.0277778
        k(   53) = (   0.0609469  -0.0167197   0.0000000), wk =   0.0277778
        k(   54) = (   0.0609469   0.0000000   0.0000000), wk =   0.0277778
        k(   55) = (   0.0609469   0.0167197   0.0000000), wk =   0.0277778
        k(   56) = (   0.0761837   0.0417993   0.0000000), wk =   0.0277778
        k(   57) = (   0.0761837   0.0585190   0.0000000), wk =   0.0277778
        k(   58) = (   0.0761837   0.0752387   0.0000000), wk =   0.0277778
        k(   59) = (   0.0761837   0.0919584   0.0000000), wk =   0.0277778
        k(   60) = (   0.0761837   0.1086781   0.0000000), wk =   0.0277778
        k(   61) = (   0.0761837   0.1253978   0.0000000), wk =   0.0277778
        k(   62) = (   0.0761837  -0.0585190   0.0000000), wk =   0.0277778
        k(   63) = (   0.0761837  -0.0417993   0.0000000), wk =   0.0277778
        k(   64) = (   0.0761837  -0.0250796   0.0000000), wk =   0.0277778
        k(   65) = (   0.0761837  -0.0083599   0.0000000), wk =   0.0277778
        k(   66) = (   0.0761837   0.0083599   0.0000000), wk =   0.0277778
        k(   67) = (   0.0761837   0.0250796   0.0000000), wk =   0.0277778
        k(   68) = (  -0.0914204  -0.0501591   0.0000000), wk =   0.0138889
        k(   69) = (  -0.0914204  -0.0334394   0.0000000), wk =   0.0277778
        k(   70) = (  -0.0914204  -0.0167197   0.0000000), wk =   0.0277778
        k(   71) = (  -0.0914204   0.0000000   0.0000000), wk =   0.0277778
        k(   72) = (  -0.0914204   0.0167197   0.0000000), wk =   0.0277778
        k(   73) = (  -0.0914204   0.0334394   0.0000000), wk =   0.0277778
        k(   74) = (  -0.0914204  -0.1504774   0.0000000), wk =   0.0138889

     Initial potential from superposition of free atoms

     starting charge  143.99323, renormalised to  144.00000

     negative rho (up, down):  1.226E-03 0.000E+00

     %%%%%%%%%%%%%%%%%%%%%%%%%%%%%%%%%%%%%%%%%%%%%%%%%%%%%%%%%%%%%%%%%%%%%%%%
     %                                                                      %
     % You are using vdW-DF, which was implemented by the Thonhauser group. %
     % Please cite the following two papers that made this development      %
     % possible and the two reviews that describe the various versions:     %
     %                                                                      %
     %   T. Thonhauser et al., PRL 115, 136402 (2015).                      %
     %   T. Thonhauser et al., PRB 76, 125112 (2007).                       %
     %   K. Berland et al., Rep. Prog. Phys. 78, 066501 (2015).             %
     %   D.C. Langreth et al., J. Phys.: Condens. Matter 21, 084203 (2009). %
     %                                                                      %
     %                                                                      %
     % If you are calculating the stress with vdW-DF, please also cite:     %
     %                                                                      %
     %   R. Sabatini et al., J. Phys.: Condens. Matter 24, 424209 (2012).   %
     %                                                                      %
     %%%%%%%%%%%%%%%%%%%%%%%%%%%%%%%%%%%%%%%%%%%%%%%%%%%%%%%%%%%%%%%%%%%%%%%%

     Adding external electric field

     Computed dipole along edir(3) :
        Dipole                0.0000 Ry au,          0.0001 Debye
        Dipole field          0.0000 Ry au,

        Potential amp.       -0.0000 Ry
        Total length         45.2744 bohr

     Starting wfcs are  132 randomized atomic wfcs

     Self-consistent Calculation

     iteration #  1     ecut=    55.12 Ry     beta= 0.10
     Davidson diagonalization with overlap
     ethr =  1.00E-02,  avg # of iterations =  2.0

     Threshold (ethr) on eigenvalues was too large:
     Diagonalizing with lowered threshold

     Davidson diagonalization with overlap
     ethr =  9.41E-04,  avg # of iterations =  2.0

[...]

     total energy              =   -1365.90854788 Ry
     estimated scf accuracy    <       1.59633540 Ry

[...]

     iteration #  7     ecut=    55.12 Ry     beta= 0.10
     Davidson diagonalization with overlap
     c_bands:  1 eigenvalues not converged
     ethr =  1.87E-05,  avg # of iterations =  7.8

[...]

     iteration # 12     ecut=    55.12 Ry     beta= 0.10
     Davidson diagonalization with overlap
     c_bands:  1 eigenvalues not converged
     ethr =  6.88E-08,  avg # of iterations =  4.7

[...]

     total energy              =   -1365.94301061 Ry
     estimated scf accuracy    <       0.00001166 Ry

     iteration # 14     ecut=    55.12 Ry     beta= 0.10
     Davidson diagonalization with overlap
     ethr =  8.10E-09,  avg # of iterations =  2.0

[...]

     Adding external electric field

     Computed dipole along edir(3) :
        Dipole                0.0078 Ry au,          0.0198 Debye
        Dipole field          0.0000 Ry au,

        Potential amp.       -0.0020 Ry
        Total length         45.2744 bohr

     End of self-consistent calculation

          k = 0.0000 0.0000 0.0000 ( 31255 PWs)   bands (ev):

   -73.3686 -73.3107 -73.3017 -73.2543 -73.2453 -73.1977 -37.8338 -37.7310
   -37.6270 -37.5817 -37.5638 -37.5039 -37.4403 -37.4136 -37.3940 -37.3749
   -37.3488 -37.3002 -37.2840 -37.0143 -36.9801 -36.9340 -36.7455 -36.7254
    -6.5199  -4.7982  -4.5600  -4.4310  -4.2955  -4.2720  -4.1907  -3.9771
    -3.7980  -3.7334  -3.7099  -3.5764  -3.5391  -3.3678  -3.2102  -2.4826
    -2.3923  -2.2974  -2.1649  -2.0809  -1.8185  -1.6289  -1.5533  -1.5144
    -1.3700  -1.3620  -1.1457  -0.9922  -0.9759  -0.9255  -0.8244  -0.7848
    -0.3515  -0.2364  -0.1479   0.0169   0.0648   0.2545   0.3020   0.5675
     0.5831   0.9835   1.0627   1.0836   1.6293   1.7372   1.7530   1.8054
     2.0112   2.0985   2.4440   2.4625   2.8746   2.9030   3.1270   3.2445
     3.2787   3.3486   3.7290   3.7750   4.0746   4.1798

[...]

          k = 0.0762 0.0251 0.0000 ( 31235 PWs)   bands (ev):

[...]

          k =-0.0914-0.0502 0.0000 ( 31266 PWs)   bands (ev):

[...]

          k =-0.0914-0.1505 0.0000 ( 31266 PWs)   bands (ev):

   -73.3397 -73.3397 -73.2736 -73.2735 -73.2261 -73.2261 -37.6808 -37.6808
   -37.4609 -37.4609 -37.4200 -37.4199 -37.3939 -37.3938 -37.3483 -37.3483
   -37.3305 -37.3305 -37.1748 -37.1747 -37.1564 -37.1564 -36.9744 -36.9744
    -4.7518  -4.7517  -3.6217  -3.6217  -3.5086  -3.5086  -3.3794  -3.3794
    -3.1084  -3.1084  -2.9428  -2.9428  -2.6766  -2.6766  -2.5615  -2.5615
    -2.3306  -2.3306  -2.0285  -2.0285  -1.9998  -1.9998  -1.6449  -1.6449
    -1.5402  -1.5402  -1.4383  -1.4383  -1.3717  -1.3717  -1.2186  -1.2186
    -0.9780  -0.9780  -0.7032  -0.7032  -0.3056  -0.3056  -0.0044  -0.0044
     0.1923   0.1923   0.6626   0.6626   1.1908   1.1908   1.3671   1.3671
     1.5103   1.5103   1.6524   1.6525   1.7574   1.7574   1.8885   1.8885
     2.2211   2.2211   3.1045   3.1046   3.4676   3.4679

     the Fermi energy is     1.4026 ev

!    total energy              =   -1365.94299727 Ry
     estimated scf accuracy    <       0.00000198 Ry
     smearing contrib. (-TS)   =      -0.05363524 Ry
     internal energy E=F+TS    =   -1365.88936203 Ry

     The total energy is F=E-TS. E is the sum of the following terms:
     one-electron contribution =  -11243.12356818 Ry
     hartree contribution      =    5651.62906885 Ry
     xc contribution           =    -382.06554400 Ry
     ewald contribution        =    4607.67068113 Ry
     electric field correction =       0.00000017 Ry

     convergence has been achieved in  14 iterations

     negative rho (up, down):  1.335E-03 0.000E+00

     Forces acting on atoms (cartesian axes, Ry/au):

     atom    1 type  1   force =    -0.00000093   -0.02091966   -0.00838794
     atom    2 type  1   force =     0.00000006   -0.02091979   -0.00838654
     atom    3 type  2   force =    -0.00000153    0.01397772    0.03160615
     atom    4 type  2   force =     0.00000366    0.01397973    0.03160208
     atom    5 type  1   force =    -0.00000323    0.00914071   -0.00933142
     atom    6 type  1   force =    -0.00000324    0.00914195   -0.00933119
     atom    7 type  2   force =    -0.00000547   -0.00322374   -0.01632208
     atom    8 type  2   force =     0.00000458   -0.00322349   -0.01631928
     atom    9 type  1   force =    -0.00000171    0.00157045    0.00205818
     atom   10 type  1   force =     0.00000125    0.00157019    0.00205833
     atom   11 type  2   force =     0.00000669   -0.00054970    0.00037538
     atom   12 type  2   force =    -0.00000014   -0.00054438    0.00037832

     Total force =     0.065677     Total SCF correction =     0.004202

     Writing output data file ./Pd2W2/Pd2W2_beef.save/

     General routines

     Parallel routines

   This run was terminated on:  12:22:57  24Jun2022

   JOB DONE.