     Program PWSCF v.6.6 starts on 24Jun2022 at 12:23: 0

     R & G space division:  proc/nbgrp/npool/nimage =      37
     Fft bands division:     nmany     =       1
     Reading input from Pd2Y2.in
Warning: card &CELL ignored
Warning: card / ignored

     Current dimensions of program PWSCF are:
     Max number of different atomic species (ntypx) = 10
     Max number of k-points (npk) =  40000
     Max angular momentum in pseudopotentials (lmaxx) =  3
     Presently stress not available with electric field and gates

     Message from routine cell_base_init:
     DEPRECATED: use true lattice parameter, not A to a.u. conversion factor
     file Pd.pbe-n-rrkjus_psl.1.0.0.UPF: wavefunction(s)  4D renormalized
     file Y.pbe-spn-rrkjus_psl.1.0.0.UPF: wavefunction(s)  4S renormalized

     IMPORTANT: XC functional enforced from input :
     Exchange-correlation= BEEF-VDW
                           (   1   4  43  14   2   0   0)
     Any further DFT definition will be discarded
     Please, verify this is what you really want

     Subspace diagonalization in iterative solution of the eigenvalue problem:
     a serial algorithm will be used

     Found symmetry operation: I + ( -0.5000 -0.5000  0.0000)
     This is a supercell, fractional translations are disabled

     bravais-lattice index     =            0
     lattice parameter (alat)  =       1.8897  a.u.
     unit-cell volume          =    5956.2996 (a.u.)^3
     number of atoms/cell      =           12
     number of atomic types    =            2
     number of electrons       =       126.00
     number of Kohn-Sham states=           76
     kinetic-energy cutoff     =      55.1240  Ry
     charge density cutoff     =     551.2396  Ry
     convergence threshold     =      1.0E-05
     mixing beta               =       0.1000
     number of iterations used =           10  plain     mixing
     Exchange-correlation= BEEF-VDW
                           (   1   4  43  14   2   0   0)

     celldm(1)=   1.889726  celldm(2)=   0.000000  celldm(3)=   0.000000
     celldm(4)=   0.000000  celldm(5)=   0.000000  celldm(6)=   0.000000

     crystal axes: (cart. coord. in units of alat)
               a(1) = (   6.119139   0.000000   0.000000 )
               a(2) = (   2.034971   5.770854   0.000000 )
               a(3) = (   0.000000   0.000000  24.994797 )

     reciprocal axes: (cart. coord. in units 2 pi/alat)
               b(1) = (  0.163422 -0.057627  0.000000 )
               b(2) = (  0.000000  0.173285  0.000000 )
               b(3) = (  0.000000  0.000000  0.040008 )

     PseudoPot. # 1 for Pd read from file:
     ../pseudo/Pd.pbe-n-rrkjus_psl.1.0.0.UPF
     MD5 check sum: d9f693bf1c5b493397a6bd6f2231cfc3
     Pseudo is Ultrasoft + core correction, Zval = 10.0
     Generated using "atomic" code by A. Dal Corso v.6.3
     Using radial grid of 1235 points,  6 beta functions with:
                l(1) =   0
                l(2) =   0
                l(3) =   1
                l(4) =   1
                l(5) =   2
                l(6) =   2
     Q(r) pseudized with 0 coefficients

     PseudoPot. # 2 for Y  read from file:
     ../pseudo/Y.pbe-spn-rrkjus_psl.1.0.0.UPF
     MD5 check sum: 5fe32e6a006803c2ec2edff47948a3c8
     Pseudo is Ultrasoft + core correction, Zval = 11.0
     Generated using "atomic" code by A. Dal Corso v.6.2.2
     Using radial grid of 1223 points,  6 beta functions with:
                l(1) =   0
                l(2) =   0
                l(3) =   1
                l(4) =   1
                l(5) =   2
                l(6) =   2
     Q(r) pseudized with 0 coefficients

     atomic species   valence    mass     pseudopotential
        Pd            10.00   106.42000     Pd( 1.00)
        Y             11.00    88.90584     Y ( 1.00)

     No symmetry found

   Cartesian axes

     site n.     atom                  positions (alat units)
         1           Pd  tau(   1) = (   0.0000000   0.0000000  10.0000000  )
         2           Pd  tau(   2) = (   4.0770552   2.8854271  10.0000000  )
         3           Y   tau(   3) = (   3.0595696   0.0000000  10.0000000  )
         4           Y   tau(   4) = (   1.0174856   2.8854271  10.0000000  )
         5           Pd  tau(   5) = (   6.1191393   4.3306576  12.4973983  )
         6           Pd  tau(   6) = (   2.0420841   1.4452305  12.4973983  )
         7           Y   tau(   7) = (   3.0595696   4.3306576  12.4973983  )
         8           Y   tau(   8) = (   5.1016537   1.4452305  12.4973983  )
         9           Pd  tau(   9) = (   4.0828329   2.8895308  14.7805835  )
        10           Pd  tau(  10) = (   0.0057808   0.0040764  14.7805818  )
        11           Y   tau(  11) = (   1.0225481   2.8890183  14.9992785  )
        12           Y   tau(  12) = (   3.0646645   0.0036012  14.9992829  )

     number of k points=    74  Fermi-Dirac smearing, width (Ry)=  0.0100
                       cart. coord. in units 2pi/alat
        k(    1) = (   0.0000000   0.0000000   0.0000000), wk =   0.0138889
        k(    2) = (   0.0000000   0.0144404   0.0000000), wk =   0.0277778
        k(    3) = (   0.0000000   0.0288808   0.0000000), wk =   0.0277778
        k(    4) = (   0.0000000   0.0433211   0.0000000), wk =   0.0277778
        k(    5) = (   0.0000000   0.0577615   0.0000000), wk =   0.0277778
        k(    6) = (   0.0000000   0.0722019   0.0000000), wk =   0.0277778
        k(    7) = (   0.0000000  -0.0866423   0.0000000), wk =   0.0138889
        k(    8) = (   0.0136185  -0.0048023   0.0000000), wk =   0.0277778
        k(    9) = (   0.0136185   0.0096381   0.0000000), wk =   0.0277778
        k(   10) = (   0.0136185   0.0240785   0.0000000), wk =   0.0277778
        k(   11) = (   0.0136185   0.0385189   0.0000000), wk =   0.0277778
        k(   12) = (   0.0136185   0.0529593   0.0000000), wk =   0.0277778
        k(   13) = (   0.0136185   0.0673996   0.0000000), wk =   0.0277778
        k(   14) = (   0.0136185  -0.0914446   0.0000000), wk =   0.0277778
        k(   15) = (   0.0136185  -0.0770042   0.0000000), wk =   0.0277778
        k(   16) = (   0.0136185  -0.0625638   0.0000000), wk =   0.0277778
        k(   17) = (   0.0136185  -0.0481234   0.0000000), wk =   0.0277778
        k(   18) = (   0.0136185  -0.0336830   0.0000000), wk =   0.0277778
        k(   19) = (   0.0136185  -0.0192427   0.0000000), wk =   0.0277778
        k(   20) = (   0.0272369  -0.0096045   0.0000000), wk =   0.0277778
        k(   21) = (   0.0272369   0.0048358   0.0000000), wk =   0.0277778
        k(   22) = (   0.0272369   0.0192762   0.0000000), wk =   0.0277778
        k(   23) = (   0.0272369   0.0337166   0.0000000), wk =   0.0277778
        k(   24) = (   0.0272369   0.0481570   0.0000000), wk =   0.0277778
        k(   25) = (   0.0272369   0.0625974   0.0000000), wk =   0.0277778
        k(   26) = (   0.0272369  -0.0962468   0.0000000), wk =   0.0277778
        k(   27) = (   0.0272369  -0.0818064   0.0000000), wk =   0.0277778
        k(   28) = (   0.0272369  -0.0673661   0.0000000), wk =   0.0277778
        k(   29) = (   0.0272369  -0.0529257   0.0000000), wk =   0.0277778
        k(   30) = (   0.0272369  -0.0384853   0.0000000), wk =   0.0277778
        k(   31) = (   0.0272369  -0.0240449   0.0000000), wk =   0.0277778
        k(   32) = (   0.0408554  -0.0144068   0.0000000), wk =   0.0277778
        k(   33) = (   0.0408554   0.0000336   0.0000000), wk =   0.0277778
        k(   34) = (   0.0408554   0.0144740   0.0000000), wk =   0.0277778
        k(   35) = (   0.0408554   0.0289143   0.0000000), wk =   0.0277778
        k(   36) = (   0.0408554   0.0433547   0.0000000), wk =   0.0277778
        k(   37) = (   0.0408554   0.0577951   0.0000000), wk =   0.0277778
        k(   38) = (   0.0408554  -0.1010491   0.0000000), wk =   0.0277778
        k(   39) = (   0.0408554  -0.0866087   0.0000000), wk =   0.0277778
        k(   40) = (   0.0408554  -0.0721683   0.0000000), wk =   0.0277778
        k(   41) = (   0.0408554  -0.0577280   0.0000000), wk =   0.0277778
        k(   42) = (   0.0408554  -0.0432876   0.0000000), wk =   0.0277778
        k(   43) = (   0.0408554  -0.0288472   0.0000000), wk =   0.0277778
        k(   44) = (   0.0544739  -0.0192091   0.0000000), wk =   0.0277778
        k(   45) = (   0.0544739  -0.0047687   0.0000000), wk =   0.0277778
        k(   46) = (   0.0544739   0.0096717   0.0000000), wk =   0.0277778
        k(   47) = (   0.0544739   0.0241121   0.0000000), wk =   0.0277778
        k(   48) = (   0.0544739   0.0385524   0.0000000), wk =   0.0277778
        k(   49) = (   0.0544739   0.0529928   0.0000000), wk =   0.0277778
        k(   50) = (   0.0544739  -0.1058514   0.0000000), wk =   0.0277778
        k(   51) = (   0.0544739  -0.0914110   0.0000000), wk =   0.0277778
        k(   52) = (   0.0544739  -0.0769706   0.0000000), wk =   0.0277778
        k(   53) = (   0.0544739  -0.0625302   0.0000000), wk =   0.0277778
        k(   54) = (   0.0544739  -0.0480898   0.0000000), wk =   0.0277778
        k(   55) = (   0.0544739  -0.0336495   0.0000000), wk =   0.0277778
        k(   56) = (   0.0680924  -0.0240113   0.0000000), wk =   0.0277778
        k(   57) = (   0.0680924  -0.0095710   0.0000000), wk =   0.0277778
        k(   58) = (   0.0680924   0.0048694   0.0000000), wk =   0.0277778
        k(   59) = (   0.0680924   0.0193098   0.0000000), wk =   0.0277778
        k(   60) = (   0.0680924   0.0337502   0.0000000), wk =   0.0277778
        k(   61) = (   0.0680924   0.0481906   0.0000000), wk =   0.0277778
        k(   62) = (   0.0680924  -0.1106536   0.0000000), wk =   0.0277778
        k(   63) = (   0.0680924  -0.0962133   0.0000000), wk =   0.0277778
        k(   64) = (   0.0680924  -0.0817729   0.0000000), wk =   0.0277778
        k(   65) = (   0.0680924  -0.0673325   0.0000000), wk =   0.0277778
        k(   66) = (   0.0680924  -0.0528921   0.0000000), wk =   0.0277778
        k(   67) = (   0.0680924  -0.0384517   0.0000000), wk =   0.0277778
        k(   68) = (  -0.0817108   0.0288136   0.0000000), wk =   0.0138889
        k(   69) = (  -0.0817108   0.0432540   0.0000000), wk =   0.0277778
        k(   70) = (  -0.0817108   0.0576944   0.0000000), wk =   0.0277778
        k(   71) = (  -0.0817108   0.0721348   0.0000000), wk =   0.0277778
        k(   72) = (  -0.0817108   0.0865751   0.0000000), wk =   0.0277778
        k(   73) = (  -0.0817108   0.1010155   0.0000000), wk =   0.0277778
        k(   74) = (  -0.0817108  -0.0578287   0.0000000), wk =   0.0138889

     Initial potential from superposition of free atoms

     starting charge  125.97206, renormalised to  126.00000

     negative rho (up, down):  9.981E-04 0.000E+00

     %%%%%%%%%%%%%%%%%%%%%%%%%%%%%%%%%%%%%%%%%%%%%%%%%%%%%%%%%%%%%%%%%%%%%%%%
     %                                                                      %
     % You are using vdW-DF, which was implemented by the Thonhauser group. %
     % Please cite the following two papers that made this development      %
     % possible and the two reviews that describe the various versions:     %
     %                                                                      %
     %   T. Thonhauser et al., PRL 115, 136402 (2015).                      %
     %   T. Thonhauser et al., PRB 76, 125112 (2007).                       %
     %   K. Berland et al., Rep. Prog. Phys. 78, 066501 (2015).             %
     %   D.C. Langreth et al., J. Phys.: Condens. Matter 21, 084203 (2009). %
     %                                                                      %
     %                                                                      %
     % If you are calculating the stress with vdW-DF, please also cite:     %
     %                                                                      %
     %   R. Sabatini et al., J. Phys.: Condens. Matter 24, 424209 (2012).   %
     %                                                                      %
     %%%%%%%%%%%%%%%%%%%%%%%%%%%%%%%%%%%%%%%%%%%%%%%%%%%%%%%%%%%%%%%%%%%%%%%%

     Adding external electric field

     Computed dipole along edir(3) :
        Dipole                0.0014 Ry au,          0.0035 Debye
        Dipole field          0.0000 Ry au,

        Potential amp.       -0.0003 Ry
        Total length         46.0525 bohr

     Starting wfcs are  132 randomized atomic wfcs

     Self-consistent Calculation

     iteration #  1     ecut=    55.12 Ry     beta= 0.10
     Davidson diagonalization with overlap
     ethr =  1.00E-02,  avg # of iterations =  2.0

[...]

     total energy              =    -916.36609296 Ry
     estimated scf accuracy    <       2.00066027 Ry

[...]

     iteration # 10     ecut=    55.12 Ry     beta= 0.10
     Davidson diagonalization with overlap
     c_bands:  1 eigenvalues not converged
     ethr =  1.31E-05,  avg # of iterations =  9.7

[...]

     iteration # 11     ecut=    55.12 Ry     beta= 0.10
     Davidson diagonalization with overlap
     c_bands:  1 eigenvalues not converged
     c_bands:  1 eigenvalues not converged
     ethr =  1.51E-06,  avg # of iterations =  7.2

[...]

     total energy              =    -916.45505982 Ry
     estimated scf accuracy    <       0.00001604 Ry

     iteration # 17     ecut=    55.12 Ry     beta= 0.10
     Davidson diagonalization with overlap
     ethr =  1.27E-08,  avg # of iterations =  3.2

[...]

     Adding external electric field

     Computed dipole along edir(3) :
        Dipole                0.0823 Ry au,          0.2093 Debye
        Dipole field          0.0002 Ry au,

        Potential amp.       -0.0160 Ry
        Total length         46.0525 bohr

     End of self-consistent calculation

          k = 0.0000 0.0000 0.0000 ( 41219 PWs)   bands (ev):

   -42.5740 -42.5653 -42.5496 -42.5409 -41.8213 -41.7965 -22.5857 -22.5800
   -22.5788 -22.5615 -22.5502 -22.5265 -22.4258 -22.4092 -22.4042 -22.3813
   -22.2688 -22.2639 -21.9246 -21.7760 -21.7544 -21.7290 -21.7216 -21.5907
    -4.1402  -2.9900  -2.8398  -2.7199  -2.6891  -2.6750  -2.6732  -2.6413
    -2.6310  -2.6265  -2.2735  -2.2713  -2.0628  -2.0496  -2.0281  -1.9918
    -1.8885  -1.8692  -1.8371  -1.7357  -1.6807  -1.6650  -1.6454  -1.4853
    -1.4086  -1.3558  -1.2314  -1.1852  -1.0761  -0.9830  -0.9606  -0.7816
    -0.1770   0.2074   0.2725   0.4333   0.9814   1.4458   1.4936   1.7860
     1.8179   1.9324   2.1706   2.3020   2.4134   2.4366   2.5021   2.5800
     2.6138   2.8816   3.0573   3.2307

[...]

          k = 0.0681-0.0385 0.0000 ( 41183 PWs)   bands (ev):

[...]

          k =-0.0817 0.0288 0.0000 ( 41196 PWs)   bands (ev):

[...]

          k =-0.0817-0.0578 0.0000 ( 41146 PWs)   bands (ev):

   -42.5733 -42.5646 -42.5496 -42.5409 -41.8211 -41.7959 -22.5934 -22.5904
   -22.5871 -22.5576 -22.5465 -22.5254 -22.4515 -22.4254 -22.3988 -22.3824
   -22.2709 -22.2660 -21.9307 -21.7669 -21.7627 -21.7401 -21.7269 -21.5942
    -2.7547  -2.5834  -2.3506  -2.3242  -2.2768  -2.2501  -2.1895  -2.1462
    -2.1096  -2.0549  -1.9692  -1.9690  -1.9519  -1.8246  -1.7706  -1.7303
    -1.6342  -1.6287  -1.5847  -1.5788  -1.5120  -1.4831  -1.4686  -1.4475
    -1.3931  -1.3453  -1.3104  -1.2510  -1.1679  -1.0457  -1.0423  -1.0102
    -0.8087  -0.6229  -0.0152   0.0523   0.1788   0.5197   0.5226   0.6168
     0.6683   1.2528   1.3464   1.3639   1.5772   1.5832   1.9536   2.0302
     2.1834   2.5405   2.6829   2.8439

     the Fermi energy is     1.2248 ev

!    total energy              =    -916.45504926 Ry
     estimated scf accuracy    <       0.00000819 Ry
     smearing contrib. (-TS)   =      -0.03979716 Ry
     internal energy E=F+TS    =    -916.41525210 Ry

     The total energy is F=E-TS. E is the sum of the following terms:
     one-electron contribution =   -6466.58085233 Ry
     hartree contribution      =    3271.69347888 Ry
     xc contribution           =    -245.77933862 Ry
     ewald contribution        =    2524.25144567 Ry
     electric field correction =       0.00001430 Ry

     convergence has been achieved in  17 iterations

     negative rho (up, down):  7.301E-04 0.000E+00

     Forces acting on atoms (cartesian axes, Ry/au):

     atom    1 type  1   force =     0.00003247    0.00002200    0.02052570
     atom    2 type  1   force =     0.00003146    0.00002345    0.02052656
     atom    3 type  2   force =     0.00022114    0.00015651   -0.00270361
     atom    4 type  2   force =     0.00021887    0.00015501   -0.00270458
     atom    5 type  1   force =    -0.00000652   -0.00000536    0.00142475
     atom    6 type  1   force =    -0.00000703   -0.00000460    0.00142431
     atom    7 type  2   force =    -0.00012802   -0.00009112   -0.01782622
     atom    8 type  2   force =    -0.00012984   -0.00009132   -0.01782561
     atom    9 type  1   force =    -0.00008036   -0.00005472    0.00173605
     atom   10 type  1   force =    -0.00007749   -0.00005620    0.00173613
     atom   11 type  2   force =    -0.00003749   -0.00002795   -0.00315629
     atom   12 type  2   force =    -0.00003720   -0.00002571   -0.00315718

     Total force =     0.039026     Total SCF correction =     0.012820
     SCF correction compared to forces is large: reduce conv_thr to get better values

     Writing output data file ./Pd2Y2/Pd2Y2_beef.save/

     General routines

     Parallel routines

   This run was terminated on:  13:27: 0  24Jun2022

   JOB DONE.