     Program PWSCF v.6.6 starts on 24Jun2022 at 12:51:32

     R & G space division:  proc/nbgrp/npool/nimage =      37
     Fft bands division:     nmany     =       1
     Reading input from Pt2Au2.in
Warning: card &CELL ignored
Warning: card / ignored

     Current dimensions of program PWSCF are:
     Max number of different atomic species (ntypx) = 10
     Max number of k-points (npk) =  40000
     Max angular momentum in pseudopotentials (lmaxx) =  3
     Presently stress not available with electric field and gates

     Message from routine cell_base_init:
     DEPRECATED: use true lattice parameter, not A to a.u. conversion factor
     file Pt.pbe-n-rrkjus_psl.1.0.0.UPF: wavefunction(s)  6S renormalized

     IMPORTANT: XC functional enforced from input :
     Exchange-correlation= BEEF-VDW
                           (   1   4  43  14   2   0   0)
     Any further DFT definition will be discarded
     Please, verify this is what you really want

     Subspace diagonalization in iterative solution of the eigenvalue problem:
     a serial algorithm will be used

     bravais-lattice index     =            0
     lattice parameter (alat)  =       1.8897  a.u.
     unit-cell volume          =    4828.4472 (a.u.)^3
     number of atoms/cell      =           12
     number of atomic types    =            2
     number of electrons       =       126.00
     number of Kohn-Sham states=           76
     kinetic-energy cutoff     =      55.1240  Ry
     charge density cutoff     =     551.2396  Ry
     convergence threshold     =      1.0E-05
     mixing beta               =       0.1000
     number of iterations used =           10  plain     mixing
     Exchange-correlation= BEEF-VDW
                           (   1   4  43  14   2   0   0)

     celldm(1)=   1.889726  celldm(2)=   0.000000  celldm(3)=   0.000000
     celldm(4)=   0.000000  celldm(5)=   0.000000  celldm(6)=   0.000000

     crystal axes: (cart. coord. in units of alat)
               a(1) = (   5.736007   0.000000   0.000000 )
               a(2) = (  -2.868003   5.046167   0.000000 )
               a(3) = (   0.000000   0.000000  24.719500 )

     reciprocal axes: (cart. coord. in units 2 pi/alat)
               b(1) = (  0.174337  0.099085 -0.000000 )
               b(2) = (  0.000000  0.198170  0.000000 )
               b(3) = (  0.000000 -0.000000  0.040454 )

     PseudoPot. # 1 for Pt read from file:
     ../pseudo/Pt.pbe-n-rrkjus_psl.1.0.0.UPF
     MD5 check sum: 6bc887cfe28d63a5fc1f72d35a7d3ef7
     Pseudo is Ultrasoft + core correction, Zval = 10.0
     Generated using "atomic" code by A. Dal Corso v.6.3
     Using radial grid of 1277 points,  6 beta functions with:
                l(1) =   0
                l(2) =   0
                l(3) =   1
                l(4) =   1
                l(5) =   2
                l(6) =   2
     Q(r) pseudized with 0 coefficients

     PseudoPot. # 2 for Au read from file:
     ../pseudo/Au.pbe-n-rrkjus_psl.1.0.0.UPF
     MD5 check sum: d7e77ba19504afed2c9b41c931dde4f0
     Pseudo is Ultrasoft + core correction, Zval = 11.0
     Generated using "atomic" code by A. Dal Corso v.6.3
     Using radial grid of 1279 points,  6 beta functions with:
                l(1) =   0
                l(2) =   0
                l(3) =   1
                l(4) =   1
                l(5) =   2
                l(6) =   2
     Q(r) pseudized with 0 coefficients

     atomic species   valence    mass     pseudopotential
        Pt            10.00   195.08400     Pt( 1.00)
        Au            11.00   196.96657     Au( 1.00)

     No symmetry found

   Cartesian axes

     site n.     atom                  positions (alat units)
         1           Pt  tau(   1) = (   0.0000000   0.0000000  10.0000000  )
         2           Pt  tau(   2) = (   2.8680034   0.0000000  10.0000000  )
         3           Au  tau(   3) = (   1.4340017   2.5230834  10.0000000  )
         4           Au  tau(   4) = (  -1.4340017   2.5230834  10.0000000  )
         5           Pt  tau(   5) = (   2.8680034   1.6300380  12.3597499  )
         6           Pt  tau(   6) = (   0.0000000   1.6300380  12.3597499  )
         7           Au  tau(   7) = (  -1.4340017   4.1531214  12.3597499  )
         8           Au  tau(   8) = (   1.4340017   4.1531214  12.3597499  )
         9           Pt  tau(   9) = (   0.0000287   3.0806268  14.6811163  )
        10           Pt  tau(  10) = (   2.8679828   3.0806305  14.6811190  )
        11           Au  tau(  11) = (   4.3019792   0.5862795  14.8805694  )
        12           Au  tau(  12) = (   1.4339777   0.5862078  14.8805043  )

     number of k points=    74  Fermi-Dirac smearing, width (Ry)=  0.0100
                       cart. coord. in units 2pi/alat
        k(    1) = (   0.0000000   0.0000000   0.0000000), wk =   0.0138889
        k(    2) = (   0.0000000   0.0165142   0.0000000), wk =   0.0277778
        k(    3) = (   0.0000000   0.0330284   0.0000000), wk =   0.0277778
        k(    4) = (   0.0000000   0.0495426   0.0000000), wk =   0.0277778
        k(    5) = (   0.0000000   0.0660567   0.0000000), wk =   0.0277778
        k(    6) = (   0.0000000   0.0825709   0.0000000), wk =   0.0277778
        k(    7) = (   0.0000000  -0.0990851   0.0000000), wk =   0.0138889
        k(    8) = (   0.0145281   0.0082571   0.0000000), wk =   0.0277778
        k(    9) = (   0.0145281   0.0247713   0.0000000), wk =   0.0277778
        k(   10) = (   0.0145281   0.0412855   0.0000000), wk =   0.0277778
        k(   11) = (   0.0145281   0.0577996   0.0000000), wk =   0.0277778
        k(   12) = (   0.0145281   0.0743138   0.0000000), wk =   0.0277778
        k(   13) = (   0.0145281   0.0908280   0.0000000), wk =   0.0277778
        k(   14) = (   0.0145281  -0.0908280   0.0000000), wk =   0.0277778
        k(   15) = (   0.0145281  -0.0743138   0.0000000), wk =   0.0277778
        k(   16) = (   0.0145281  -0.0577996   0.0000000), wk =   0.0277778
        k(   17) = (   0.0145281  -0.0412855   0.0000000), wk =   0.0277778
        k(   18) = (   0.0145281  -0.0247713   0.0000000), wk =   0.0277778
        k(   19) = (   0.0145281  -0.0082571   0.0000000), wk =   0.0277778
        k(   20) = (   0.0290562   0.0165142   0.0000000), wk =   0.0277778
        k(   21) = (   0.0290562   0.0330284   0.0000000), wk =   0.0277778
        k(   22) = (   0.0290562   0.0495426   0.0000000), wk =   0.0277778
        k(   23) = (   0.0290562   0.0660567   0.0000000), wk =   0.0277778
        k(   24) = (   0.0290562   0.0825709   0.0000000), wk =   0.0277778
        k(   25) = (   0.0290562   0.0990851   0.0000000), wk =   0.0277778
        k(   26) = (   0.0290562  -0.0825709   0.0000000), wk =   0.0277778
        k(   27) = (   0.0290562  -0.0660567   0.0000000), wk =   0.0277778
        k(   28) = (   0.0290562  -0.0495426   0.0000000), wk =   0.0277778
        k(   29) = (   0.0290562  -0.0330284   0.0000000), wk =   0.0277778
        k(   30) = (   0.0290562  -0.0165142   0.0000000), wk =   0.0277778
        k(   31) = (   0.0290562  -0.0000000   0.0000000), wk =   0.0277778
        k(   32) = (   0.0435843   0.0247713   0.0000000), wk =   0.0277778
        k(   33) = (   0.0435843   0.0412855   0.0000000), wk =   0.0277778
        k(   34) = (   0.0435843   0.0577996   0.0000000), wk =   0.0277778
        k(   35) = (   0.0435843   0.0743138   0.0000000), wk =   0.0277778
        k(   36) = (   0.0435843   0.0908280   0.0000000), wk =   0.0277778
        k(   37) = (   0.0435843   0.1073422   0.0000000), wk =   0.0277778
        k(   38) = (   0.0435843  -0.0743138   0.0000000), wk =   0.0277778
        k(   39) = (   0.0435843  -0.0577997   0.0000000), wk =   0.0277778
        k(   40) = (   0.0435843  -0.0412855   0.0000000), wk =   0.0277778
        k(   41) = (   0.0435843  -0.0247713   0.0000000), wk =   0.0277778
        k(   42) = (   0.0435843  -0.0082571   0.0000000), wk =   0.0277778
        k(   43) = (   0.0435843   0.0082571   0.0000000), wk =   0.0277778
        k(   44) = (   0.0581124   0.0330284   0.0000000), wk =   0.0277778
        k(   45) = (   0.0581124   0.0495425   0.0000000), wk =   0.0277778
        k(   46) = (   0.0581124   0.0660567   0.0000000), wk =   0.0277778
        k(   47) = (   0.0581124   0.0825709   0.0000000), wk =   0.0277778
        k(   48) = (   0.0581124   0.0990851   0.0000000), wk =   0.0277778
        k(   49) = (   0.0581124   0.1155993   0.0000000), wk =   0.0277778
        k(   50) = (   0.0581124  -0.0660567   0.0000000), wk =   0.0277778
        k(   51) = (   0.0581124  -0.0495426   0.0000000), wk =   0.0277778
        k(   52) = (   0.0581124  -0.0330284   0.0000000), wk =   0.0277778
        k(   53) = (   0.0581124  -0.0165142   0.0000000), wk =   0.0277778
        k(   54) = (   0.0581124  -0.0000000   0.0000000), wk =   0.0277778
        k(   55) = (   0.0581124   0.0165142   0.0000000), wk =   0.0277778
        k(   56) = (   0.0726405   0.0412855   0.0000000), wk =   0.0277778
        k(   57) = (   0.0726405   0.0577996   0.0000000), wk =   0.0277778
        k(   58) = (   0.0726405   0.0743138   0.0000000), wk =   0.0277778
        k(   59) = (   0.0726405   0.0908280   0.0000000), wk =   0.0277778
        k(   60) = (   0.0726405   0.1073422   0.0000000), wk =   0.0277778
        k(   61) = (   0.0726405   0.1238564   0.0000000), wk =   0.0277778
        k(   62) = (   0.0726405  -0.0577997   0.0000000), wk =   0.0277778
        k(   63) = (   0.0726405  -0.0412855   0.0000000), wk =   0.0277778
        k(   64) = (   0.0726405  -0.0247713   0.0000000), wk =   0.0277778
        k(   65) = (   0.0726405  -0.0082571   0.0000000), wk =   0.0277778
        k(   66) = (   0.0726405   0.0082571   0.0000000), wk =   0.0277778
        k(   67) = (   0.0726405   0.0247713   0.0000000), wk =   0.0277778
        k(   68) = (  -0.0871687  -0.0495425   0.0000000), wk =   0.0138889
        k(   69) = (  -0.0871687  -0.0330284   0.0000000), wk =   0.0277778
        k(   70) = (  -0.0871687  -0.0165142   0.0000000), wk =   0.0277778
        k(   71) = (  -0.0871687   0.0000000   0.0000000), wk =   0.0277778
        k(   72) = (  -0.0871687   0.0165142   0.0000000), wk =   0.0277778
        k(   73) = (  -0.0871687   0.0330284   0.0000000), wk =   0.0277778
        k(   74) = (  -0.0871687  -0.1486277   0.0000000), wk =   0.0138889

     Initial potential from superposition of free atoms

     starting charge  125.99832, renormalised to  126.00000

     negative rho (up, down):  1.156E-03 0.000E+00

     %%%%%%%%%%%%%%%%%%%%%%%%%%%%%%%%%%%%%%%%%%%%%%%%%%%%%%%%%%%%%%%%%%%%%%%%
     %                                                                      %
     % You are using vdW-DF, which was implemented by the Thonhauser group. %
     % Please cite the following two papers that made this development      %
     % possible and the two reviews that describe the various versions:     %
     %                                                                      %
     %   T. Thonhauser et al., PRL 115, 136402 (2015).                      %
     %   T. Thonhauser et al., PRB 76, 125112 (2007).                       %
     %   K. Berland et al., Rep. Prog. Phys. 78, 066501 (2015).             %
     %   D.C. Langreth et al., J. Phys.: Condens. Matter 21, 084203 (2009). %
     %                                                                      %
     %                                                                      %
     % If you are calculating the stress with vdW-DF, please also cite:     %
     %                                                                      %
     %   R. Sabatini et al., J. Phys.: Condens. Matter 24, 424209 (2012).   %
     %                                                                      %
     %%%%%%%%%%%%%%%%%%%%%%%%%%%%%%%%%%%%%%%%%%%%%%%%%%%%%%%%%%%%%%%%%%%%%%%%

     Adding external electric field

     Computed dipole along edir(3) :
        Dipole               -0.0000 Ry au,         -0.0001 Debye
        Dipole field         -0.0000 Ry au,

        Potential amp.        0.0000 Ry
        Total length         45.5453 bohr

     Starting wfcs are  108 randomized atomic wfcs

     Self-consistent Calculation

     iteration #  1     ecut=    55.12 Ry     beta= 0.10
     Davidson diagonalization with overlap
     ethr =  1.00E-02,  avg # of iterations =  3.5

     Threshold (ethr) on eigenvalues was too large:
     Diagonalizing with lowered threshold

     Davidson diagonalization with overlap
     ethr =  2.75E-04,  avg # of iterations =  4.7

[...]

     total energy              =    -915.70588328 Ry
     estimated scf accuracy    <       0.38101049 Ry

[...]

     iteration #  6     ecut=    55.12 Ry     beta= 0.10
     Davidson diagonalization with overlap
     c_bands:  1 eigenvalues not converged
     ethr =  2.09E-05,  avg # of iterations =  6.6

[...]

     iteration #  8     ecut=    55.12 Ry     beta= 0.10
     Davidson diagonalization with overlap
     c_bands:  2 eigenvalues not converged
     c_bands:  2 eigenvalues not converged
     ethr =  4.16E-06,  avg # of iterations =  4.4

[...]

     total energy              =    -915.70123059 Ry
     estimated scf accuracy    <       0.00001558 Ry

     iteration # 15     ecut=    55.12 Ry     beta= 0.10
     Davidson diagonalization with overlap
     ethr =  1.21E-08,  avg # of iterations =  2.0

[...]

     Adding external electric field

     Computed dipole along edir(3) :
        Dipole                0.0117 Ry au,          0.0297 Debye
        Dipole field          0.0000 Ry au,

        Potential amp.       -0.0028 Ry
        Total length         45.5453 bohr

     End of self-consistent calculation

          k = 0.0000 0.0000 0.0000 ( 33273 PWs)   bands (ev):

    -7.8250  -6.3423  -5.9333  -5.7019  -5.5910  -5.5337  -5.4286  -5.4096
    -5.2371  -5.1057  -5.0990  -5.0387  -5.0020  -4.9175  -4.7442  -4.0729
    -3.9267  -3.8123  -3.8072  -3.6051  -3.5839  -3.4598  -3.3102  -3.2659
    -3.1776  -3.0544  -2.9937  -2.9593  -2.8812  -2.8640  -2.8030  -2.7818
    -2.6504  -2.2238  -2.0936  -2.0195  -1.9364  -1.8030  -1.7148  -1.6187
    -1.6044  -1.3026  -1.2838  -1.1933  -1.0940  -1.0788  -0.7621  -0.7351
    -0.7328  -0.6434  -0.5297  -0.5168  -0.4489  -0.4350  -0.1723  -0.1721
    -0.1069  -0.0907   0.0017   0.0966   0.1570   0.2369   0.5707   1.1181
     1.3771   1.4358   1.5156   2.3203   2.5328   2.5487   2.7651   2.9140
     2.9748   4.6185   4.7903   4.8720

[...]

          k = 0.0726 0.0248 0.0000 ( 33354 PWs)   bands (ev):

[...]

          k =-0.0872-0.0495 0.0000 ( 33390 PWs)   bands (ev):

[...]

          k =-0.0872-0.1486 0.0000 ( 33390 PWs)   bands (ev):

    -6.2202  -6.2202  -5.1065  -5.1065  -4.9184  -4.9184  -4.7862  -4.7861
    -4.6381  -4.6381  -4.3861  -4.3861  -4.2212  -4.2212  -4.1304  -4.1304
    -3.8725  -3.8725  -3.7443  -3.7443  -3.5748  -3.5748  -3.4529  -3.4529
    -3.3358  -3.3357  -3.2602  -3.2601  -3.1933  -3.1933  -3.0425  -3.0424
    -2.8026  -2.8026  -2.6134  -2.6134  -2.4510  -2.4510  -2.2276  -2.2276
    -2.0779  -2.0779  -1.7318  -1.7318  -1.5127  -1.5127  -1.4565  -1.4565
    -1.3984  -1.3984  -1.3077  -1.3077  -1.2656  -1.2656  -1.0865  -1.0865
    -0.7205  -0.7205  -0.6707  -0.6707  -0.3354  -0.3354  -0.0858  -0.0858
     1.2480   1.2480   1.5138   1.5138   2.3822   2.3823   4.1816   4.1816
     4.3232   4.3232   6.1121   6.1122

     the Fermi energy is     0.1227 ev

!    total energy              =    -915.70123045 Ry
     estimated scf accuracy    <       0.00000263 Ry
     smearing contrib. (-TS)   =      -0.04778974 Ry
     internal energy E=F+TS    =    -915.65344071 Ry

     The total energy is F=E-TS. E is the sum of the following terms:
     one-electron contribution =   -7647.29125853 Ry
     hartree contribution      =    3905.57887539 Ry
     xc contribution           =    -347.46069463 Ry
     ewald contribution        =    3173.51963670 Ry
     electric field correction =       0.00000036 Ry

     convergence has been achieved in  15 iterations

     negative rho (up, down):  1.127E-03 0.000E+00

     Forces acting on atoms (cartesian axes, Ry/au):

     atom    1 type  1   force =     0.00000176    0.00966159    0.00772867
     atom    2 type  1   force =    -0.00000016    0.00966333    0.00773677
     atom    3 type  2   force =    -0.00000650   -0.00299455   -0.02216009
     atom    4 type  2   force =     0.00001029   -0.00299852   -0.02215341
     atom    5 type  1   force =    -0.00000283   -0.01197874    0.00644192
     atom    6 type  1   force =    -0.00000810   -0.01197593    0.00644634
     atom    7 type  2   force =    -0.00000240    0.00582421    0.00813997
     atom    8 type  2   force =    -0.00000297    0.00583055    0.00814150
     atom    9 type  1   force =    -0.00000808   -0.00010953    0.00079848
     atom   10 type  1   force =     0.00000002   -0.00010502    0.00079695
     atom   11 type  2   force =     0.00001064   -0.00041056   -0.00096761
     atom   12 type  2   force =     0.00000833   -0.00040685   -0.00094949

     Total force =     0.043359     Total SCF correction =     0.001328

     Writing output data file ./Pt2Au2/Pt2Au2_beef.save/

     General routines

     Parallel routines

   This run was terminated on:  13:38:20  24Jun2022

   JOB DONE.