     Program PWSCF v.6.6 starts on 24Jun2022 at 13:38:23

     R & G space division:  proc/nbgrp/npool/nimage =      37
     Fft bands division:     nmany     =       1
     Reading input from Pt2Hg2.in
Warning: card &CELL ignored
Warning: card / ignored

     Current dimensions of program PWSCF are:
     Max number of different atomic species (ntypx) = 10
     Max number of k-points (npk) =  40000
     Max angular momentum in pseudopotentials (lmaxx) =  3
     Presently stress not available with electric field and gates

     Message from routine cell_base_init:
     DEPRECATED: use true lattice parameter, not A to a.u. conversion factor
     file Pt.pbe-n-rrkjus_psl.1.0.0.UPF: wavefunction(s)  6S renormalized
     file Hg.pbe-n-rrkjus_psl.1.0.0.UPF: wavefunction(s)  6S renormalized

     IMPORTANT: XC functional enforced from input :
     Exchange-correlation= BEEF-VDW
                           (   1   4  43  14   2   0   0)
     Any further DFT definition will be discarded
     Please, verify this is what you really want

     Subspace diagonalization in iterative solution of the eigenvalue problem:
     a serial algorithm will be used

     Found symmetry operation: I + ( -0.5000 -0.5000  0.0000)
     This is a supercell, fractional translations are disabled

     bravais-lattice index     =            0
     lattice parameter (alat)  =       1.8897  a.u.
     unit-cell volume          =    5204.2734 (a.u.)^3
     number of atoms/cell      =           12
     number of atomic types    =            2
     number of electrons       =       132.00
     number of Kohn-Sham states=           79
     kinetic-energy cutoff     =      55.1240  Ry
     charge density cutoff     =     551.2396  Ry
     convergence threshold     =      1.0E-05
     mixing beta               =       0.1000
     number of iterations used =           10  plain     mixing
     Exchange-correlation= BEEF-VDW
                           (   1   4  43  14   2   0   0)

     celldm(1)=   1.889726  celldm(2)=   0.000000  celldm(3)=   0.000000
     celldm(4)=   0.000000  celldm(5)=   0.000000  celldm(6)=   0.000000

     crystal axes: (cart. coord. in units of alat)
               a(1) = (   5.882892   0.000000   0.000000 )
               a(2) = (   2.610225   5.272110   0.000000 )
               a(3) = (   0.000000   0.000000  24.864988 )

     reciprocal axes: (cart. coord. in units 2 pi/alat)
               b(1) = (  0.169984 -0.084159  0.000000 )
               b(2) = (  0.000000  0.189677  0.000000 )
               b(3) = (  0.000000  0.000000  0.040217 )

     PseudoPot. # 1 for Pt read from file:
     ../pseudo/Pt.pbe-n-rrkjus_psl.1.0.0.UPF
     MD5 check sum: 6bc887cfe28d63a5fc1f72d35a7d3ef7
     Pseudo is Ultrasoft + core correction, Zval = 10.0
     Generated using "atomic" code by A. Dal Corso v.6.3
     Using radial grid of 1277 points,  6 beta functions with:
                l(1) =   0
                l(2) =   0
                l(3) =   1
                l(4) =   1
                l(5) =   2
                l(6) =   2
     Q(r) pseudized with 0 coefficients

     PseudoPot. # 2 for Hg read from file:
     ../pseudo/Hg.pbe-n-rrkjus_psl.1.0.0.UPF
     MD5 check sum: 7519ac2e5b9cac440d3cfd4127d6ea3c
     Pseudo is Ultrasoft + core correction, Zval = 12.0
     Generated using "atomic" code by A. Dal Corso v.6.3
     Using radial grid of 1279 points,  6 beta functions with:
                l(1) =   0
                l(2) =   0
                l(3) =   1
                l(4) =   1
                l(5) =   2
                l(6) =   2
     Q(r) pseudized with 0 coefficients

     atomic species   valence    mass     pseudopotential
        Pt            10.00   195.08400     Pt( 1.00)
        Hg            12.00   200.59200     Hg( 1.00)

     No symmetry found

   Cartesian axes

     site n.     atom                  positions (alat units)
         1           Pt  tau(   1) = (   0.0000000   0.0000000  10.0000000  )
         2           Pt  tau(   2) = (   4.2465585   2.6360550  10.0000000  )
         3           Hg  tau(   3) = (   2.9414460   0.0000000  10.0000000  )
         4           Hg  tau(   4) = (   1.3051125   2.6360550  10.0000000  )
         5           Pt  tau(   5) = (   5.8828920   3.6518105  12.4324939  )
         6           Pt  tau(   6) = (   1.6363335   1.0157555  12.4324939  )
         7           Hg  tau(   7) = (   2.9414460   3.6518105  12.4324939  )
         8           Hg  tau(   8) = (   4.5777795   1.0157555  12.4324939  )
         9           Pt  tau(   9) = (   3.0218514   1.8758089  14.7014852  )
        10           Pt  tau(  10) = (   7.2683905   4.5118804  14.7014899  )
        11           Hg  tau(  11) = (   5.9927156   1.8940932  15.1994124  )
        12           Hg  tau(  12) = (   4.3563650   4.5301304  15.1994030  )

     number of k points=    74  Fermi-Dirac smearing, width (Ry)=  0.0100
                       cart. coord. in units 2pi/alat
        k(    1) = (   0.0000000   0.0000000   0.0000000), wk =   0.0138889
        k(    2) = (   0.0000000   0.0158064   0.0000000), wk =   0.0277778
        k(    3) = (   0.0000000   0.0316129   0.0000000), wk =   0.0277778
        k(    4) = (   0.0000000   0.0474193   0.0000000), wk =   0.0277778
        k(    5) = (   0.0000000   0.0632258   0.0000000), wk =   0.0277778
        k(    6) = (   0.0000000   0.0790322   0.0000000), wk =   0.0277778
        k(    7) = (   0.0000000  -0.0948387   0.0000000), wk =   0.0138889
        k(    8) = (   0.0141654  -0.0070133   0.0000000), wk =   0.0277778
        k(    9) = (   0.0141654   0.0087932   0.0000000), wk =   0.0277778
        k(   10) = (   0.0141654   0.0245996   0.0000000), wk =   0.0277778
        k(   11) = (   0.0141654   0.0404061   0.0000000), wk =   0.0277778
        k(   12) = (   0.0141654   0.0562125   0.0000000), wk =   0.0277778
        k(   13) = (   0.0141654   0.0720190   0.0000000), wk =   0.0277778
        k(   14) = (   0.0141654  -0.1018520   0.0000000), wk =   0.0277778
        k(   15) = (   0.0141654  -0.0860455   0.0000000), wk =   0.0277778
        k(   16) = (   0.0141654  -0.0702391   0.0000000), wk =   0.0277778
        k(   17) = (   0.0141654  -0.0544326   0.0000000), wk =   0.0277778
        k(   18) = (   0.0141654  -0.0386262   0.0000000), wk =   0.0277778
        k(   19) = (   0.0141654  -0.0228197   0.0000000), wk =   0.0277778
        k(   20) = (   0.0283307  -0.0140266   0.0000000), wk =   0.0277778
        k(   21) = (   0.0283307   0.0017799   0.0000000), wk =   0.0277778
        k(   22) = (   0.0283307   0.0175863   0.0000000), wk =   0.0277778
        k(   23) = (   0.0283307   0.0333928   0.0000000), wk =   0.0277778
        k(   24) = (   0.0283307   0.0491992   0.0000000), wk =   0.0277778
        k(   25) = (   0.0283307   0.0650057   0.0000000), wk =   0.0277778
        k(   26) = (   0.0283307  -0.1088653   0.0000000), wk =   0.0277778
        k(   27) = (   0.0283307  -0.0930588   0.0000000), wk =   0.0277778
        k(   28) = (   0.0283307  -0.0772524   0.0000000), wk =   0.0277778
        k(   29) = (   0.0283307  -0.0614459   0.0000000), wk =   0.0277778
        k(   30) = (   0.0283307  -0.0456395   0.0000000), wk =   0.0277778
        k(   31) = (   0.0283307  -0.0298330   0.0000000), wk =   0.0277778
        k(   32) = (   0.0424961  -0.0210398   0.0000000), wk =   0.0277778
        k(   33) = (   0.0424961  -0.0052334   0.0000000), wk =   0.0277778
        k(   34) = (   0.0424961   0.0105730   0.0000000), wk =   0.0277778
        k(   35) = (   0.0424961   0.0263795   0.0000000), wk =   0.0277778
        k(   36) = (   0.0424961   0.0421859   0.0000000), wk =   0.0277778
        k(   37) = (   0.0424961   0.0579924   0.0000000), wk =   0.0277778
        k(   38) = (   0.0424961  -0.1158785   0.0000000), wk =   0.0277778
        k(   39) = (   0.0424961  -0.1000721   0.0000000), wk =   0.0277778
        k(   40) = (   0.0424961  -0.0842656   0.0000000), wk =   0.0277778
        k(   41) = (   0.0424961  -0.0684592   0.0000000), wk =   0.0277778
        k(   42) = (   0.0424961  -0.0526527   0.0000000), wk =   0.0277778
        k(   43) = (   0.0424961  -0.0368463   0.0000000), wk =   0.0277778
        k(   44) = (   0.0566615  -0.0280531   0.0000000), wk =   0.0277778
        k(   45) = (   0.0566615  -0.0122467   0.0000000), wk =   0.0277778
        k(   46) = (   0.0566615   0.0035598   0.0000000), wk =   0.0277778
        k(   47) = (   0.0566615   0.0193662   0.0000000), wk =   0.0277778
        k(   48) = (   0.0566615   0.0351727   0.0000000), wk =   0.0277778
        k(   49) = (   0.0566615   0.0509791   0.0000000), wk =   0.0277778
        k(   50) = (   0.0566615  -0.1228918   0.0000000), wk =   0.0277778
        k(   51) = (   0.0566615  -0.1070854   0.0000000), wk =   0.0277778
        k(   52) = (   0.0566615  -0.0912789   0.0000000), wk =   0.0277778
        k(   53) = (   0.0566615  -0.0754725   0.0000000), wk =   0.0277778
        k(   54) = (   0.0566615  -0.0596660   0.0000000), wk =   0.0277778
        k(   55) = (   0.0566615  -0.0438596   0.0000000), wk =   0.0277778
        k(   56) = (   0.0708268  -0.0350664   0.0000000), wk =   0.0277778
        k(   57) = (   0.0708268  -0.0192600   0.0000000), wk =   0.0277778
        k(   58) = (   0.0708268  -0.0034535   0.0000000), wk =   0.0277778
        k(   59) = (   0.0708268   0.0123529   0.0000000), wk =   0.0277778
        k(   60) = (   0.0708268   0.0281594   0.0000000), wk =   0.0277778
        k(   61) = (   0.0708268   0.0439658   0.0000000), wk =   0.0277778
        k(   62) = (   0.0708268  -0.1299051   0.0000000), wk =   0.0277778
        k(   63) = (   0.0708268  -0.1140987   0.0000000), wk =   0.0277778
        k(   64) = (   0.0708268  -0.0982922   0.0000000), wk =   0.0277778
        k(   65) = (   0.0708268  -0.0824858   0.0000000), wk =   0.0277778
        k(   66) = (   0.0708268  -0.0666793   0.0000000), wk =   0.0277778
        k(   67) = (   0.0708268  -0.0508729   0.0000000), wk =   0.0277778
        k(   68) = (  -0.0849922   0.0420797   0.0000000), wk =   0.0138889
        k(   69) = (  -0.0849922   0.0578861   0.0000000), wk =   0.0277778
        k(   70) = (  -0.0849922   0.0736926   0.0000000), wk =   0.0277778
        k(   71) = (  -0.0849922   0.0894990   0.0000000), wk =   0.0277778
        k(   72) = (  -0.0849922   0.1053055   0.0000000), wk =   0.0277778
        k(   73) = (  -0.0849922   0.1211119   0.0000000), wk =   0.0277778
        k(   74) = (  -0.0849922  -0.0527590   0.0000000), wk =   0.0138889

     Initial potential from superposition of free atoms

     starting charge  131.99849, renormalised to  132.00000

     negative rho (up, down):  1.411E-03 0.000E+00

     %%%%%%%%%%%%%%%%%%%%%%%%%%%%%%%%%%%%%%%%%%%%%%%%%%%%%%%%%%%%%%%%%%%%%%%%
     %                                                                      %
     % You are using vdW-DF, which was implemented by the Thonhauser group. %
     % Please cite the following two papers that made this development      %
     % possible and the two reviews that describe the various versions:     %
     %                                                                      %
     %   T. Thonhauser et al., PRL 115, 136402 (2015).                      %
     %   T. Thonhauser et al., PRB 76, 125112 (2007).                       %
     %   K. Berland et al., Rep. Prog. Phys. 78, 066501 (2015).             %
     %   D.C. Langreth et al., J. Phys.: Condens. Matter 21, 084203 (2009). %
     %                                                                      %
     %                                                                      %
     % If you are calculating the stress with vdW-DF, please also cite:     %
     %                                                                      %
     %   R. Sabatini et al., J. Phys.: Condens. Matter 24, 424209 (2012).   %
     %                                                                      %
     %%%%%%%%%%%%%%%%%%%%%%%%%%%%%%%%%%%%%%%%%%%%%%%%%%%%%%%%%%%%%%%%%%%%%%%%

     Adding external electric field

     Computed dipole along edir(3) :
        Dipole               -0.0001 Ry au,         -0.0003 Debye
        Dipole field         -0.0000 Ry au,

        Potential amp.        0.0000 Ry
        Total length         45.8133 bohr

     Starting wfcs are  108 randomized atomic wfcs

     Self-consistent Calculation

     iteration #  1     ecut=    55.12 Ry     beta= 0.10
     Davidson diagonalization with overlap
     ethr =  1.00E-02,  avg # of iterations =  3.1

     Threshold (ethr) on eigenvalues was too large:
     Diagonalizing with lowered threshold

     Davidson diagonalization with overlap
     ethr =  3.08E-04,  avg # of iterations =  5.1

[...]

     total energy              =   -1003.48883543 Ry
     estimated scf accuracy    <       0.37623560 Ry

[...]

     iteration #  3     ecut=    55.12 Ry     beta= 0.10
     Davidson diagonalization with overlap
     c_bands:  1 eigenvalues not converged
     ethr =  1.36E-04,  avg # of iterations =  5.3

[...]

     iteration #  9     ecut=    55.12 Ry     beta= 0.10
     Davidson diagonalization with overlap
     c_bands:  1 eigenvalues not converged
     ethr =  1.15E-06,  avg # of iterations =  6.8

[...]

     total energy              =   -1003.51768412 Ry
     estimated scf accuracy    <       0.00001249 Ry

     iteration # 14     ecut=    55.12 Ry     beta= 0.10
     Davidson diagonalization with overlap
     ethr =  9.46E-09,  avg # of iterations =  6.2

[...]

     Adding external electric field

     Computed dipole along edir(3) :
        Dipole                0.0635 Ry au,          0.1615 Debye
        Dipole field          0.0002 Ry au,

        Potential amp.       -0.0141 Ry
        Total length         45.8133 bohr

     End of self-consistent calculation

          k = 0.0000 0.0000 0.0000 ( 35929 PWs)   bands (ev):

    -8.0315  -7.4044  -7.3703  -7.3117  -7.2415  -7.1512  -7.0391  -6.9889
    -6.9537  -6.8681  -6.8580  -6.7848  -6.6456  -6.5713  -6.5242  -6.3366
    -6.3299  -6.3088  -6.2489  -6.2202  -6.1122  -6.1029  -6.0534  -6.0053
    -5.9851  -5.8571  -5.8453  -5.7671  -5.6934  -5.6299  -5.5605  -5.3200
    -4.1037  -3.6216  -3.0439  -2.9411  -2.6993  -2.5209  -2.4739  -2.4391
    -2.1548  -2.1183  -2.0253  -1.7445  -1.5766  -1.4521  -1.2937  -1.1877
    -1.1406  -1.1297  -1.0062  -0.8467  -0.7415  -0.7065  -0.6654  -0.5488
    -0.4731  -0.4684  -0.4271  -0.3716  -0.3664  -0.1802   0.2617   0.5833
     0.6262   0.8560   0.9833   1.2819   1.5742   1.6418   1.7363   1.9377
     2.1009   2.4560   3.1306   3.5238   3.8000   4.1810   4.3708

[...]

          k = 0.0708-0.0509 0.0000 ( 35986 PWs)   bands (ev):

[...]

          k =-0.0850 0.0421 0.0000 ( 35964 PWs)   bands (ev):

[...]

          k =-0.0850-0.0528 0.0000 ( 36008 PWs)   bands (ev):

    -7.4582  -7.1496  -7.1174  -7.0077  -6.9987  -6.9340  -6.8148  -6.7820
    -6.7016  -6.6839  -6.5784  -6.5060  -6.4691  -6.3881  -6.3395  -6.3049
    -6.2108  -6.1956  -6.1643  -6.1367  -6.0694  -6.0606  -5.9799  -5.8596
    -5.8154  -5.7955  -5.7258  -5.6922  -5.6542  -5.6295  -5.4185  -5.3148
    -4.2576  -3.8983  -3.6972  -3.2212  -3.1559  -3.0664  -2.8630  -2.7709
    -2.6735  -2.6696  -2.4303  -2.3570  -2.3257  -2.3207  -2.2061  -2.0501
    -1.8866  -1.5529  -1.5178  -1.4278  -1.3314  -1.3071  -1.1924  -1.0081
    -0.8388  -0.7300  -0.6636  -0.6617  -0.5903  -0.5316  -0.4078  -0.2145
     0.0739   0.2954   0.3694   1.0518   1.3560   1.7518   1.7892   3.0828
     3.1633   3.7148   5.1547   5.3244   5.6390   5.6951   5.8472

     the Fermi energy is     0.4387 ev

!    total energy              =   -1003.51769354 Ry
     estimated scf accuracy    <       0.00000355 Ry
     smearing contrib. (-TS)   =      -0.02566887 Ry
     internal energy E=F+TS    =   -1003.49202468 Ry

     The total energy is F=E-TS. E is the sum of the following terms:
     one-electron contribution =   -7751.87564644 Ry
     hartree contribution      =    3957.95406297 Ry
     xc contribution           =    -349.18458986 Ry
     ewald contribution        =    3139.61413890 Ry
     electric field correction =       0.00000974 Ry

     convergence has been achieved in  14 iterations

     negative rho (up, down):  1.309E-03 0.000E+00

     Forces acting on atoms (cartesian axes, Ry/au):

     atom    1 type  1   force =     0.00478527    0.00296172    0.02153765
     atom    2 type  1   force =     0.00478796    0.00298901    0.02153041
     atom    3 type  2   force =    -0.00236162   -0.00148123   -0.02510385
     atom    4 type  2   force =    -0.00237135   -0.00144748   -0.02510353
     atom    5 type  1   force =    -0.01169885   -0.00726332    0.00438176
     atom    6 type  1   force =    -0.01168231   -0.00725032    0.00439378
     atom    7 type  2   force =     0.00867702    0.00537476   -0.00275637
     atom    8 type  2   force =     0.00868862    0.00539161   -0.00274040
     atom    9 type  1   force =     0.00100468    0.00061290    0.00161630
     atom   10 type  1   force =     0.00100796    0.00062026    0.00161543
     atom   11 type  2   force =    -0.00041676   -0.00026661    0.00030846
     atom   12 type  2   force =    -0.00042061   -0.00024128    0.00032037

     Total force =     0.054005     Total SCF correction =     0.004582

     Writing output data file ./Pt2Hg2/Pt2Hg2_beef.save/

     General routines

     Parallel routines

   This run was terminated on:  14:35:32  24Jun2022

   JOB DONE.