     Program PWSCF v.6.6 starts on 24Jun2022 at 15:28: 5

     R & G space division:  proc/nbgrp/npool/nimage =      37
     Fft bands division:     nmany     =       1
     Reading input from Re2Hg2.in
Warning: card &CELL ignored
Warning: card / ignored

     Current dimensions of program PWSCF are:
     Max number of different atomic species (ntypx) = 10
     Max number of k-points (npk) =  40000
     Max angular momentum in pseudopotentials (lmaxx) =  3
     Presently stress not available with electric field and gates

     Message from routine cell_base_init:
     DEPRECATED: use true lattice parameter, not A to a.u. conversion factor
     file Hg.pbe-n-rrkjus_psl.1.0.0.UPF: wavefunction(s)  6S renormalized

     IMPORTANT: XC functional enforced from input :
     Exchange-correlation= BEEF-VDW
                           (   1   4  43  14   2   0   0)
     Any further DFT definition will be discarded
     Please, verify this is what you really want

     Subspace diagonalization in iterative solution of the eigenvalue problem:
     a serial algorithm will be used

     bravais-lattice index     =            0
     lattice parameter (alat)  =       1.8897  a.u.
     unit-cell volume          =    5038.7351 (a.u.)^3
     number of atoms/cell      =           12
     number of atomic types    =            2
     number of electrons       =       162.00
     number of Kohn-Sham states=           97
     kinetic-energy cutoff     =      55.1240  Ry
     charge density cutoff     =     551.2396  Ry
     convergence threshold     =      1.0E-05
     mixing beta               =       0.1000
     number of iterations used =           10  plain     mixing
     Exchange-correlation= BEEF-VDW
                           (   1   4  43  14   2   0   0)

     celldm(1)=   1.889726  celldm(2)=   0.000000  celldm(3)=   0.000000
     celldm(4)=   0.000000  celldm(5)=   0.000000  celldm(6)=   0.000000

     crystal axes: (cart. coord. in units of alat)
               a(1) = (   5.584258   0.000000   0.000000 )
               a(2) = (  -2.792129   5.396137   0.000000 )
               a(3) = (   0.000000   0.000000  24.778589 )

     reciprocal axes: (cart. coord. in units 2 pi/alat)
               b(1) = (  0.179075  0.092659 -0.000000 )
               b(2) = (  0.000000  0.185318  0.000000 )
               b(3) = (  0.000000 -0.000000  0.040357 )

     PseudoPot. # 1 for Re read from file:
     ../pseudo/Re.pbe-spn-rrkjus_psl.1.0.0.UPF
     MD5 check sum: 1282f1ec51ad523723a04c61ae80a9e6
     Pseudo is Ultrasoft + core correction, Zval = 15.0
     Generated using "atomic" code by A. Dal Corso v.6.2.2
     Using radial grid of 1275 points,  6 beta functions with:
                l(1) =   0
                l(2) =   0
                l(3) =   1
                l(4) =   1
                l(5) =   2
                l(6) =   2
     Q(r) pseudized with 0 coefficients

     PseudoPot. # 2 for Hg read from file:
     ../pseudo/Hg.pbe-n-rrkjus_psl.1.0.0.UPF
     MD5 check sum: 7519ac2e5b9cac440d3cfd4127d6ea3c
     Pseudo is Ultrasoft + core correction, Zval = 12.0
     Generated using "atomic" code by A. Dal Corso v.6.3
     Using radial grid of 1279 points,  6 beta functions with:
                l(1) =   0
                l(2) =   0
                l(3) =   1
                l(4) =   1
                l(5) =   2
                l(6) =   2
     Q(r) pseudized with 0 coefficients

     atomic species   valence    mass     pseudopotential
        Re            15.00   186.20700     Re( 1.00)
        Hg            12.00   200.59200     Hg( 1.00)

     No symmetry found

   Cartesian axes

     site n.     atom                  positions (alat units)
         1           Re  tau(   1) = (   0.0000000   0.0000000  10.0000000  )
         2           Re  tau(   2) = (   2.7921291   0.0000000  10.0000000  )
         3           Hg  tau(   3) = (   1.3960646   2.6980685  10.0000000  )
         4           Hg  tau(   4) = (  -1.3960646   2.6980685  10.0000000  )
         5           Re  tau(   5) = (   2.7921291   1.4447344  12.3892943  )
         6           Re  tau(   6) = (  -0.0000000   1.4447344  12.3892943  )
         7           Hg  tau(   7) = (  -1.3960646   4.1428029  12.3892943  )
         8           Hg  tau(   8) = (   1.3960646   4.1428029  12.3892943  )
         9           Re  tau(   9) = (   0.0000863   2.1966867  14.5915623  )
        10           Re  tau(  10) = (   2.7921322   2.1965711  14.5912045  )
        11           Hg  tau(  11) = (   1.3960321   5.0094472  15.3207204  )
        12           Hg  tau(  12) = (  -1.3959959   5.0093886  15.3206749  )

     number of k points=    74  Fermi-Dirac smearing, width (Ry)=  0.0100
                       cart. coord. in units 2pi/alat
        k(    1) = (   0.0000000   0.0000000   0.0000000), wk =   0.0138889
        k(    2) = (   0.0000000   0.0154431   0.0000000), wk =   0.0277778
        k(    3) = (   0.0000000   0.0308863   0.0000000), wk =   0.0277778
        k(    4) = (   0.0000000   0.0463294   0.0000000), wk =   0.0277778
        k(    5) = (   0.0000000   0.0617726   0.0000000), wk =   0.0277778
        k(    6) = (   0.0000000   0.0772157   0.0000000), wk =   0.0277778
        k(    7) = (   0.0000000  -0.0926589   0.0000000), wk =   0.0138889
        k(    8) = (   0.0149229   0.0077216   0.0000000), wk =   0.0277778
        k(    9) = (   0.0149229   0.0231647   0.0000000), wk =   0.0277778
        k(   10) = (   0.0149229   0.0386079   0.0000000), wk =   0.0277778
        k(   11) = (   0.0149229   0.0540510   0.0000000), wk =   0.0277778
        k(   12) = (   0.0149229   0.0694942   0.0000000), wk =   0.0277778
        k(   13) = (   0.0149229   0.0849373   0.0000000), wk =   0.0277778
        k(   14) = (   0.0149229  -0.0849373   0.0000000), wk =   0.0277778
        k(   15) = (   0.0149229  -0.0694942   0.0000000), wk =   0.0277778
        k(   16) = (   0.0149229  -0.0540510   0.0000000), wk =   0.0277778
        k(   17) = (   0.0149229  -0.0386079   0.0000000), wk =   0.0277778
        k(   18) = (   0.0149229  -0.0231647   0.0000000), wk =   0.0277778
        k(   19) = (   0.0149229  -0.0077216   0.0000000), wk =   0.0277778
        k(   20) = (   0.0298458   0.0154431   0.0000000), wk =   0.0277778
        k(   21) = (   0.0298458   0.0308863   0.0000000), wk =   0.0277778
        k(   22) = (   0.0298458   0.0463294   0.0000000), wk =   0.0277778
        k(   23) = (   0.0298458   0.0617726   0.0000000), wk =   0.0277778
        k(   24) = (   0.0298458   0.0772157   0.0000000), wk =   0.0277778
        k(   25) = (   0.0298458   0.0926589   0.0000000), wk =   0.0277778
        k(   26) = (   0.0298458  -0.0772157   0.0000000), wk =   0.0277778
        k(   27) = (   0.0298458  -0.0617726   0.0000000), wk =   0.0277778
        k(   28) = (   0.0298458  -0.0463294   0.0000000), wk =   0.0277778
        k(   29) = (   0.0298458  -0.0308863   0.0000000), wk =   0.0277778
        k(   30) = (   0.0298458  -0.0154431   0.0000000), wk =   0.0277778
        k(   31) = (   0.0298458  -0.0000000   0.0000000), wk =   0.0277778
        k(   32) = (   0.0447687   0.0231647   0.0000000), wk =   0.0277778
        k(   33) = (   0.0447687   0.0386079   0.0000000), wk =   0.0277778
        k(   34) = (   0.0447687   0.0540510   0.0000000), wk =   0.0277778
        k(   35) = (   0.0447687   0.0694942   0.0000000), wk =   0.0277778
        k(   36) = (   0.0447687   0.0849373   0.0000000), wk =   0.0277778
        k(   37) = (   0.0447687   0.1003805   0.0000000), wk =   0.0277778
        k(   38) = (   0.0447687  -0.0694942   0.0000000), wk =   0.0277778
        k(   39) = (   0.0447687  -0.0540510   0.0000000), wk =   0.0277778
        k(   40) = (   0.0447687  -0.0386079   0.0000000), wk =   0.0277778
        k(   41) = (   0.0447687  -0.0231647   0.0000000), wk =   0.0277778
        k(   42) = (   0.0447687  -0.0077216   0.0000000), wk =   0.0277778
        k(   43) = (   0.0447687   0.0077216   0.0000000), wk =   0.0277778
        k(   44) = (   0.0596916   0.0308863   0.0000000), wk =   0.0277778
        k(   45) = (   0.0596916   0.0463294   0.0000000), wk =   0.0277778
        k(   46) = (   0.0596916   0.0617726   0.0000000), wk =   0.0277778
        k(   47) = (   0.0596916   0.0772157   0.0000000), wk =   0.0277778
        k(   48) = (   0.0596916   0.0926589   0.0000000), wk =   0.0277778
        k(   49) = (   0.0596916   0.1081020   0.0000000), wk =   0.0277778
        k(   50) = (   0.0596916  -0.0617726   0.0000000), wk =   0.0277778
        k(   51) = (   0.0596916  -0.0463294   0.0000000), wk =   0.0277778
        k(   52) = (   0.0596916  -0.0308863   0.0000000), wk =   0.0277778
        k(   53) = (   0.0596916  -0.0154431   0.0000000), wk =   0.0277778
        k(   54) = (   0.0596916   0.0000000   0.0000000), wk =   0.0277778
        k(   55) = (   0.0596916   0.0154431   0.0000000), wk =   0.0277778
        k(   56) = (   0.0746145   0.0386079   0.0000000), wk =   0.0277778
        k(   57) = (   0.0746145   0.0540510   0.0000000), wk =   0.0277778
        k(   58) = (   0.0746145   0.0694942   0.0000000), wk =   0.0277778
        k(   59) = (   0.0746145   0.0849373   0.0000000), wk =   0.0277778
        k(   60) = (   0.0746145   0.1003805   0.0000000), wk =   0.0277778
        k(   61) = (   0.0746145   0.1158236   0.0000000), wk =   0.0277778
        k(   62) = (   0.0746145  -0.0540510   0.0000000), wk =   0.0277778
        k(   63) = (   0.0746145  -0.0386079   0.0000000), wk =   0.0277778
        k(   64) = (   0.0746145  -0.0231647   0.0000000), wk =   0.0277778
        k(   65) = (   0.0746145  -0.0077216   0.0000000), wk =   0.0277778
        k(   66) = (   0.0746145   0.0077216   0.0000000), wk =   0.0277778
        k(   67) = (   0.0746145   0.0231647   0.0000000), wk =   0.0277778
        k(   68) = (  -0.0895374  -0.0463294   0.0000000), wk =   0.0138889
        k(   69) = (  -0.0895374  -0.0308863   0.0000000), wk =   0.0277778
        k(   70) = (  -0.0895374  -0.0154431   0.0000000), wk =   0.0277778
        k(   71) = (  -0.0895374   0.0000000   0.0000000), wk =   0.0277778
        k(   72) = (  -0.0895374   0.0154431   0.0000000), wk =   0.0277778
        k(   73) = (  -0.0895374   0.0308863   0.0000000), wk =   0.0277778
        k(   74) = (  -0.0895374  -0.1389883   0.0000000), wk =   0.0138889

     Initial potential from superposition of free atoms

     starting charge  161.99771, renormalised to  162.00000

     negative rho (up, down):  1.182E-03 0.000E+00

     %%%%%%%%%%%%%%%%%%%%%%%%%%%%%%%%%%%%%%%%%%%%%%%%%%%%%%%%%%%%%%%%%%%%%%%%
     %                                                                      %
     % You are using vdW-DF, which was implemented by the Thonhauser group. %
     % Please cite the following two papers that made this development      %
     % possible and the two reviews that describe the various versions:     %
     %                                                                      %
     %   T. Thonhauser et al., PRL 115, 136402 (2015).                      %
     %   T. Thonhauser et al., PRB 76, 125112 (2007).                       %
     %   K. Berland et al., Rep. Prog. Phys. 78, 066501 (2015).             %
     %   D.C. Langreth et al., J. Phys.: Condens. Matter 21, 084203 (2009). %
     %                                                                      %
     %                                                                      %
     % If you are calculating the stress with vdW-DF, please also cite:     %
     %                                                                      %
     %   R. Sabatini et al., J. Phys.: Condens. Matter 24, 424209 (2012).   %
     %                                                                      %
     %%%%%%%%%%%%%%%%%%%%%%%%%%%%%%%%%%%%%%%%%%%%%%%%%%%%%%%%%%%%%%%%%%%%%%%%

     Adding external electric field

     Computed dipole along edir(3) :
        Dipole               -0.0002 Ry au,         -0.0006 Debye
        Dipole field         -0.0000 Ry au,

        Potential amp.        0.0001 Ry
        Total length         45.6541 bohr

     Starting wfcs are  114 randomized atomic wfcs

     Self-consistent Calculation

     iteration #  1     ecut=    55.12 Ry     beta= 0.10
     Davidson diagonalization with overlap
     ethr =  1.00E-02,  avg # of iterations =  2.8

[...]

     total energy              =   -1681.50758307 Ry
     estimated scf accuracy    <       2.39060793 Ry

[...]

     iteration #  8     ecut=    55.12 Ry     beta= 0.10
     Davidson diagonalization with overlap
     c_bands:  1 eigenvalues not converged
     c_bands:  1 eigenvalues not converged
     c_bands:  1 eigenvalues not converged
     c_bands:  1 eigenvalues not converged
     ethr =  8.49E-06,  avg # of iterations =  7.9

[...]

     iteration # 10     ecut=    55.12 Ry     beta= 0.10
     Davidson diagonalization with overlap
     c_bands:  1 eigenvalues not converged
     ethr =  1.56E-06,  avg # of iterations =  4.9

[...]

     total energy              =   -1681.65497034 Ry
     estimated scf accuracy    <       0.00002439 Ry

     iteration # 15     ecut=    55.12 Ry     beta= 0.10
     Davidson diagonalization with overlap
     ethr =  1.51E-08,  avg # of iterations =  4.9

[...]

     Adding external electric field

     Computed dipole along edir(3) :
        Dipole                0.1446 Ry au,          0.3676 Debye
        Dipole field          0.0004 Ry au,

        Potential amp.       -0.0329 Ry
        Total length         45.6541 bohr

     End of self-consistent calculation

          k = 0.0000 0.0000 0.0000 ( 34907 PWs)   bands (ev):

   -78.8248 -78.7944 -78.5531 -78.5232 -78.5009 -78.4705 -41.1548 -41.0931
   -40.7289 -40.6132 -40.5577 -40.5136 -40.4520 -40.3556 -40.3033 -40.2619
   -40.2077 -40.1971 -40.1178 -40.0640 -39.9927 -39.9399 -39.7603 -39.7159
    -7.8391  -7.2326  -7.0708  -7.0457  -6.9201  -6.8689  -6.6839  -6.5421
    -6.4493  -6.3773  -6.2288  -6.0976  -5.9810  -5.8271  -5.8135  -5.6633
    -5.5227  -5.4731  -5.4354  -5.2895  -5.2031  -5.1699  -5.1451  -5.1380
    -4.9041  -4.8787  -4.8000  -4.6242  -4.6024  -4.5337  -4.4362  -3.9917
    -2.9035  -2.3359  -2.3182  -1.8635  -1.7576  -1.7350  -1.5227  -1.4483
    -0.9988  -0.8297  -0.6890  -0.3839  -0.1831  -0.0791   0.3694   0.5281
     1.0297   1.0648   1.2113   1.3429   1.3737   1.5730   1.7135   1.7857
     2.0294   2.2445   2.4050   2.4352   2.5189   2.5683   2.7131   3.1310
     3.2220   3.2363   3.3920   3.6136   3.8944   4.0863   4.2847   4.6068
     4.6514

[...]

          k = 0.0746 0.0232 0.0000 ( 34830 PWs)   bands (ev):

[...]

          k =-0.0895-0.0463 0.0000 ( 34790 PWs)   bands (ev):

[...]

          k =-0.0895-0.1390 0.0000 ( 34790 PWs)   bands (ev):

   -78.8097 -78.8096 -78.5381 -78.5381 -78.4858 -78.4856 -41.1247 -41.1237
   -40.5859 -40.5858 -40.4674 -40.4674 -40.3296 -40.3296 -40.2575 -40.2574
   -40.2352 -40.2350 -40.2003 -40.2001 -40.0910 -40.0908 -39.7384 -39.7377
    -6.6564  -6.6564  -6.4064  -6.4063  -6.3068  -6.3067  -6.1852  -6.1852
    -6.0524  -6.0524  -5.8003  -5.8003  -5.7055  -5.7055  -5.6148  -5.6148
    -5.4592  -5.4588  -5.3994  -5.3992  -5.3717  -5.3716  -5.3262  -5.3261
    -5.2208  -5.2207  -5.1165  -5.1164  -5.0724  -5.0723  -4.9365  -4.9365
    -3.7378  -3.7376  -2.4623  -2.4621  -2.0247  -2.0246  -1.4048  -1.4043
    -0.8939  -0.8936  -0.4026  -0.4023  -0.1193  -0.1187   0.2365   0.2367
     0.4462   0.4463   0.7970   0.7970   0.9900   0.9904   1.1921   1.1922
     1.3502   1.3503   1.6186   1.6188   2.2798   2.2800   2.6825   2.6826
     3.0693   3.0696   3.3923   3.3931   3.6047   3.6052   4.7279   4.7284
     4.9744

     the Fermi energy is     1.7013 ev

!    total energy              =   -1681.65497165 Ry
     estimated scf accuracy    <       0.00000888 Ry
     smearing contrib. (-TS)   =      -0.05267201 Ry
     internal energy E=F+TS    =   -1681.60229963 Ry

     The total energy is F=E-TS. E is the sum of the following terms:
     one-electron contribution =  -12346.51886207 Ry
     hartree contribution      =    6206.79755495 Ry
     xc contribution           =    -446.04865661 Ry
     ewald contribution        =    4904.16761193 Ry
     electric field correction =       0.00005217 Ry

     convergence has been achieved in  15 iterations

     negative rho (up, down):  1.027E-03 0.000E+00

     Forces acting on atoms (cartesian axes, Ry/au):

     atom    1 type  1   force =    -0.00000105    0.01694467    0.04561509
     atom    2 type  1   force =    -0.00000524    0.01693801    0.04558301
     atom    3 type  2   force =     0.00000741   -0.01239268   -0.06253712
     atom    4 type  2   force =     0.00000775   -0.01240644   -0.06254966
     atom    5 type  1   force =    -0.00000461   -0.01744499   -0.00795996
     atom    6 type  1   force =    -0.00001319   -0.01739481   -0.00777707
     atom    7 type  2   force =     0.00001600    0.01589874    0.02972215
     atom    8 type  2   force =    -0.00001221    0.01590530    0.02972858
     atom    9 type  1   force =     0.00000577   -0.00351631   -0.00786544
     atom   10 type  1   force =    -0.00000102   -0.00342780   -0.00763044
     atom   11 type  2   force =     0.00003783    0.00045931    0.00283526
     atom   12 type  2   force =    -0.00003743    0.00043700    0.00283560

     Total force =     0.126601     Total SCF correction =     0.018973
     SCF correction compared to forces is large: reduce conv_thr to get better values

     Writing output data file ./Re2Hg2/Re2Hg2_beef.save/

     General routines

     Parallel routines

   This run was terminated on:  16:31:10  24Jun2022

   JOB DONE.