     Program PWSCF v.6.6 starts on 24Jun2022 at 15:57:54

     R & G space division:  proc/nbgrp/npool/nimage =      37
     Fft bands division:     nmany     =       1
     Reading input from Re2Ir2.in
Warning: card &CELL ignored
Warning: card / ignored

     Current dimensions of program PWSCF are:
     Max number of different atomic species (ntypx) = 10
     Max number of k-points (npk) =  40000
     Max angular momentum in pseudopotentials (lmaxx) =  3
     Presently stress not available with electric field and gates

     Message from routine cell_base_init:
     DEPRECATED: use true lattice parameter, not A to a.u. conversion factor
     file Ir.pbe-n-rrkjus_psl.0.2.3.UPF: wavefunction(s)  5D renormalized

     IMPORTANT: XC functional enforced from input :
     Exchange-correlation= BEEF-VDW
                           (   1   4  43  14   2   0   0)
     Any further DFT definition will be discarded
     Please, verify this is what you really want

     Subspace diagonalization in iterative solution of the eigenvalue problem:
     a serial algorithm will be used

     Found symmetry operation: I + ( -0.5000  0.0000  0.0000)
     This is a supercell, fractional translations are disabled

     bravais-lattice index     =            0
     lattice parameter (alat)  =       1.8897  a.u.
     unit-cell volume          =    4321.8292 (a.u.)^3
     number of atoms/cell      =           12
     number of atomic types    =            2
     number of electrons       =       144.00
     number of Kohn-Sham states=           86
     kinetic-energy cutoff     =      55.1240  Ry
     charge density cutoff     =     551.2396  Ry
     convergence threshold     =      1.0E-05
     mixing beta               =       0.1000
     number of iterations used =           10  plain     mixing
     Exchange-correlation= BEEF-VDW
                           (   1   4  43  14   2   0   0)

     celldm(1)=   1.889726  celldm(2)=   0.000000  celldm(3)=   0.000000
     celldm(4)=   0.000000  celldm(5)=   0.000000  celldm(6)=   0.000000

     crystal axes: (cart. coord. in units of alat)
               a(1) = (   5.456280   0.000000   0.000000 )
               a(2) = (  -2.728140   4.793467   0.000000 )
               a(3) = (   0.000000   0.000000  24.486386 )

     reciprocal axes: (cart. coord. in units 2 pi/alat)
               b(1) = (  0.183275  0.104309 -0.000000 )
               b(2) = (  0.000000  0.208617  0.000000 )
               b(3) = (  0.000000 -0.000000  0.040839 )

     PseudoPot. # 1 for Re read from file:
     ../pseudo/Re.pbe-spn-rrkjus_psl.1.0.0.UPF
     MD5 check sum: 1282f1ec51ad523723a04c61ae80a9e6
     Pseudo is Ultrasoft + core correction, Zval = 15.0
     Generated using "atomic" code by A. Dal Corso v.6.2.2
     Using radial grid of 1275 points,  6 beta functions with:
                l(1) =   0
                l(2) =   0
                l(3) =   1
                l(4) =   1
                l(5) =   2
                l(6) =   2
     Q(r) pseudized with 0 coefficients

     PseudoPot. # 2 for Ir read from file:
     ../pseudo/Ir.pbe-n-rrkjus_psl.0.2.3.UPF
     MD5 check sum: a93e608e8ddc29ee62145620b5f41564
     Pseudo is Ultrasoft + core correction, Zval =  9.0
     Generated using "atomic" code by A. Dal Corso v.5.0.2 svn rev. 9415
     Using radial grid of 1277 points,  6 beta functions with:
                l(1) =   0
                l(2) =   0
                l(3) =   1
                l(4) =   1
                l(5) =   2
                l(6) =   2
     Q(r) pseudized with 0 coefficients

     atomic species   valence    mass     pseudopotential
        Re            15.00   186.20700     Re( 1.00)
        Ir             9.00   192.21700     Ir( 1.00)

     No symmetry found

   Cartesian axes

     site n.     atom                  positions (alat units)
         1           Re  tau(   1) = (   0.0000000   0.0000000  10.0000000  )
         2           Re  tau(   2) = (   2.7281401   0.0000000  10.0000000  )
         3           Ir  tau(   3) = (   1.3640700   2.3967337  10.0000000  )
         4           Ir  tau(   4) = (  -1.3640700   2.3967337  10.0000000  )
         5           Re  tau(   5) = (   2.7281401   1.5526857  12.2431931  )
         6           Re  tau(   6) = (  -0.0000000   1.5526857  12.2431931  )
         7           Ir  tau(   7) = (  -1.3640700   3.9494194  12.2431931  )
         8           Ir  tau(   8) = (   1.3640700   3.9494194  12.2431931  )
         9           Re  tau(   9) = (  -0.0000063   3.1026888  14.3986169  )
        10           Re  tau(  10) = (   2.7281409   3.1026863  14.3986168  )
        11           Ir  tau(  11) = (   4.0922106   0.7960728  14.3968012  )
        12           Ir  tau(  12) = (   1.3640714   0.7960697  14.3968025  )

     number of k points=    74  Fermi-Dirac smearing, width (Ry)=  0.0100
                       cart. coord. in units 2pi/alat
        k(    1) = (   0.0000000   0.0000000   0.0000000), wk =   0.0138889
        k(    2) = (   0.0000000   0.0173848   0.0000000), wk =   0.0277778
        k(    3) = (   0.0000000   0.0347695   0.0000000), wk =   0.0277778
        k(    4) = (   0.0000000   0.0521543   0.0000000), wk =   0.0277778
        k(    5) = (   0.0000000   0.0695391   0.0000000), wk =   0.0277778
        k(    6) = (   0.0000000   0.0869239   0.0000000), wk =   0.0277778
        k(    7) = (   0.0000000  -0.1043086   0.0000000), wk =   0.0138889
        k(    8) = (   0.0152729   0.0086924   0.0000000), wk =   0.0277778
        k(    9) = (   0.0152729   0.0260772   0.0000000), wk =   0.0277778
        k(   10) = (   0.0152729   0.0434619   0.0000000), wk =   0.0277778
        k(   11) = (   0.0152729   0.0608467   0.0000000), wk =   0.0277778
        k(   12) = (   0.0152729   0.0782315   0.0000000), wk =   0.0277778
        k(   13) = (   0.0152729   0.0956162   0.0000000), wk =   0.0277778
        k(   14) = (   0.0152729  -0.0956162   0.0000000), wk =   0.0277778
        k(   15) = (   0.0152729  -0.0782315   0.0000000), wk =   0.0277778
        k(   16) = (   0.0152729  -0.0608467   0.0000000), wk =   0.0277778
        k(   17) = (   0.0152729  -0.0434619   0.0000000), wk =   0.0277778
        k(   18) = (   0.0152729  -0.0260772   0.0000000), wk =   0.0277778
        k(   19) = (   0.0152729  -0.0086924   0.0000000), wk =   0.0277778
        k(   20) = (   0.0305458   0.0173848   0.0000000), wk =   0.0277778
        k(   21) = (   0.0305458   0.0347695   0.0000000), wk =   0.0277778
        k(   22) = (   0.0305458   0.0521543   0.0000000), wk =   0.0277778
        k(   23) = (   0.0305458   0.0695391   0.0000000), wk =   0.0277778
        k(   24) = (   0.0305458   0.0869239   0.0000000), wk =   0.0277778
        k(   25) = (   0.0305458   0.1043086   0.0000000), wk =   0.0277778
        k(   26) = (   0.0305458  -0.0869239   0.0000000), wk =   0.0277778
        k(   27) = (   0.0305458  -0.0695391   0.0000000), wk =   0.0277778
        k(   28) = (   0.0305458  -0.0521543   0.0000000), wk =   0.0277778
        k(   29) = (   0.0305458  -0.0347695   0.0000000), wk =   0.0277778
        k(   30) = (   0.0305458  -0.0173848   0.0000000), wk =   0.0277778
        k(   31) = (   0.0305458  -0.0000000   0.0000000), wk =   0.0277778
        k(   32) = (   0.0458188   0.0260772   0.0000000), wk =   0.0277778
        k(   33) = (   0.0458188   0.0434619   0.0000000), wk =   0.0277778
        k(   34) = (   0.0458188   0.0608467   0.0000000), wk =   0.0277778
        k(   35) = (   0.0458188   0.0782315   0.0000000), wk =   0.0277778
        k(   36) = (   0.0458188   0.0956162   0.0000000), wk =   0.0277778
        k(   37) = (   0.0458188   0.1130010   0.0000000), wk =   0.0277778
        k(   38) = (   0.0458188  -0.0782315   0.0000000), wk =   0.0277778
        k(   39) = (   0.0458188  -0.0608467   0.0000000), wk =   0.0277778
        k(   40) = (   0.0458188  -0.0434619   0.0000000), wk =   0.0277778
        k(   41) = (   0.0458188  -0.0260772   0.0000000), wk =   0.0277778
        k(   42) = (   0.0458188  -0.0086924   0.0000000), wk =   0.0277778
        k(   43) = (   0.0458188   0.0086924   0.0000000), wk =   0.0277778
        k(   44) = (   0.0610917   0.0347695   0.0000000), wk =   0.0277778
        k(   45) = (   0.0610917   0.0521543   0.0000000), wk =   0.0277778
        k(   46) = (   0.0610917   0.0695391   0.0000000), wk =   0.0277778
        k(   47) = (   0.0610917   0.0869239   0.0000000), wk =   0.0277778
        k(   48) = (   0.0610917   0.1043086   0.0000000), wk =   0.0277778
        k(   49) = (   0.0610917   0.1216934   0.0000000), wk =   0.0277778
        k(   50) = (   0.0610917  -0.0695391   0.0000000), wk =   0.0277778
        k(   51) = (   0.0610917  -0.0521543   0.0000000), wk =   0.0277778
        k(   52) = (   0.0610917  -0.0347695   0.0000000), wk =   0.0277778
        k(   53) = (   0.0610917  -0.0173848   0.0000000), wk =   0.0277778
        k(   54) = (   0.0610917   0.0000000   0.0000000), wk =   0.0277778
        k(   55) = (   0.0610917   0.0173848   0.0000000), wk =   0.0277778
        k(   56) = (   0.0763646   0.0434619   0.0000000), wk =   0.0277778
        k(   57) = (   0.0763646   0.0608467   0.0000000), wk =   0.0277778
        k(   58) = (   0.0763646   0.0782315   0.0000000), wk =   0.0277778
        k(   59) = (   0.0763646   0.0956162   0.0000000), wk =   0.0277778
        k(   60) = (   0.0763646   0.1130010   0.0000000), wk =   0.0277778
        k(   61) = (   0.0763646   0.1303858   0.0000000), wk =   0.0277778
        k(   62) = (   0.0763646  -0.0608467   0.0000000), wk =   0.0277778
        k(   63) = (   0.0763646  -0.0434619   0.0000000), wk =   0.0277778
        k(   64) = (   0.0763646  -0.0260772   0.0000000), wk =   0.0277778
        k(   65) = (   0.0763646  -0.0086924   0.0000000), wk =   0.0277778
        k(   66) = (   0.0763646   0.0086924   0.0000000), wk =   0.0277778
        k(   67) = (   0.0763646   0.0260772   0.0000000), wk =   0.0277778
        k(   68) = (  -0.0916375  -0.0521543   0.0000000), wk =   0.0138889
        k(   69) = (  -0.0916375  -0.0347695   0.0000000), wk =   0.0277778
        k(   70) = (  -0.0916375  -0.0173848   0.0000000), wk =   0.0277778
        k(   71) = (  -0.0916375   0.0000000   0.0000000), wk =   0.0277778
        k(   72) = (  -0.0916375   0.0173848   0.0000000), wk =   0.0277778
        k(   73) = (  -0.0916375   0.0347695   0.0000000), wk =   0.0277778
        k(   74) = (  -0.0916375  -0.1564630   0.0000000), wk =   0.0138889

     Initial potential from superposition of free atoms

     starting charge  143.99731, renormalised to  144.00000

     negative rho (up, down):  4.162E-04 0.000E+00

     %%%%%%%%%%%%%%%%%%%%%%%%%%%%%%%%%%%%%%%%%%%%%%%%%%%%%%%%%%%%%%%%%%%%%%%%
     %                                                                      %
     % You are using vdW-DF, which was implemented by the Thonhauser group. %
     % Please cite the following two papers that made this development      %
     % possible and the two reviews that describe the various versions:     %
     %                                                                      %
     %   T. Thonhauser et al., PRL 115, 136402 (2015).                      %
     %   T. Thonhauser et al., PRB 76, 125112 (2007).                       %
     %   K. Berland et al., Rep. Prog. Phys. 78, 066501 (2015).             %
     %   D.C. Langreth et al., J. Phys.: Condens. Matter 21, 084203 (2009). %
     %                                                                      %
     %                                                                      %
     % If you are calculating the stress with vdW-DF, please also cite:     %
     %                                                                      %
     %   R. Sabatini et al., J. Phys.: Condens. Matter 24, 424209 (2012).   %
     %                                                                      %
     %%%%%%%%%%%%%%%%%%%%%%%%%%%%%%%%%%%%%%%%%%%%%%%%%%%%%%%%%%%%%%%%%%%%%%%%

     Adding external electric field

     Computed dipole along edir(3) :
        Dipole                0.0000 Ry au,          0.0000 Debye
        Dipole field          0.0000 Ry au,

        Potential amp.       -0.0000 Ry
        Total length         45.1157 bohr

     Starting wfcs are  114 randomized atomic wfcs

     Self-consistent Calculation

     iteration #  1     ecut=    55.12 Ry     beta= 0.10
     Davidson diagonalization with overlap
     ethr =  1.00E-02,  avg # of iterations =  2.0

     Threshold (ethr) on eigenvalues was too large:
     Diagonalizing with lowered threshold

     Davidson diagonalization with overlap
     ethr =  7.26E-04,  avg # of iterations =  2.6

[...]

     total energy              =   -1454.21491639 Ry
     estimated scf accuracy    <       1.13954701 Ry

[...]

     iteration #  8     ecut=    55.12 Ry     beta= 0.10
     Davidson diagonalization with overlap
     c_bands:  1 eigenvalues not converged
     c_bands:  1 eigenvalues not converged
     ethr =  3.55E-06,  avg # of iterations = 12.7

[...]

     iteration # 13     ecut=    55.12 Ry     beta= 0.10
     Davidson diagonalization with overlap
     c_bands:  1 eigenvalues not converged
     ethr =  6.88E-08,  avg # of iterations =  2.5

[...]

     total energy              =   -1454.24382814 Ry
     estimated scf accuracy    <       0.00001338 Ry

     iteration # 15     ecut=    55.12 Ry     beta= 0.10
     Davidson diagonalization with overlap
     ethr =  7.67E-09,  avg # of iterations =  4.5

[...]

     Adding external electric field

     Computed dipole along edir(3) :
        Dipole                0.0182 Ry au,          0.0463 Debye
        Dipole field          0.0001 Ry au,

        Potential amp.       -0.0048 Ry
        Total length         45.1157 bohr

     End of self-consistent calculation

          k = 0.0000 0.0000 0.0000 ( 29889 PWs)   bands (ev):

   -79.1434 -79.1020 -78.7660 -78.7483 -78.7251 -78.7075 -41.1655 -41.0024
   -40.9268 -40.8918 -40.8224 -40.7190 -40.6879 -40.5310 -40.5056 -40.4998
   -40.4614 -40.4531 -40.4373 -40.3851 -40.3260 -40.2638 -40.0624 -40.0346
    -7.7283  -5.6520  -5.2856  -5.0323  -5.0202  -5.0019  -4.6927  -4.6746
    -4.6381  -4.1148  -4.0940  -4.0883  -3.7404  -3.7066  -3.6369  -2.3498
    -2.2451  -2.1127  -1.7349  -1.5005  -1.4397  -1.2089  -1.1373  -1.0918
    -0.9303  -0.9183  -0.7672  -0.5381  -0.5116  -0.5036  -0.2582  -0.2307
    -0.1377  -0.0206   0.2618   0.8676   1.0797   1.1021   1.2736   1.4364
     1.4420   1.6912   1.7106   1.9790   2.3250   2.4988   2.5303   2.9130
     3.1371   3.1615   3.2339   3.3090   3.3459   3.4131   3.5298   3.7171
     3.8382   3.9508   4.1427   4.1536   4.1580   4.3226

[...]

          k = 0.0764 0.0261 0.0000 ( 29886 PWs)   bands (ev):

[...]

          k =-0.0916-0.0522 0.0000 ( 29872 PWs)   bands (ev):

[...]

          k =-0.0916-0.1565 0.0000 ( 29872 PWs)   bands (ev):

   -79.1227 -79.1227 -78.7455 -78.7455 -78.7279 -78.7279 -40.9670 -40.9670
   -40.8594 -40.8594 -40.8405 -40.8405 -40.4957 -40.4957 -40.4739 -40.4739
   -40.4217 -40.4217 -40.3981 -40.3981 -40.3687 -40.3687 -40.2959 -40.2959
    -5.7721  -5.7721  -4.1910  -4.1910  -3.8598  -3.8598  -3.7799  -3.7799
    -3.6892  -3.6892  -3.1579  -3.1579  -2.7289  -2.7289  -2.6388  -2.6388
    -2.3587  -2.3587  -2.1205  -2.1205  -1.7139  -1.7138  -1.1796  -1.1796
    -1.0693  -1.0693  -0.9254  -0.9254  -0.7943  -0.7943  -0.6927  -0.6927
    -0.3144  -0.3144  -0.1797  -0.1797  -0.0671  -0.0671  -0.0018  -0.0018
     0.5696   0.5696   1.0093   1.0093   1.3915   1.3915   1.5524   1.5524
     1.8785   1.8785   2.0549   2.0549   2.1342   2.1342   2.5194   2.5194
     2.8126   2.8126   3.2168   3.2169   3.9464   3.9467

     the Fermi energy is     1.8738 ev

!    total energy              =   -1454.24382495 Ry
     estimated scf accuracy    <       0.00000920 Ry
     smearing contrib. (-TS)   =      -0.05193539 Ry
     internal energy E=F+TS    =   -1454.19188956 Ry

     The total energy is F=E-TS. E is the sum of the following terms:
     one-electron contribution =  -11798.85523832 Ry
     hartree contribution      =    5922.39451378 Ry
     xc contribution           =    -440.65258199 Ry
     ewald contribution        =    4862.92141600 Ry
     electric field correction =       0.00000096 Ry

     convergence has been achieved in  15 iterations

     negative rho (up, down):  3.398E-04 0.000E+00

     Forces acting on atoms (cartesian axes, Ry/au):

     atom    1 type  1   force =    -0.00000483    0.01553026    0.02341336
     atom    2 type  1   force =     0.00000534    0.01552703    0.02341687
     atom    3 type  2   force =     0.00000305   -0.02604311    0.02198122
     atom    4 type  2   force =     0.00000058   -0.02603909    0.02198433
     atom    5 type  1   force =    -0.00000334    0.00528035   -0.02828403
     atom    6 type  1   force =     0.00000079    0.00527984   -0.02828572
     atom    7 type  2   force =     0.00000105    0.00318033   -0.02022082
     atom    8 type  2   force =    -0.00000142    0.00318229   -0.02022131
     atom    9 type  1   force =    -0.00000300    0.00177582   -0.00123769
     atom   10 type  1   force =     0.00000331    0.00178443   -0.00124086
     atom   11 type  2   force =    -0.00000385    0.00026809    0.00434798
     atom   12 type  2   force =     0.00000233    0.00027377    0.00434666

     Total force =     0.080267     Total SCF correction =     0.019070
     SCF correction compared to forces is large: reduce conv_thr to get better values

     Writing output data file ./Re2Ir2/Re2Ir2_beef.save/

     General routines

     Parallel routines

   This run was terminated on:  16:51:27  24Jun2022

   JOB DONE.