     Program PWSCF v.6.6 starts on 24Jun2022 at 17:28:52

     R & G space division:  proc/nbgrp/npool/nimage =      37
     Fft bands division:     nmany     =       1
     Reading input from Re2Pt2.in
Warning: card &CELL ignored
Warning: card / ignored

     Current dimensions of program PWSCF are:
     Max number of different atomic species (ntypx) = 10
     Max number of k-points (npk) =  40000
     Max angular momentum in pseudopotentials (lmaxx) =  3
     Presently stress not available with electric field and gates

     Message from routine cell_base_init:
     DEPRECATED: use true lattice parameter, not A to a.u. conversion factor
     file Pt.pbe-n-rrkjus_psl.1.0.0.UPF: wavefunction(s)  6S renormalized

     IMPORTANT: XC functional enforced from input :
     Exchange-correlation= BEEF-VDW
                           (   1   4  43  14   2   0   0)
     Any further DFT definition will be discarded
     Please, verify this is what you really want

     Subspace diagonalization in iterative solution of the eigenvalue problem:
     a serial algorithm will be used

     Found symmetry operation: I + (  0.5000  0.0000  0.0000)
     This is a supercell, fractional translations are disabled

     bravais-lattice index     =            0
     lattice parameter (alat)  =       1.8897  a.u.
     unit-cell volume          =    4436.0322 (a.u.)^3
     number of atoms/cell      =           12
     number of atomic types    =            2
     number of electrons       =       150.00
     number of Kohn-Sham states=           90
     kinetic-energy cutoff     =      55.1240  Ry
     charge density cutoff     =     551.2396  Ry
     convergence threshold     =      1.0E-05
     mixing beta               =       0.1000
     number of iterations used =           10  plain     mixing
     Exchange-correlation= BEEF-VDW
                           (   1   4  43  14   2   0   0)

     celldm(1)=   1.889726  celldm(2)=   0.000000  celldm(3)=   0.000000
     celldm(4)=   0.000000  celldm(5)=   0.000000  celldm(6)=   0.000000

     crystal axes: (cart. coord. in units of alat)
               a(1) = (   5.434628   0.000000   0.000000 )
               a(2) = (  -2.717314   4.930029   0.000000 )
               a(3) = (   0.000000   0.000000  24.534594 )

     reciprocal axes: (cart. coord. in units 2 pi/alat)
               b(1) = (  0.184005  0.101419 -0.000000 )
               b(2) = (  0.000000  0.202839  0.000000 )
               b(3) = (  0.000000 -0.000000  0.040759 )

     PseudoPot. # 1 for Re read from file:
     ../pseudo/Re.pbe-spn-rrkjus_psl.1.0.0.UPF
     MD5 check sum: 1282f1ec51ad523723a04c61ae80a9e6
     Pseudo is Ultrasoft + core correction, Zval = 15.0
     Generated using "atomic" code by A. Dal Corso v.6.2.2
     Using radial grid of 1275 points,  6 beta functions with:
                l(1) =   0
                l(2) =   0
                l(3) =   1
                l(4) =   1
                l(5) =   2
                l(6) =   2
     Q(r) pseudized with 0 coefficients

     PseudoPot. # 2 for Pt read from file:
     ../pseudo/Pt.pbe-n-rrkjus_psl.1.0.0.UPF
     MD5 check sum: 6bc887cfe28d63a5fc1f72d35a7d3ef7
     Pseudo is Ultrasoft + core correction, Zval = 10.0
     Generated using "atomic" code by A. Dal Corso v.6.3
     Using radial grid of 1277 points,  6 beta functions with:
                l(1) =   0
                l(2) =   0
                l(3) =   1
                l(4) =   1
                l(5) =   2
                l(6) =   2
     Q(r) pseudized with 0 coefficients

     atomic species   valence    mass     pseudopotential
        Re            15.00   186.20700     Re( 1.00)
        Pt            10.00   195.08400     Pt( 1.00)

     No symmetry found

   Cartesian axes

     site n.     atom                  positions (alat units)
         1           Re  tau(   1) = (   0.0000000   0.0000000  10.0000000  )
         2           Re  tau(   2) = (   2.7173139   0.0000000  10.0000000  )
         3           Pt  tau(   3) = (   1.3586570   2.4650146  10.0000000  )
         4           Pt  tau(   4) = (  -1.3586570   2.4650146  10.0000000  )
         5           Re  tau(   5) = (   2.7173139   1.4977183  12.2672968  )
         6           Re  tau(   6) = (   0.0000000   1.4977183  12.2672968  )
         7           Pt  tau(   7) = (  -1.3586570   3.9627329  12.2672968  )
         8           Pt  tau(   8) = (   1.3586570   3.9627329  12.2672968  )
         9           Re  tau(   9) = (  -0.0000231   3.0258046  14.4354992  )
        10           Re  tau(  10) = (   2.7172716   3.0258099  14.4354996  )
        11           Pt  tau(  11) = (   4.0758976   0.6793075  14.4972416  )
        12           Pt  tau(  12) = (   1.3586099   0.6793037  14.4972415  )

     number of k points=    74  Fermi-Dirac smearing, width (Ry)=  0.0100
                       cart. coord. in units 2pi/alat
        k(    1) = (   0.0000000   0.0000000   0.0000000), wk =   0.0138889
        k(    2) = (   0.0000000   0.0169032   0.0000000), wk =   0.0277778
        k(    3) = (   0.0000000   0.0338064   0.0000000), wk =   0.0277778
        k(    4) = (   0.0000000   0.0507096   0.0000000), wk =   0.0277778
        k(    5) = (   0.0000000   0.0676129   0.0000000), wk =   0.0277778
        k(    6) = (   0.0000000   0.0845161   0.0000000), wk =   0.0277778
        k(    7) = (   0.0000000  -0.1014193   0.0000000), wk =   0.0138889
        k(    8) = (   0.0153338   0.0084516   0.0000000), wk =   0.0277778
        k(    9) = (   0.0153338   0.0253548   0.0000000), wk =   0.0277778
        k(   10) = (   0.0153338   0.0422580   0.0000000), wk =   0.0277778
        k(   11) = (   0.0153338   0.0591612   0.0000000), wk =   0.0277778
        k(   12) = (   0.0153338   0.0760645   0.0000000), wk =   0.0277778
        k(   13) = (   0.0153338   0.0929677   0.0000000), wk =   0.0277778
        k(   14) = (   0.0153338  -0.0929677   0.0000000), wk =   0.0277778
        k(   15) = (   0.0153338  -0.0760645   0.0000000), wk =   0.0277778
        k(   16) = (   0.0153338  -0.0591612   0.0000000), wk =   0.0277778
        k(   17) = (   0.0153338  -0.0422580   0.0000000), wk =   0.0277778
        k(   18) = (   0.0153338  -0.0253548   0.0000000), wk =   0.0277778
        k(   19) = (   0.0153338  -0.0084516   0.0000000), wk =   0.0277778
        k(   20) = (   0.0306675   0.0169032   0.0000000), wk =   0.0277778
        k(   21) = (   0.0306675   0.0338064   0.0000000), wk =   0.0277778
        k(   22) = (   0.0306675   0.0507096   0.0000000), wk =   0.0277778
        k(   23) = (   0.0306675   0.0676129   0.0000000), wk =   0.0277778
        k(   24) = (   0.0306675   0.0845161   0.0000000), wk =   0.0277778
        k(   25) = (   0.0306675   0.1014193   0.0000000), wk =   0.0277778
        k(   26) = (   0.0306675  -0.0845161   0.0000000), wk =   0.0277778
        k(   27) = (   0.0306675  -0.0676129   0.0000000), wk =   0.0277778
        k(   28) = (   0.0306675  -0.0507096   0.0000000), wk =   0.0277778
        k(   29) = (   0.0306675  -0.0338064   0.0000000), wk =   0.0277778
        k(   30) = (   0.0306675  -0.0169032   0.0000000), wk =   0.0277778
        k(   31) = (   0.0306675  -0.0000000   0.0000000), wk =   0.0277778
        k(   32) = (   0.0460013   0.0253548   0.0000000), wk =   0.0277778
        k(   33) = (   0.0460013   0.0422580   0.0000000), wk =   0.0277778
        k(   34) = (   0.0460013   0.0591612   0.0000000), wk =   0.0277778
        k(   35) = (   0.0460013   0.0760645   0.0000000), wk =   0.0277778
        k(   36) = (   0.0460013   0.0929677   0.0000000), wk =   0.0277778
        k(   37) = (   0.0460013   0.1098709   0.0000000), wk =   0.0277778
        k(   38) = (   0.0460013  -0.0760645   0.0000000), wk =   0.0277778
        k(   39) = (   0.0460013  -0.0591612   0.0000000), wk =   0.0277778
        k(   40) = (   0.0460013  -0.0422580   0.0000000), wk =   0.0277778
        k(   41) = (   0.0460013  -0.0253548   0.0000000), wk =   0.0277778
        k(   42) = (   0.0460013  -0.0084516   0.0000000), wk =   0.0277778
        k(   43) = (   0.0460013   0.0084516   0.0000000), wk =   0.0277778
        k(   44) = (   0.0613351   0.0338064   0.0000000), wk =   0.0277778
        k(   45) = (   0.0613351   0.0507096   0.0000000), wk =   0.0277778
        k(   46) = (   0.0613351   0.0676129   0.0000000), wk =   0.0277778
        k(   47) = (   0.0613351   0.0845161   0.0000000), wk =   0.0277778
        k(   48) = (   0.0613351   0.1014193   0.0000000), wk =   0.0277778
        k(   49) = (   0.0613351   0.1183225   0.0000000), wk =   0.0277778
        k(   50) = (   0.0613351  -0.0676129   0.0000000), wk =   0.0277778
        k(   51) = (   0.0613351  -0.0507096   0.0000000), wk =   0.0277778
        k(   52) = (   0.0613351  -0.0338064   0.0000000), wk =   0.0277778
        k(   53) = (   0.0613351  -0.0169032   0.0000000), wk =   0.0277778
        k(   54) = (   0.0613351   0.0000000   0.0000000), wk =   0.0277778
        k(   55) = (   0.0613351   0.0169032   0.0000000), wk =   0.0277778
        k(   56) = (   0.0766688   0.0422580   0.0000000), wk =   0.0277778
        k(   57) = (   0.0766688   0.0591612   0.0000000), wk =   0.0277778
        k(   58) = (   0.0766688   0.0760645   0.0000000), wk =   0.0277778
        k(   59) = (   0.0766688   0.0929677   0.0000000), wk =   0.0277778
        k(   60) = (   0.0766688   0.1098709   0.0000000), wk =   0.0277778
        k(   61) = (   0.0766688   0.1267741   0.0000000), wk =   0.0277778
        k(   62) = (   0.0766688  -0.0591612   0.0000000), wk =   0.0277778
        k(   63) = (   0.0766688  -0.0422580   0.0000000), wk =   0.0277778
        k(   64) = (   0.0766688  -0.0253548   0.0000000), wk =   0.0277778
        k(   65) = (   0.0766688  -0.0084516   0.0000000), wk =   0.0277778
        k(   66) = (   0.0766688   0.0084516   0.0000000), wk =   0.0277778
        k(   67) = (   0.0766688   0.0253548   0.0000000), wk =   0.0277778
        k(   68) = (  -0.0920026  -0.0507096   0.0000000), wk =   0.0138889
        k(   69) = (  -0.0920026  -0.0338064   0.0000000), wk =   0.0277778
        k(   70) = (  -0.0920026  -0.0169032   0.0000000), wk =   0.0277778
        k(   71) = (  -0.0920026   0.0000000   0.0000000), wk =   0.0277778
        k(   72) = (  -0.0920026   0.0169032   0.0000000), wk =   0.0277778
        k(   73) = (  -0.0920026   0.0338064   0.0000000), wk =   0.0277778
        k(   74) = (  -0.0920026  -0.1521289   0.0000000), wk =   0.0138889

     Initial potential from superposition of free atoms

     starting charge  149.99718, renormalised to  150.00000

     negative rho (up, down):  7.145E-04 0.000E+00

     %%%%%%%%%%%%%%%%%%%%%%%%%%%%%%%%%%%%%%%%%%%%%%%%%%%%%%%%%%%%%%%%%%%%%%%%
     %                                                                      %
     % You are using vdW-DF, which was implemented by the Thonhauser group. %
     % Please cite the following two papers that made this development      %
     % possible and the two reviews that describe the various versions:     %
     %                                                                      %
     %   T. Thonhauser et al., PRL 115, 136402 (2015).                      %
     %   T. Thonhauser et al., PRB 76, 125112 (2007).                       %
     %   K. Berland et al., Rep. Prog. Phys. 78, 066501 (2015).             %
     %   D.C. Langreth et al., J. Phys.: Condens. Matter 21, 084203 (2009). %
     %                                                                      %
     %                                                                      %
     % If you are calculating the stress with vdW-DF, please also cite:     %
     %                                                                      %
     %   R. Sabatini et al., J. Phys.: Condens. Matter 24, 424209 (2012).   %
     %                                                                      %
     %%%%%%%%%%%%%%%%%%%%%%%%%%%%%%%%%%%%%%%%%%%%%%%%%%%%%%%%%%%%%%%%%%%%%%%%

     Adding external electric field

     Computed dipole along edir(3) :
        Dipole               -0.0000 Ry au,         -0.0000 Debye
        Dipole field         -0.0000 Ry au,

        Potential amp.        0.0000 Ry
        Total length         45.2046 bohr

     Starting wfcs are  114 randomized atomic wfcs

     Self-consistent Calculation

     iteration #  1     ecut=    55.12 Ry     beta= 0.10
     Davidson diagonalization with overlap
     ethr =  1.00E-02,  avg # of iterations =  2.0

[...]

     total energy              =   -1472.31201056 Ry
     estimated scf accuracy    <       2.79190009 Ry

[...]

     iteration #  7     ecut=    55.12 Ry     beta= 0.10
     Davidson diagonalization with overlap
     c_bands:  1 eigenvalues not converged
     ethr =  2.61E-05,  avg # of iterations =  8.3

[...]

     total energy              =   -1472.58136897 Ry
     estimated scf accuracy    <       0.00001248 Ry

     iteration # 15     ecut=    55.12 Ry     beta= 0.10
     Davidson diagonalization with overlap
     ethr =  8.32E-09,  avg # of iterations =  4.8

[...]

     Adding external electric field

     Computed dipole along edir(3) :
        Dipole                0.0205 Ry au,          0.0521 Debye
        Dipole field          0.0001 Ry au,

        Potential amp.       -0.0052 Ry
        Total length         45.2046 bohr

     End of self-consistent calculation

          k = 0.0000 0.0000 0.0000 ( 30719 PWs)   bands (ev):

   -79.3508 -79.3076 -78.8910 -78.8479 -78.8315 -78.7886 -41.3432 -41.1815
   -41.1034 -41.0992 -41.0266 -40.8679 -40.8104 -40.6732 -40.6584 -40.6011
   -40.5942 -40.5391 -40.5226 -40.4680 -40.4104 -40.3448 -40.1877 -40.1332
    -7.7543  -5.7836  -5.4291  -5.1885  -5.1834  -5.0375  -4.9117  -4.8696
    -4.7124  -4.3930  -4.3033  -4.2810  -4.0723  -4.0648  -3.7860  -2.8926
    -2.6520  -2.5893  -2.3654  -2.2595  -2.0212  -1.8397  -1.7251  -1.5395
    -1.5241  -1.4524  -1.3451  -1.1312  -1.1002  -0.9886  -0.9585  -0.7351
    -0.6522  -0.3562   0.0497   0.1720   0.2239   0.3476   0.4161   0.6102
     0.6646   1.0945   1.3091   1.4772   1.6381   1.6597   1.7663   2.1637
     2.2068   2.4898   2.5951   2.7597   2.8643   2.8810   2.8848   2.9976
     3.0520   3.0841   3.1975   3.4901   3.5419   3.9404   3.9470   4.0562
     4.2109   4.2675

[...]

          k = 0.0767 0.0254 0.0000 ( 30709 PWs)   bands (ev):

[...]

          k =-0.0920-0.0507 0.0000 ( 30726 PWs)   bands (ev):

[...]

          k =-0.0920-0.1521 0.0000 ( 30726 PWs)   bands (ev):

   -79.3292 -79.3292 -78.8695 -78.8694 -78.8102 -78.8099 -41.1436 -41.1435
   -41.0647 -41.0647 -41.0086 -41.0085 -40.6382 -40.6381 -40.5596 -40.5593
   -40.5354 -40.5353 -40.5045 -40.5043 -40.4794 -40.4791 -40.3784 -40.3782
    -5.8512  -5.8512  -4.3603  -4.3603  -4.1042  -4.1042  -4.0147  -4.0147
    -3.9144  -3.9144  -3.4631  -3.4631  -3.0928  -3.0927  -3.0679  -3.0678
    -2.7833  -2.7832  -2.4554  -2.4553  -2.2429  -2.2429  -1.7737  -1.7737
    -1.7544  -1.7543  -1.6388  -1.6387  -1.5303  -1.5302  -1.3582  -1.3582
    -0.9096  -0.9096  -0.7814  -0.7814  -0.4419  -0.4419  -0.2866  -0.2865
     0.0260   0.0260   0.5581   0.5581   0.9390   0.9390   1.1863   1.1864
     1.2815   1.2816   1.4532   1.4533   1.5666   1.5667   1.7640   1.7641
     2.3404   2.3404   2.5012   2.5013   3.1808   3.1808   3.5173   3.5173
     4.3216   4.3216

     the Fermi energy is     1.7847 ev

!    total energy              =   -1472.58136869 Ry
     estimated scf accuracy    <       0.00000270 Ry
     smearing contrib. (-TS)   =      -0.06045393 Ry
     internal energy E=F+TS    =   -1472.52091475 Ry

     The total energy is F=E-TS. E is the sum of the following terms:
     one-electron contribution =  -12430.91090910 Ry
     hartree contribution      =    6241.79612371 Ry
     xc contribution           =    -393.64268520 Ry
     ewald contribution        =    5110.23655465 Ry
     electric field correction =       0.00000119 Ry

     convergence has been achieved in  15 iterations

     negative rho (up, down):  5.755E-04 0.000E+00

     Forces acting on atoms (cartesian axes, Ry/au):

     atom    1 type  1   force =     0.00000744    0.02165319    0.02295004
     atom    2 type  1   force =    -0.00000760    0.02166227    0.02297211
     atom    3 type  2   force =     0.00000369   -0.03704180   -0.00459852
     atom    4 type  2   force =    -0.00000760   -0.03704512   -0.00460635
     atom    5 type  1   force =    -0.00000735    0.00122297   -0.02002585
     atom    6 type  1   force =     0.00000124    0.00124563   -0.02000498
     atom    7 type  2   force =    -0.00001894    0.01359583   -0.00487292
     atom    8 type  2   force =     0.00001998    0.01360456   -0.00487065
     atom    9 type  1   force =    -0.00000268   -0.00058665    0.00288869
     atom   10 type  1   force =     0.00000240   -0.00058732    0.00288331
     atom   11 type  2   force =     0.00001858    0.00114012    0.00364607
     atom   12 type  2   force =    -0.00000915    0.00113632    0.00363906

     Total force =     0.077766     Total SCF correction =     0.011151
     SCF correction compared to forces is large: reduce conv_thr to get better values

     Writing output data file ./Re2Pt2/Re2Pt2_beef.save/

     General routines

     Parallel routines

   This run was terminated on:  18:15:35  24Jun2022

   JOB DONE.