     Program PWSCF v.6.6 starts on 11Jul2022 at  0: 7: 4

     R & G space division:  proc/nbgrp/npool/nimage =      37
     Fft bands division:     nmany     =       1
     Reading input from Rh2Au2.in
Warning: card &CELL ignored
Warning: card / ignored

     Current dimensions of program PWSCF are:
     Max number of different atomic species (ntypx) = 10
     Max number of k-points (npk) =  40000
     Max angular momentum in pseudopotentials (lmaxx) =  3
     Presently stress not available with electric field and gates

     Message from routine cell_base_init:
     DEPRECATED: use true lattice parameter, not A to a.u. conversion factor
     file Rh.pbe-spn-rrkjus_psl.1.0.0.UPF: wavefunction(s)  4S 5S renormalized

     IMPORTANT: XC functional enforced from input :
     Exchange-correlation= BEEF-VDW
                           (   1   4  43  14   2   0   0)
     Any further DFT definition will be discarded
     Please, verify this is what you really want

     Subspace diagonalization in iterative solution of the eigenvalue problem:
     a serial algorithm will be used

     bravais-lattice index     =            0
     lattice parameter (alat)  =       1.8897  a.u.
     unit-cell volume          =    4681.0892 (a.u.)^3
     number of atoms/cell      =           12
     number of atomic types    =            2
     number of electrons       =       168.00
     number of Kohn-Sham states=          101
     kinetic-energy cutoff     =      55.1240  Ry
     charge density cutoff     =     551.2396  Ry
     convergence threshold     =      1.0E-05
     mixing beta               =       0.1000
     number of iterations used =           10  plain     mixing
     Exchange-correlation= BEEF-VDW
                           (   1   4  43  14   2   0   0)

     celldm(1)=   1.889726  celldm(2)=   0.000000  celldm(3)=   0.000000
     celldm(4)=   0.000000  celldm(5)=   0.000000  celldm(6)=   0.000000

     crystal axes: (cart. coord. in units of alat)
               a(1) = (   5.641015   0.000000   0.000000 )
               a(2) = (  -2.820507   4.988046   0.000000 )
               a(3) = (   0.000000   0.000000  24.652598 )

     reciprocal axes: (cart. coord. in units 2 pi/alat)
               b(1) = (  0.177273  0.100240 -0.000000 )
               b(2) = (  0.000000  0.200479  0.000000 )
               b(3) = (  0.000000 -0.000000  0.040564 )

     PseudoPot. # 1 for Rh read from file:
     ../pseudo/Rh.pbe-spn-rrkjus_psl.1.0.0.UPF
     MD5 check sum: 912a852783f0c9b7bd5e9eb06cc0cc10
     Pseudo is Ultrasoft + core correction, Zval = 17.0
     Generated using "atomic" code by A. Dal Corso v.6.3
     Using radial grid of 1233 points,  6 beta functions with:
                l(1) =   0
                l(2) =   0
                l(3) =   1
                l(4) =   1
                l(5) =   2
                l(6) =   2
     Q(r) pseudized with 0 coefficients

     PseudoPot. # 2 for Au read from file:
     ../pseudo/Au.pbe-n-rrkjus_psl.1.0.0.UPF
     MD5 check sum: d7e77ba19504afed2c9b41c931dde4f0
     Pseudo is Ultrasoft + core correction, Zval = 11.0
     Generated using "atomic" code by A. Dal Corso v.6.3
     Using radial grid of 1279 points,  6 beta functions with:
                l(1) =   0
                l(2) =   0
                l(3) =   1
                l(4) =   1
                l(5) =   2
                l(6) =   2
     Q(r) pseudized with 0 coefficients

     atomic species   valence    mass     pseudopotential
        Rh            17.00   102.90550     Rh( 1.00)
        Au            11.00   196.96657     Au( 1.00)

     No symmetry found

   Cartesian axes

     site n.     atom                  positions (alat units)
         1           Rh  tau(   1) = (   0.0000000   0.0000000  10.0000000  )
         2           Rh  tau(   2) = (   2.8205074   0.0000000  10.0000000  )
         3           Au  tau(   3) = (   1.4102537   2.4940232  10.0000000  )
         4           Au  tau(   4) = (  -1.4102537   2.4940232  10.0000000  )
         5           Rh  tau(   5) = (   2.8205074   1.5948653  12.3262989  )
         6           Rh  tau(   6) = (  -0.0000000   1.5948653  12.3262989  )
         7           Au  tau(   7) = (  -1.4102537   4.0888885  12.3262989  )
         8           Au  tau(   8) = (   1.4102537   4.0888885  12.3262989  )
         9           Rh  tau(   9) = (  -0.0000341   2.9617472  14.5595618  )
        10           Rh  tau(  10) = (   2.8205288   2.9611114  14.5596208  )
        11           Au  tau(  11) = (   4.2298454   0.5151494  14.8263517  )
        12           Au  tau(  12) = (   1.4111641   0.5152169  14.8262538  )

     number of k points=    74  Fermi-Dirac smearing, width (Ry)=  0.0100
                       cart. coord. in units 2pi/alat
        k(    1) = (   0.0000000   0.0000000   0.0000000), wk =   0.0138889
        k(    2) = (   0.0000000   0.0167066   0.0000000), wk =   0.0277778
        k(    3) = (   0.0000000   0.0334132   0.0000000), wk =   0.0277778
        k(    4) = (   0.0000000   0.0501198   0.0000000), wk =   0.0277778
        k(    5) = (   0.0000000   0.0668264   0.0000000), wk =   0.0277778
        k(    6) = (   0.0000000   0.0835330   0.0000000), wk =   0.0277778
        k(    7) = (   0.0000000  -0.1002397   0.0000000), wk =   0.0138889
        k(    8) = (   0.0147728   0.0083533   0.0000000), wk =   0.0277778
        k(    9) = (   0.0147728   0.0250599   0.0000000), wk =   0.0277778
        k(   10) = (   0.0147728   0.0417665   0.0000000), wk =   0.0277778
        k(   11) = (   0.0147728   0.0584731   0.0000000), wk =   0.0277778
        k(   12) = (   0.0147728   0.0751797   0.0000000), wk =   0.0277778
        k(   13) = (   0.0147728   0.0918863   0.0000000), wk =   0.0277778
        k(   14) = (   0.0147728  -0.0918864   0.0000000), wk =   0.0277778
        k(   15) = (   0.0147728  -0.0751797   0.0000000), wk =   0.0277778
        k(   16) = (   0.0147728  -0.0584731   0.0000000), wk =   0.0277778
        k(   17) = (   0.0147728  -0.0417665   0.0000000), wk =   0.0277778
        k(   18) = (   0.0147728  -0.0250599   0.0000000), wk =   0.0277778
        k(   19) = (   0.0147728  -0.0083533   0.0000000), wk =   0.0277778
        k(   20) = (   0.0295455   0.0167066   0.0000000), wk =   0.0277778
        k(   21) = (   0.0295455   0.0334132   0.0000000), wk =   0.0277778
        k(   22) = (   0.0295455   0.0501198   0.0000000), wk =   0.0277778
        k(   23) = (   0.0295455   0.0668264   0.0000000), wk =   0.0277778
        k(   24) = (   0.0295455   0.0835330   0.0000000), wk =   0.0277778
        k(   25) = (   0.0295455   0.1002397   0.0000000), wk =   0.0277778
        k(   26) = (   0.0295455  -0.0835330   0.0000000), wk =   0.0277778
        k(   27) = (   0.0295455  -0.0668264   0.0000000), wk =   0.0277778
        k(   28) = (   0.0295455  -0.0501198   0.0000000), wk =   0.0277778
        k(   29) = (   0.0295455  -0.0334132   0.0000000), wk =   0.0277778
        k(   30) = (   0.0295455  -0.0167066   0.0000000), wk =   0.0277778
        k(   31) = (   0.0295455  -0.0000000   0.0000000), wk =   0.0277778
        k(   32) = (   0.0443183   0.0250599   0.0000000), wk =   0.0277778
        k(   33) = (   0.0443183   0.0417665   0.0000000), wk =   0.0277778
        k(   34) = (   0.0443183   0.0584731   0.0000000), wk =   0.0277778
        k(   35) = (   0.0443183   0.0751797   0.0000000), wk =   0.0277778
        k(   36) = (   0.0443183   0.0918863   0.0000000), wk =   0.0277778
        k(   37) = (   0.0443183   0.1085930   0.0000000), wk =   0.0277778
        k(   38) = (   0.0443183  -0.0751797   0.0000000), wk =   0.0277778
        k(   39) = (   0.0443183  -0.0584731   0.0000000), wk =   0.0277778
        k(   40) = (   0.0443183  -0.0417665   0.0000000), wk =   0.0277778
        k(   41) = (   0.0443183  -0.0250599   0.0000000), wk =   0.0277778
        k(   42) = (   0.0443183  -0.0083533   0.0000000), wk =   0.0277778
        k(   43) = (   0.0443183   0.0083533   0.0000000), wk =   0.0277778
        k(   44) = (   0.0590910   0.0334132   0.0000000), wk =   0.0277778
        k(   45) = (   0.0590910   0.0501198   0.0000000), wk =   0.0277778
        k(   46) = (   0.0590910   0.0668264   0.0000000), wk =   0.0277778
        k(   47) = (   0.0590910   0.0835330   0.0000000), wk =   0.0277778
        k(   48) = (   0.0590910   0.1002396   0.0000000), wk =   0.0277778
        k(   49) = (   0.0590910   0.1169463   0.0000000), wk =   0.0277778
        k(   50) = (   0.0590910  -0.0668264   0.0000000), wk =   0.0277778
        k(   51) = (   0.0590910  -0.0501198   0.0000000), wk =   0.0277778
        k(   52) = (   0.0590910  -0.0334132   0.0000000), wk =   0.0277778
        k(   53) = (   0.0590910  -0.0167066   0.0000000), wk =   0.0277778
        k(   54) = (   0.0590910  -0.0000000   0.0000000), wk =   0.0277778
        k(   55) = (   0.0590910   0.0167066   0.0000000), wk =   0.0277778
        k(   56) = (   0.0738638   0.0417665   0.0000000), wk =   0.0277778
        k(   57) = (   0.0738638   0.0584731   0.0000000), wk =   0.0277778
        k(   58) = (   0.0738638   0.0751797   0.0000000), wk =   0.0277778
        k(   59) = (   0.0738638   0.0918863   0.0000000), wk =   0.0277778
        k(   60) = (   0.0738638   0.1085929   0.0000000), wk =   0.0277778
        k(   61) = (   0.0738638   0.1252996   0.0000000), wk =   0.0277778
        k(   62) = (   0.0738638  -0.0584731   0.0000000), wk =   0.0277778
        k(   63) = (   0.0738638  -0.0417665   0.0000000), wk =   0.0277778
        k(   64) = (   0.0738638  -0.0250599   0.0000000), wk =   0.0277778
        k(   65) = (   0.0738638  -0.0083533   0.0000000), wk =   0.0277778
        k(   66) = (   0.0738638   0.0083533   0.0000000), wk =   0.0277778
        k(   67) = (   0.0738638   0.0250599   0.0000000), wk =   0.0277778
        k(   68) = (  -0.0886365  -0.0501198   0.0000000), wk =   0.0138889
        k(   69) = (  -0.0886365  -0.0334132   0.0000000), wk =   0.0277778
        k(   70) = (  -0.0886365  -0.0167066   0.0000000), wk =   0.0277778
        k(   71) = (  -0.0886365   0.0000000   0.0000000), wk =   0.0277778
        k(   72) = (  -0.0886365   0.0167066   0.0000000), wk =   0.0277778
        k(   73) = (  -0.0886365   0.0334132   0.0000000), wk =   0.0277778
        k(   74) = (  -0.0886365  -0.1503595   0.0000000), wk =   0.0138889

     Initial potential from superposition of free atoms

     starting charge  167.99640, renormalised to  168.00000

     negative rho (up, down):  1.488E-03 0.000E+00

     %%%%%%%%%%%%%%%%%%%%%%%%%%%%%%%%%%%%%%%%%%%%%%%%%%%%%%%%%%%%%%%%%%%%%%%%
     %                                                                      %
     % You are using vdW-DF, which was implemented by the Thonhauser group. %
     % Please cite the following two papers that made this development      %
     % possible and the two reviews that describe the various versions:     %
     %                                                                      %
     %   T. Thonhauser et al., PRL 115, 136402 (2015).                      %
     %   T. Thonhauser et al., PRB 76, 125112 (2007).                       %
     %   K. Berland et al., Rep. Prog. Phys. 78, 066501 (2015).             %
     %   D.C. Langreth et al., J. Phys.: Condens. Matter 21, 084203 (2009). %
     %                                                                      %
     %                                                                      %
     % If you are calculating the stress with vdW-DF, please also cite:     %
     %                                                                      %
     %   R. Sabatini et al., J. Phys.: Condens. Matter 24, 424209 (2012).   %
     %                                                                      %
     %%%%%%%%%%%%%%%%%%%%%%%%%%%%%%%%%%%%%%%%%%%%%%%%%%%%%%%%%%%%%%%%%%%%%%%%

     Adding external electric field

     Computed dipole along edir(3) :
        Dipole               -0.0001 Ry au,         -0.0003 Debye
        Dipole field         -0.0000 Ry au,

        Potential amp.        0.0000 Ry
        Total length         45.4220 bohr

     Starting wfcs are  114 randomized atomic wfcs

     Self-consistent Calculation

     iteration #  1     ecut=    55.12 Ry     beta= 0.10
     Davidson diagonalization with overlap
     ethr =  1.00E-02,  avg # of iterations =  5.4

[...]

     total energy              =   -1882.21892381 Ry
     estimated scf accuracy    <      16.20174182 Ry

[...]

     iteration #  6     ecut=    55.12 Ry     beta= 0.10
     Davidson diagonalization with overlap
     c_bands:  1 eigenvalues not converged
     c_bands:  2 eigenvalues not converged
     ethr =  8.79E-05,  avg # of iterations = 11.7

[...]

     iteration # 10     ecut=    55.12 Ry     beta= 0.10
     Davidson diagonalization with overlap
     c_bands:  1 eigenvalues not converged
     ethr =  1.56E-06,  avg # of iterations =  2.6

[...]

     total energy              =   -1883.48669232 Ry
     estimated scf accuracy    <       0.00001312 Ry

     iteration # 16     ecut=    55.12 Ry     beta= 0.10
     Davidson diagonalization with overlap
     ethr =  7.81E-09,  avg # of iterations =  1.4

[...]

     Adding external electric field

     Computed dipole along edir(3) :
        Dipole               -0.0019 Ry au,         -0.0047 Debye
        Dipole field         -0.0000 Ry au,

        Potential amp.        0.0005 Ry
        Total length         45.4220 bohr

     End of self-consistent calculation

          k = 0.0000 0.0000 0.0000 ( 32345 PWs)   bands (ev):

   -77.2689 -77.2492 -77.1024 -77.0827 -76.9761 -76.9563 -45.3285 -45.3050
   -45.2177 -45.1325 -45.0523 -45.0323 -45.0099 -44.9872 -44.9701 -44.9486
   -44.9040 -44.8753 -44.8602 -44.8530 -44.8384 -44.8224 -44.7252 -44.7030
    -6.5884  -5.2941  -5.1442  -4.9419  -4.7712  -4.7419  -4.5793  -4.5305
    -4.4205  -4.3591  -4.3456  -4.2159  -4.1022  -4.0769  -3.7707  -3.5008
    -3.2675  -3.1803  -3.0865  -2.9385  -2.7661  -2.6284  -2.6060  -2.6056
    -2.5028  -2.2290  -2.1920  -2.1491  -2.0722  -1.9265  -1.5866  -1.5710
    -1.5514  -1.4429  -1.3312  -0.9389  -0.9270  -0.8012  -0.7588  -0.6827
    -0.4324  -0.3915  -0.2926  -0.0909   0.0043   0.0580   0.1828   0.2734
     0.2954   0.3062   0.5503   0.5536   0.6346   0.6594   0.9213   0.9267
     0.9810   1.0306   1.0904   1.1845   1.2316   1.3320   1.6986   1.9020
     2.2139   2.5547   2.5619   3.3476   3.5757   3.6834   3.8100   4.0440
     4.1688   5.3617   5.4552   5.7572   6.0533

[...]

          k = 0.0739 0.0251 0.0000 ( 32332 PWs)   bands (ev):

[...]

          k =-0.0886-0.0501 0.0000 ( 32324 PWs)   bands (ev):

[...]

          k =-0.0886-0.1504 0.0000 ( 32324 PWs)   bands (ev):

   -77.2591 -77.2590 -77.0927 -77.0924 -76.9662 -76.9662 -45.3172 -45.3168
   -45.1034 -45.1033 -45.0215 -45.0213 -45.0193 -45.0190 -44.9597 -44.9595
   -44.9383 -44.9382 -44.8645 -44.8642 -44.8496 -44.8495 -44.7141 -44.7141
    -5.0562  -5.0555  -4.2556  -4.2551  -4.0522  -4.0520  -3.9786  -3.9782
    -3.7654  -3.7646  -3.6911  -3.6906  -3.5527  -3.5518  -3.4256  -3.4246
    -3.1181  -3.1177  -3.0393  -3.0372  -2.8250  -2.8244  -2.8069  -2.8050
    -2.6998  -2.6958  -2.6258  -2.6250  -2.4514  -2.4487  -2.3392  -2.3380
    -2.1391  -2.1375  -1.5531  -1.5526  -1.3498  -1.3493  -0.8967  -0.8966
    -0.8284  -0.8277  -0.5128  -0.5125  -0.3751  -0.3749  -0.2819  -0.2806
    -0.2345  -0.2343  -0.1787  -0.1776  -0.1244  -0.1238   0.0548   0.0549
     0.4092   0.4092   0.5206   0.5209   0.7653   0.7654   1.0224   1.0227
     2.2412   2.2421   2.8579   2.8582   3.7412   3.7418   4.9977   4.9991
     5.6641   5.6644   6.8113   6.8114   7.5230

     the Fermi energy is     0.8663 ev

!    total energy              =   -1883.48669192 Ry
     estimated scf accuracy    <       0.00000223 Ry
     smearing contrib. (-TS)   =      -0.09061387 Ry
     internal energy E=F+TS    =   -1883.39607806 Ry

     The total energy is F=E-TS. E is the sum of the following terms:
     one-electron contribution =  -14878.67010837 Ry
     hartree contribution      =    7484.01543211 Ry
     xc contribution           =    -383.47977767 Ry
     ewald contribution        =    5894.73837586 Ry
     electric field correction =       0.00000001 Ry

     convergence has been achieved in  16 iterations

     negative rho (up, down):  1.578E-03 0.000E+00

     Forces acting on atoms (cartesian axes, Ry/au):

     atom    1 type  1   force =    -0.00000319    0.01130995    0.01364260
     atom    2 type  1   force =     0.00000031    0.01129419    0.01360913
     atom    3 type  2   force =     0.00001179   -0.00742150   -0.02359174
     atom    4 type  2   force =    -0.00001682   -0.00742014   -0.02360170
     atom    5 type  1   force =     0.00000794   -0.01135020    0.00642001
     atom    6 type  1   force =    -0.00000211   -0.01138267    0.00647627
     atom    7 type  2   force =     0.00000105    0.00817222    0.00464777
     atom    8 type  2   force =     0.00000273    0.00817199    0.00465527
     atom    9 type  1   force =     0.00000510   -0.00065253   -0.00141327
     atom   10 type  1   force =     0.00000491   -0.00026275   -0.00140902
     atom   11 type  2   force =     0.00050229   -0.00023000    0.00027838
     atom   12 type  2   force =    -0.00051399   -0.00022857    0.00028631

     Total force =     0.048726     Total SCF correction =     0.008405
     SCF correction compared to forces is large: reduce conv_thr to get better values

     Writing output data file ./Rh2Au2/Rh2Au2_beef.save/

     General routines

     Parallel routines

   This run was terminated on:   1:10: 6  11Jul2022

   JOB DONE.