     Program PWSCF v.6.6 starts on 11Jul2022 at  1:10:10

     R & G space division:  proc/nbgrp/npool/nimage =      37
     Fft bands division:     nmany     =       1
     Reading input from Rh2Cd2.in
Warning: card &CELL ignored
Warning: card / ignored

     Current dimensions of program PWSCF are:
     Max number of different atomic species (ntypx) = 10
     Max number of k-points (npk) =  40000
     Max angular momentum in pseudopotentials (lmaxx) =  3
     Presently stress not available with electric field and gates

     Message from routine cell_base_init:
     DEPRECATED: use true lattice parameter, not A to a.u. conversion factor
     file Rh.pbe-spn-rrkjus_psl.1.0.0.UPF: wavefunction(s)  4S 5S renormalized
     file Cd.pbe-n-rrkjus_psl.1.0.0.UPF: wavefunction(s)  4D renormalized

     IMPORTANT: XC functional enforced from input :
     Exchange-correlation= BEEF-VDW
                           (   1   4  43  14   2   0   0)
     Any further DFT definition will be discarded
     Please, verify this is what you really want

     Subspace diagonalization in iterative solution of the eigenvalue problem:
     a serial algorithm will be used

     bravais-lattice index     =            0
     lattice parameter (alat)  =       1.8897  a.u.
     unit-cell volume          =    4983.6526 (a.u.)^3
     number of atoms/cell      =           12
     number of atomic types    =            2
     number of electrons       =       174.00
     number of Kohn-Sham states=          104
     kinetic-energy cutoff     =      55.1240  Ry
     charge density cutoff     =     551.2396  Ry
     convergence threshold     =      1.0E-05
     mixing beta               =       0.1000
     number of iterations used =           10  plain     mixing
     Exchange-correlation= BEEF-VDW
                           (   1   4  43  14   2   0   0)

     celldm(1)=   1.889726  celldm(2)=   0.000000  celldm(3)=   0.000000
     celldm(4)=   0.000000  celldm(5)=   0.000000  celldm(6)=   0.000000

     crystal axes: (cart. coord. in units of alat)
               a(1) = (   5.642050   0.000000   0.000000 )
               a(2) = (   1.880682   5.319376   0.000000 )
               a(3) = (   0.000000   0.000000  24.606714 )

     reciprocal axes: (cart. coord. in units 2 pi/alat)
               b(1) = (  0.177241 -0.062664  0.000000 )
               b(2) = (  0.000000  0.187992  0.000000 )
               b(3) = (  0.000000  0.000000  0.040639 )

     PseudoPot. # 1 for Rh read from file:
     ../pseudo/Rh.pbe-spn-rrkjus_psl.1.0.0.UPF
     MD5 check sum: 912a852783f0c9b7bd5e9eb06cc0cc10
     Pseudo is Ultrasoft + core correction, Zval = 17.0
     Generated using "atomic" code by A. Dal Corso v.6.3
     Using radial grid of 1233 points,  6 beta functions with:
                l(1) =   0
                l(2) =   0
                l(3) =   1
                l(4) =   1
                l(5) =   2
                l(6) =   2
     Q(r) pseudized with 0 coefficients

     PseudoPot. # 2 for Cd read from file:
     ../pseudo/Cd.pbe-n-rrkjus_psl.1.0.0.UPF
     MD5 check sum: a744746c89d2344a134ead0d8ab94e7a
     Pseudo is Ultrasoft + core correction, Zval = 12.0
     Generated using "atomic" code by A. Dal Corso v.6.3
     Using radial grid of 1239 points,  6 beta functions with:
                l(1) =   0
                l(2) =   0
                l(3) =   1
                l(4) =   1
                l(5) =   2
                l(6) =   2
     Q(r) pseudized with 0 coefficients

     atomic species   valence    mass     pseudopotential
        Rh            17.00   102.90550     Rh( 1.00)
        Cd            12.00   112.41400     Cd( 1.00)

     No symmetry found

   Cartesian axes

     site n.     atom                  positions (alat units)
         1           Rh  tau(   1) = (   0.0000000   0.0000000  10.0000000  )
         2           Rh  tau(   2) = (   3.7613663   2.6596882  10.0000000  )
         3           Cd  tau(   3) = (   2.8210251   0.0000000  10.0000000  )
         4           Cd  tau(   4) = (   0.9403412   2.6596882  10.0000000  )
         5           Rh  tau(   5) = (   5.6420503   3.9895329  12.3033572  )
         6           Rh  tau(   6) = (   1.8806840   1.3298447  12.3033572  )
         7           Cd  tau(   7) = (   2.8210251   3.9895329  12.3033572  )
         8           Cd  tau(   8) = (   4.7017091   1.3298447  12.3033572  )
         9           Rh  tau(   9) = (   3.7614025   2.6597042  14.4946392  )
        10           Rh  tau(  10) = (   7.5226993   5.3193650  14.4946348  )
        11           Cd  tau(  11) = (   0.9403573   2.6596502  14.7277149  )
        12           Cd  tau(  12) = (   2.8210131   0.0000472  14.7277386  )

     number of k points=    74  Fermi-Dirac smearing, width (Ry)=  0.0100
                       cart. coord. in units 2pi/alat
        k(    1) = (   0.0000000   0.0000000   0.0000000), wk =   0.0138889
        k(    2) = (   0.0000000   0.0156660   0.0000000), wk =   0.0277778
        k(    3) = (   0.0000000   0.0313320   0.0000000), wk =   0.0277778
        k(    4) = (   0.0000000   0.0469980   0.0000000), wk =   0.0277778
        k(    5) = (   0.0000000   0.0626640   0.0000000), wk =   0.0277778
        k(    6) = (   0.0000000   0.0783300   0.0000000), wk =   0.0277778
        k(    7) = (   0.0000000  -0.0939960   0.0000000), wk =   0.0138889
        k(    8) = (   0.0147700  -0.0052220   0.0000000), wk =   0.0277778
        k(    9) = (   0.0147700   0.0104440   0.0000000), wk =   0.0277778
        k(   10) = (   0.0147700   0.0261100   0.0000000), wk =   0.0277778
        k(   11) = (   0.0147700   0.0417760   0.0000000), wk =   0.0277778
        k(   12) = (   0.0147700   0.0574420   0.0000000), wk =   0.0277778
        k(   13) = (   0.0147700   0.0731080   0.0000000), wk =   0.0277778
        k(   14) = (   0.0147700  -0.0992180   0.0000000), wk =   0.0277778
        k(   15) = (   0.0147700  -0.0835520   0.0000000), wk =   0.0277778
        k(   16) = (   0.0147700  -0.0678860   0.0000000), wk =   0.0277778
        k(   17) = (   0.0147700  -0.0522200   0.0000000), wk =   0.0277778
        k(   18) = (   0.0147700  -0.0365540   0.0000000), wk =   0.0277778
        k(   19) = (   0.0147700  -0.0208880   0.0000000), wk =   0.0277778
        k(   20) = (   0.0295401  -0.0104440   0.0000000), wk =   0.0277778
        k(   21) = (   0.0295401   0.0052220   0.0000000), wk =   0.0277778
        k(   22) = (   0.0295401   0.0208880   0.0000000), wk =   0.0277778
        k(   23) = (   0.0295401   0.0365540   0.0000000), wk =   0.0277778
        k(   24) = (   0.0295401   0.0522200   0.0000000), wk =   0.0277778
        k(   25) = (   0.0295401   0.0678860   0.0000000), wk =   0.0277778
        k(   26) = (   0.0295401  -0.1044400   0.0000000), wk =   0.0277778
        k(   27) = (   0.0295401  -0.0887740   0.0000000), wk =   0.0277778
        k(   28) = (   0.0295401  -0.0731080   0.0000000), wk =   0.0277778
        k(   29) = (   0.0295401  -0.0574420   0.0000000), wk =   0.0277778
        k(   30) = (   0.0295401  -0.0417760   0.0000000), wk =   0.0277778
        k(   31) = (   0.0295401  -0.0261100   0.0000000), wk =   0.0277778
        k(   32) = (   0.0443101  -0.0156660   0.0000000), wk =   0.0277778
        k(   33) = (   0.0443101   0.0000000   0.0000000), wk =   0.0277778
        k(   34) = (   0.0443101   0.0156660   0.0000000), wk =   0.0277778
        k(   35) = (   0.0443101   0.0313320   0.0000000), wk =   0.0277778
        k(   36) = (   0.0443101   0.0469980   0.0000000), wk =   0.0277778
        k(   37) = (   0.0443101   0.0626640   0.0000000), wk =   0.0277778
        k(   38) = (   0.0443101  -0.1096620   0.0000000), wk =   0.0277778
        k(   39) = (   0.0443101  -0.0939960   0.0000000), wk =   0.0277778
        k(   40) = (   0.0443101  -0.0783300   0.0000000), wk =   0.0277778
        k(   41) = (   0.0443101  -0.0626640   0.0000000), wk =   0.0277778
        k(   42) = (   0.0443101  -0.0469980   0.0000000), wk =   0.0277778
        k(   43) = (   0.0443101  -0.0313320   0.0000000), wk =   0.0277778
        k(   44) = (   0.0590802  -0.0208880   0.0000000), wk =   0.0277778
        k(   45) = (   0.0590802  -0.0052220   0.0000000), wk =   0.0277778
        k(   46) = (   0.0590802   0.0104440   0.0000000), wk =   0.0277778
        k(   47) = (   0.0590802   0.0261100   0.0000000), wk =   0.0277778
        k(   48) = (   0.0590802   0.0417760   0.0000000), wk =   0.0277778
        k(   49) = (   0.0590802   0.0574420   0.0000000), wk =   0.0277778
        k(   50) = (   0.0590802  -0.1148840   0.0000000), wk =   0.0277778
        k(   51) = (   0.0590802  -0.0992180   0.0000000), wk =   0.0277778
        k(   52) = (   0.0590802  -0.0835520   0.0000000), wk =   0.0277778
        k(   53) = (   0.0590802  -0.0678860   0.0000000), wk =   0.0277778
        k(   54) = (   0.0590802  -0.0522200   0.0000000), wk =   0.0277778
        k(   55) = (   0.0590802  -0.0365540   0.0000000), wk =   0.0277778
        k(   56) = (   0.0738502  -0.0261100   0.0000000), wk =   0.0277778
        k(   57) = (   0.0738502  -0.0104440   0.0000000), wk =   0.0277778
        k(   58) = (   0.0738502   0.0052220   0.0000000), wk =   0.0277778
        k(   59) = (   0.0738502   0.0208880   0.0000000), wk =   0.0277778
        k(   60) = (   0.0738502   0.0365540   0.0000000), wk =   0.0277778
        k(   61) = (   0.0738502   0.0522200   0.0000000), wk =   0.0277778
        k(   62) = (   0.0738502  -0.1201060   0.0000000), wk =   0.0277778
        k(   63) = (   0.0738502  -0.1044400   0.0000000), wk =   0.0277778
        k(   64) = (   0.0738502  -0.0887740   0.0000000), wk =   0.0277778
        k(   65) = (   0.0738502  -0.0731080   0.0000000), wk =   0.0277778
        k(   66) = (   0.0738502  -0.0574420   0.0000000), wk =   0.0277778
        k(   67) = (   0.0738502  -0.0417760   0.0000000), wk =   0.0277778
        k(   68) = (  -0.0886203   0.0313320   0.0000000), wk =   0.0138889
        k(   69) = (  -0.0886203   0.0469980   0.0000000), wk =   0.0277778
        k(   70) = (  -0.0886203   0.0626640   0.0000000), wk =   0.0277778
        k(   71) = (  -0.0886203   0.0783300   0.0000000), wk =   0.0277778
        k(   72) = (  -0.0886203   0.0939960   0.0000000), wk =   0.0277778
        k(   73) = (  -0.0886203   0.1096620   0.0000000), wk =   0.0277778
        k(   74) = (  -0.0886203  -0.0626640   0.0000000), wk =   0.0138889

     Initial potential from superposition of free atoms

     starting charge  173.96776, renormalised to  174.00000

     negative rho (up, down):  3.000E-03 0.000E+00

     %%%%%%%%%%%%%%%%%%%%%%%%%%%%%%%%%%%%%%%%%%%%%%%%%%%%%%%%%%%%%%%%%%%%%%%%
     %                                                                      %
     % You are using vdW-DF, which was implemented by the Thonhauser group. %
     % Please cite the following two papers that made this development      %
     % possible and the two reviews that describe the various versions:     %
     %                                                                      %
     %   T. Thonhauser et al., PRL 115, 136402 (2015).                      %
     %   T. Thonhauser et al., PRB 76, 125112 (2007).                       %
     %   K. Berland et al., Rep. Prog. Phys. 78, 066501 (2015).             %
     %   D.C. Langreth et al., J. Phys.: Condens. Matter 21, 084203 (2009). %
     %                                                                      %
     %                                                                      %
     % If you are calculating the stress with vdW-DF, please also cite:     %
     %                                                                      %
     %   R. Sabatini et al., J. Phys.: Condens. Matter 24, 424209 (2012).   %
     %                                                                      %
     %%%%%%%%%%%%%%%%%%%%%%%%%%%%%%%%%%%%%%%%%%%%%%%%%%%%%%%%%%%%%%%%%%%%%%%%

     Adding external electric field

     Computed dipole along edir(3) :
        Dipole                0.0023 Ry au,          0.0060 Debye
        Dipole field          0.0000 Ry au,

        Potential amp.       -0.0005 Ry
        Total length         45.3374 bohr

     Starting wfcs are  114 randomized atomic wfcs

     Self-consistent Calculation

     iteration #  1     ecut=    55.12 Ry     beta= 0.10
     Davidson diagonalization with overlap
     ethr =  1.00E-02,  avg # of iterations =  3.4

[...]

     total energy              =   -1972.08972134 Ry
     estimated scf accuracy    <       5.37832679 Ry

[...]

     iteration #  4     ecut=    55.12 Ry     beta= 0.10
     Davidson diagonalization with overlap
     c_bands:  1 eigenvalues not converged
     c_bands:  1 eigenvalues not converged
     c_bands:  1 eigenvalues not converged
     c_bands:  1 eigenvalues not converged
     c_bands:  2 eigenvalues not converged
     c_bands:  1 eigenvalues not converged
     c_bands:  1 eigenvalues not converged
     c_bands:  1 eigenvalues not converged
     c_bands:  1 eigenvalues not converged
     c_bands:  1 eigenvalues not converged
     c_bands:  2 eigenvalues not converged
     ethr =  2.67E-04,  avg # of iterations = 11.8

[...]

     iteration # 12     ecut=    55.12 Ry     beta= 0.10
     Davidson diagonalization with overlap
     c_bands:  1 eigenvalues not converged
     ethr =  3.64E-07,  avg # of iterations =  2.2

[...]

     total energy              =   -1972.08836877 Ry
     estimated scf accuracy    <       0.00001382 Ry

     iteration # 15     ecut=    55.12 Ry     beta= 0.10
     Davidson diagonalization with overlap
     ethr =  7.94E-09,  avg # of iterations =  5.7

[...]

     Adding external electric field

     Computed dipole along edir(3) :
        Dipole                0.0153 Ry au,          0.0389 Debye
        Dipole field          0.0000 Ry au,

        Potential amp.       -0.0035 Ry
        Total length         45.3374 bohr

     End of self-consistent calculation

          k = 0.0000 0.0000 0.0000 ( 34523 PWs)   bands (ev):

   -76.6885 -76.6858 -76.4787 -76.4762 -76.4374 -76.4348 -44.6038 -44.5999
   -44.5972 -44.5945 -44.5913 -44.5489 -44.4453 -44.4019 -44.3973 -44.3968
   -44.3927 -44.3619 -44.3579 -44.3542 -44.3318 -44.3273 -44.2857 -44.2815
    -7.7883  -7.7497  -7.7471  -7.7070  -7.6908  -7.6759  -7.6399  -7.5999
    -7.4548  -7.4539  -7.4439  -7.4277  -7.4209  -7.4096  -7.3852  -7.3717
    -7.3608  -7.3583  -7.3262  -7.2890  -7.2816  -7.2765  -7.1834  -7.1471
    -7.1419  -7.0750  -6.9962  -6.9105  -6.8334  -6.7901  -6.0426  -4.2940
    -2.8027  -2.7015  -2.3765  -2.2507  -1.0723  -0.9128  -0.8982  -0.8841
    -0.8774  -0.7407  -0.7171  -0.5353  -0.3562  -0.2057  -0.1522  -0.0905
     0.0369   0.0602   0.1770   0.2516   0.3251   0.3646   0.4360   0.5361
     0.5562   0.6035   0.6238   0.6813   0.6956   0.7509   1.0411   1.3703
     1.3897   1.8485   1.8644   2.0783   2.2690   2.2876   2.3079   4.1887
     4.3007   4.5764   4.6714   4.9780   5.3159   5.3797   5.8183   6.0347

[...]

          k = 0.0739-0.0418 0.0000 ( 34408 PWs)   bands (ev):

[...]

          k =-0.0886 0.0313 0.0000 ( 34418 PWs)   bands (ev):

[...]

          k =-0.0886-0.0627 0.0000 ( 34462 PWs)   bands (ev):

   -76.6884 -76.6858 -76.4787 -76.4761 -76.4374 -76.4348 -44.6049 -44.6001
   -44.5977 -44.5957 -44.5902 -44.5490 -44.4456 -44.4023 -44.3975 -44.3974
   -44.3931 -44.3627 -44.3583 -44.3544 -44.3313 -44.3277 -44.2856 -44.2816
    -7.6543  -7.6416  -7.6381  -7.5887  -7.5531  -7.5428  -7.5267  -7.5033
    -7.4750  -7.3594  -7.3563  -7.3478  -7.3358  -7.3350  -7.3346  -7.3164
    -7.2848  -7.2812  -7.2640  -7.2452  -7.2125  -7.1979  -7.1824  -7.1725
    -7.1229  -7.0922  -7.0309  -7.0046  -6.8856  -6.7745  -4.1115  -3.9103
    -2.5192  -2.4727  -2.4721  -2.4427  -2.2883  -1.7588  -1.7015  -1.4791
    -1.3289  -1.1228  -1.0442  -1.0147  -1.0072  -0.9692  -0.7001  -0.5799
    -0.4781  -0.3780  -0.2849  -0.2746  -0.2220  -0.2185  -0.1837   0.0380
     0.1258   0.4690   0.5256   0.5379   0.5742   0.6395   0.9097   1.0426
     1.2253   1.2469   1.9169   2.0458   2.6157   2.6935   3.5388   4.1762
     4.1950   4.5452   6.1532   6.3835   6.4003   6.4539   6.4995   6.8208

     the Fermi energy is     0.8486 ev

!    total energy              =   -1972.08837172 Ry
     estimated scf accuracy    <       0.00000869 Ry
     smearing contrib. (-TS)   =      -0.06368353 Ry
     internal energy E=F+TS    =   -1972.02468819 Ry

     The total energy is F=E-TS. E is the sum of the following terms:
     one-electron contribution =  -15232.10828803 Ry
     hartree contribution      =    7661.58765669 Ry
     xc contribution           =    -327.51645055 Ry
     ewald contribution        =    5926.01239311 Ry
     electric field correction =       0.00000059 Ry

     convergence has been achieved in  15 iterations

     negative rho (up, down):  3.275E-03 0.000E+00

     Forces acting on atoms (cartesian axes, Ry/au):

     atom    1 type  1   force =    -0.00002952   -0.00001289    0.01703509
     atom    2 type  1   force =     0.00002881    0.00000717    0.01708776
     atom    3 type  2   force =    -0.00004328    0.00005220   -0.01458901
     atom    4 type  2   force =     0.00003522   -0.00004948   -0.01459302
     atom    5 type  1   force =    -0.00002999   -0.00002362    0.01247753
     atom    6 type  1   force =     0.00001506    0.00002088    0.01245864
     atom    7 type  2   force =    -0.00004567    0.00006500   -0.01697881
     atom    8 type  2   force =     0.00003844   -0.00006603   -0.01698082
     atom    9 type  1   force =     0.00003650    0.00002149    0.00202630
     atom   10 type  1   force =    -0.00001794   -0.00001441    0.00202113
     atom   11 type  2   force =     0.00005573   -0.00004477    0.00001753
     atom   12 type  2   force =    -0.00004337    0.00004446    0.00001767

     Total force =     0.043632     Total SCF correction =     0.019128
     SCF correction compared to forces is large: reduce conv_thr to get better values

     Writing output data file ./Rh2Cd2/Rh2Cd2_beef.save/

     General routines

     Parallel routines

   This run was terminated on:   2:25:59  11Jul2022

   JOB DONE.