     Program PWSCF v.6.6 starts on 11Jul2022 at  2:30: 6

     R & G space division:  proc/nbgrp/npool/nimage =      37
     Fft bands division:     nmany     =       1
     Reading input from Rh2Hg2.in
Warning: card &CELL ignored
Warning: card / ignored

     Current dimensions of program PWSCF are:
     Max number of different atomic species (ntypx) = 10
     Max number of k-points (npk) =  40000
     Max angular momentum in pseudopotentials (lmaxx) =  3
     Presently stress not available with electric field and gates

     Message from routine cell_base_init:
     DEPRECATED: use true lattice parameter, not A to a.u. conversion factor
     file Rh.pbe-spn-rrkjus_psl.1.0.0.UPF: wavefunction(s)  4S 5S renormalized
     file Hg.pbe-n-rrkjus_psl.1.0.0.UPF: wavefunction(s)  6S renormalized

     IMPORTANT: XC functional enforced from input :
     Exchange-correlation= BEEF-VDW
                           (   1   4  43  14   2   0   0)
     Any further DFT definition will be discarded
     Please, verify this is what you really want

     Subspace diagonalization in iterative solution of the eigenvalue problem:
     a serial algorithm will be used

     bravais-lattice index     =            0
     lattice parameter (alat)  =       1.8897  a.u.
     unit-cell volume          =    5099.2498 (a.u.)^3
     number of atoms/cell      =           12
     number of atomic types    =            2
     number of electrons       =       174.00
     number of Kohn-Sham states=          104
     kinetic-energy cutoff     =      55.1240  Ry
     charge density cutoff     =     551.2396  Ry
     convergence threshold     =      1.0E-05
     mixing beta               =       0.1000
     number of iterations used =           10  plain     mixing
     Exchange-correlation= BEEF-VDW
                           (   1   4  43  14   2   0   0)

     celldm(1)=   1.889726  celldm(2)=   0.000000  celldm(3)=   0.000000
     celldm(4)=   0.000000  celldm(5)=   0.000000  celldm(6)=   0.000000

     crystal axes: (cart. coord. in units of alat)
               a(1) = (   5.701937   0.000000   0.000000 )
               a(2) = (   1.903858   5.374701   0.000000 )
               a(3) = (   0.000000   0.000000  24.656592 )

     reciprocal axes: (cart. coord. in units 2 pi/alat)
               b(1) = (  0.175379 -0.062124  0.000000 )
               b(2) = (  0.000000  0.186057  0.000000 )
               b(3) = (  0.000000  0.000000  0.040557 )

     PseudoPot. # 1 for Rh read from file:
     ../pseudo/Rh.pbe-spn-rrkjus_psl.1.0.0.UPF
     MD5 check sum: 912a852783f0c9b7bd5e9eb06cc0cc10
     Pseudo is Ultrasoft + core correction, Zval = 17.0
     Generated using "atomic" code by A. Dal Corso v.6.3
     Using radial grid of 1233 points,  6 beta functions with:
                l(1) =   0
                l(2) =   0
                l(3) =   1
                l(4) =   1
                l(5) =   2
                l(6) =   2
     Q(r) pseudized with 0 coefficients

     PseudoPot. # 2 for Hg read from file:
     ../pseudo/Hg.pbe-n-rrkjus_psl.1.0.0.UPF
     MD5 check sum: 7519ac2e5b9cac440d3cfd4127d6ea3c
     Pseudo is Ultrasoft + core correction, Zval = 12.0
     Generated using "atomic" code by A. Dal Corso v.6.3
     Using radial grid of 1279 points,  6 beta functions with:
                l(1) =   0
                l(2) =   0
                l(3) =   1
                l(4) =   1
                l(5) =   2
                l(6) =   2
     Q(r) pseudized with 0 coefficients

     atomic species   valence    mass     pseudopotential
        Rh            17.00   102.90550     Rh( 1.00)
        Hg            12.00   200.59200     Hg( 1.00)

     No symmetry found

   Cartesian axes

     site n.     atom                  positions (alat units)
         1           Rh  tau(   1) = (   0.0000000   0.0000000  10.0000000  )
         2           Rh  tau(   2) = (   3.8028978   2.6873505  10.0000000  )
         3           Hg  tau(   3) = (   2.8509686   0.0000000  10.0000000  )
         4           Hg  tau(   4) = (   0.9519292   2.6873505  10.0000000  )
         5           Rh  tau(   5) = (   5.7019371   4.0293229  12.3282960  )
         6           Rh  tau(   6) = (   1.8990393   1.3419725  12.3282960  )
         7           Hg  tau(   7) = (   2.8509686   4.0293229  12.3282960  )
         8           Hg  tau(   8) = (   4.7500079   1.3419725  12.3282960  )
         9           Rh  tau(   9) = (   3.7980857   2.6839471  14.5339697  )
        10           Rh  tau(  10) = (   7.6010228   5.3713245  14.5340294  )
        11           Hg  tau(  11) = (   6.6490652   2.6841092  14.8589438  )
        12           Hg  tau(  12) = (   4.7501766   5.3712582  14.8589415  )

     number of k points=    74  Fermi-Dirac smearing, width (Ry)=  0.0100
                       cart. coord. in units 2pi/alat
        k(    1) = (   0.0000000   0.0000000   0.0000000), wk =   0.0138889
        k(    2) = (   0.0000000   0.0155047   0.0000000), wk =   0.0277778
        k(    3) = (   0.0000000   0.0310095   0.0000000), wk =   0.0277778
        k(    4) = (   0.0000000   0.0465142   0.0000000), wk =   0.0277778
        k(    5) = (   0.0000000   0.0620190   0.0000000), wk =   0.0277778
        k(    6) = (   0.0000000   0.0775237   0.0000000), wk =   0.0277778
        k(    7) = (   0.0000000  -0.0930284   0.0000000), wk =   0.0138889
        k(    8) = (   0.0146149  -0.0051770   0.0000000), wk =   0.0277778
        k(    9) = (   0.0146149   0.0103278   0.0000000), wk =   0.0277778
        k(   10) = (   0.0146149   0.0258325   0.0000000), wk =   0.0277778
        k(   11) = (   0.0146149   0.0413372   0.0000000), wk =   0.0277778
        k(   12) = (   0.0146149   0.0568420   0.0000000), wk =   0.0277778
        k(   13) = (   0.0146149   0.0723467   0.0000000), wk =   0.0277778
        k(   14) = (   0.0146149  -0.0982054   0.0000000), wk =   0.0277778
        k(   15) = (   0.0146149  -0.0827007   0.0000000), wk =   0.0277778
        k(   16) = (   0.0146149  -0.0671959   0.0000000), wk =   0.0277778
        k(   17) = (   0.0146149  -0.0516912   0.0000000), wk =   0.0277778
        k(   18) = (   0.0146149  -0.0361865   0.0000000), wk =   0.0277778
        k(   19) = (   0.0146149  -0.0206817   0.0000000), wk =   0.0277778
        k(   20) = (   0.0292298  -0.0103540   0.0000000), wk =   0.0277778
        k(   21) = (   0.0292298   0.0051508   0.0000000), wk =   0.0277778
        k(   22) = (   0.0292298   0.0206555   0.0000000), wk =   0.0277778
        k(   23) = (   0.0292298   0.0361603   0.0000000), wk =   0.0277778
        k(   24) = (   0.0292298   0.0516650   0.0000000), wk =   0.0277778
        k(   25) = (   0.0292298   0.0671697   0.0000000), wk =   0.0277778
        k(   26) = (   0.0292298  -0.1033824   0.0000000), wk =   0.0277778
        k(   27) = (   0.0292298  -0.0878777   0.0000000), wk =   0.0277778
        k(   28) = (   0.0292298  -0.0723729   0.0000000), wk =   0.0277778
        k(   29) = (   0.0292298  -0.0568682   0.0000000), wk =   0.0277778
        k(   30) = (   0.0292298  -0.0413634   0.0000000), wk =   0.0277778
        k(   31) = (   0.0292298  -0.0258587   0.0000000), wk =   0.0277778
        k(   32) = (   0.0438447  -0.0155309   0.0000000), wk =   0.0277778
        k(   33) = (   0.0438447  -0.0000262   0.0000000), wk =   0.0277778
        k(   34) = (   0.0438447   0.0154785   0.0000000), wk =   0.0277778
        k(   35) = (   0.0438447   0.0309833   0.0000000), wk =   0.0277778
        k(   36) = (   0.0438447   0.0464880   0.0000000), wk =   0.0277778
        k(   37) = (   0.0438447   0.0619927   0.0000000), wk =   0.0277778
        k(   38) = (   0.0438447  -0.1085594   0.0000000), wk =   0.0277778
        k(   39) = (   0.0438447  -0.0930546   0.0000000), wk =   0.0277778
        k(   40) = (   0.0438447  -0.0775499   0.0000000), wk =   0.0277778
        k(   41) = (   0.0438447  -0.0620452   0.0000000), wk =   0.0277778
        k(   42) = (   0.0438447  -0.0465404   0.0000000), wk =   0.0277778
        k(   43) = (   0.0438447  -0.0310357   0.0000000), wk =   0.0277778
        k(   44) = (   0.0584597  -0.0207079   0.0000000), wk =   0.0277778
        k(   45) = (   0.0584597  -0.0052032   0.0000000), wk =   0.0277778
        k(   46) = (   0.0584597   0.0103016   0.0000000), wk =   0.0277778
        k(   47) = (   0.0584597   0.0258063   0.0000000), wk =   0.0277778
        k(   48) = (   0.0584597   0.0413110   0.0000000), wk =   0.0277778
        k(   49) = (   0.0584597   0.0568158   0.0000000), wk =   0.0277778
        k(   50) = (   0.0584597  -0.1137364   0.0000000), wk =   0.0277778
        k(   51) = (   0.0584597  -0.0982316   0.0000000), wk =   0.0277778
        k(   52) = (   0.0584597  -0.0827269   0.0000000), wk =   0.0277778
        k(   53) = (   0.0584597  -0.0672221   0.0000000), wk =   0.0277778
        k(   54) = (   0.0584597  -0.0517174   0.0000000), wk =   0.0277778
        k(   55) = (   0.0584597  -0.0362127   0.0000000), wk =   0.0277778
        k(   56) = (   0.0730746  -0.0258849   0.0000000), wk =   0.0277778
        k(   57) = (   0.0730746  -0.0103802   0.0000000), wk =   0.0277778
        k(   58) = (   0.0730746   0.0051246   0.0000000), wk =   0.0277778
        k(   59) = (   0.0730746   0.0206293   0.0000000), wk =   0.0277778
        k(   60) = (   0.0730746   0.0361340   0.0000000), wk =   0.0277778
        k(   61) = (   0.0730746   0.0516388   0.0000000), wk =   0.0277778
        k(   62) = (   0.0730746  -0.1189133   0.0000000), wk =   0.0277778
        k(   63) = (   0.0730746  -0.1034086   0.0000000), wk =   0.0277778
        k(   64) = (   0.0730746  -0.0879039   0.0000000), wk =   0.0277778
        k(   65) = (   0.0730746  -0.0723991   0.0000000), wk =   0.0277778
        k(   66) = (   0.0730746  -0.0568944   0.0000000), wk =   0.0277778
        k(   67) = (   0.0730746  -0.0413896   0.0000000), wk =   0.0277778
        k(   68) = (  -0.0876895   0.0310619   0.0000000), wk =   0.0138889
        k(   69) = (  -0.0876895   0.0465666   0.0000000), wk =   0.0277778
        k(   70) = (  -0.0876895   0.0620714   0.0000000), wk =   0.0277778
        k(   71) = (  -0.0876895   0.0775761   0.0000000), wk =   0.0277778
        k(   72) = (  -0.0876895   0.0930808   0.0000000), wk =   0.0277778
        k(   73) = (  -0.0876895   0.1085856   0.0000000), wk =   0.0277778
        k(   74) = (  -0.0876895  -0.0619665   0.0000000), wk =   0.0138889

     Initial potential from superposition of free atoms

     starting charge  173.99657, renormalised to  174.00000

     negative rho (up, down):  1.682E-03 0.000E+00

     %%%%%%%%%%%%%%%%%%%%%%%%%%%%%%%%%%%%%%%%%%%%%%%%%%%%%%%%%%%%%%%%%%%%%%%%
     %                                                                      %
     % You are using vdW-DF, which was implemented by the Thonhauser group. %
     % Please cite the following two papers that made this development      %
     % possible and the two reviews that describe the various versions:     %
     %                                                                      %
     %   T. Thonhauser et al., PRL 115, 136402 (2015).                      %
     %   T. Thonhauser et al., PRB 76, 125112 (2007).                       %
     %   K. Berland et al., Rep. Prog. Phys. 78, 066501 (2015).             %
     %   D.C. Langreth et al., J. Phys.: Condens. Matter 21, 084203 (2009). %
     %                                                                      %
     %                                                                      %
     % If you are calculating the stress with vdW-DF, please also cite:     %
     %                                                                      %
     %   R. Sabatini et al., J. Phys.: Condens. Matter 24, 424209 (2012).   %
     %                                                                      %
     %%%%%%%%%%%%%%%%%%%%%%%%%%%%%%%%%%%%%%%%%%%%%%%%%%%%%%%%%%%%%%%%%%%%%%%%

     Adding external electric field

     Computed dipole along edir(3) :
        Dipole               -0.0002 Ry au,         -0.0005 Debye
        Dipole field         -0.0000 Ry au,

        Potential amp.        0.0000 Ry
        Total length         45.4293 bohr

     Starting wfcs are  114 randomized atomic wfcs

     Self-consistent Calculation

     iteration #  1     ecut=    55.12 Ry     beta= 0.10
     Davidson diagonalization with overlap
     ethr =  1.00E-02,  avg # of iterations =  4.8

[...]

     total energy              =   -1971.21732017 Ry
     estimated scf accuracy    <       8.23074723 Ry

[...]

     iteration #  6     ecut=    55.12 Ry     beta= 0.10
     Davidson diagonalization with overlap
     c_bands:  1 eigenvalues not converged
     c_bands:  1 eigenvalues not converged
     c_bands:  1 eigenvalues not converged
     c_bands:  1 eigenvalues not converged
     c_bands:  1 eigenvalues not converged
     ethr =  5.42E-05,  avg # of iterations = 13.3

[...]

     iteration # 10     ecut=    55.12 Ry     beta= 0.10
     Davidson diagonalization with overlap
     c_bands:  1 eigenvalues not converged
     c_bands:  1 eigenvalues not converged
     c_bands:  1 eigenvalues not converged
     c_bands:  1 eigenvalues not converged
     c_bands:  1 eigenvalues not converged
     c_bands:  1 eigenvalues not converged
     c_bands:  1 eigenvalues not converged
     c_bands:  1 eigenvalues not converged
     c_bands:  1 eigenvalues not converged
     ethr =  6.50E-07,  avg # of iterations = 10.7

[...]

     total energy              =   -1971.25913564 Ry
     estimated scf accuracy    <       0.00002031 Ry

     iteration # 16     ecut=    55.12 Ry     beta= 0.10
     Davidson diagonalization with overlap
     ethr =  1.17E-08,  avg # of iterations =  1.6

[...]

     Adding external electric field

     Computed dipole along edir(3) :
        Dipole                0.0009 Ry au,          0.0023 Debye
        Dipole field          0.0000 Ry au,

        Potential amp.       -0.0002 Ry
        Total length         45.4293 bohr

     End of self-consistent calculation

          k = 0.0000 0.0000 0.0000 ( 35225 PWs)   bands (ev):

   -76.6014 -76.5992 -76.4921 -76.4899 -76.4331 -76.4309 -44.5424 -44.5389
   -44.5046 -44.4922 -44.4905 -44.4622 -44.4553 -44.4131 -44.3991 -44.3961
   -44.3947 -44.3610 -44.3572 -44.3542 -44.3465 -44.3427 -44.2705 -44.2669
    -6.8419  -6.5199  -6.4909  -6.4605  -6.4197  -6.3399  -6.3252  -6.2273
    -6.1717  -6.1440  -6.0787  -6.0055  -5.9697  -5.8894  -5.8671  -5.8494
    -5.7691  -5.7591  -5.7308  -5.6251  -5.5916  -5.5764  -5.5074  -5.4691
    -5.4659  -5.3135  -5.1929  -5.1626  -5.0769  -4.9844  -4.8697  -4.6225
    -3.1020  -2.9358  -2.5860  -2.4031  -0.8587  -0.7189  -0.6303  -0.5651
    -0.5585  -0.5340  -0.3938  -0.2366  -0.1694  -0.0423   0.0084   0.1165
     0.1809   0.2758   0.3186   0.3211   0.4027   0.6274   0.6537   0.6657
     0.6896   0.7799   0.7975   0.8219   0.8717   0.8880   1.0571   1.5291
     1.5632   1.9363   2.0358   2.1573   2.2460   2.3114   2.5270   3.1407
     3.7743   4.4189   4.7572   5.2241   5.5193   5.8440   5.8937   5.9482

[...]

          k = 0.0731-0.0414 0.0000 ( 35248 PWs)   bands (ev):

[...]

          k =-0.0877 0.0311 0.0000 ( 35282 PWs)   bands (ev):

[...]

          k =-0.0877-0.0620 0.0000 ( 35238 PWs)   bands (ev):

   -76.6014 -76.5992 -76.4921 -76.4899 -76.4331 -76.4309 -44.5436 -44.5395
   -44.5054 -44.4944 -44.4885 -44.4623 -44.4556 -44.4135 -44.3989 -44.3967
   -44.3961 -44.3616 -44.3581 -44.3545 -44.3462 -44.3429 -44.2705 -44.2670
    -6.4532  -6.2821  -6.2103  -6.1613  -6.1157  -6.0823  -6.0816  -6.0809
    -6.0562  -5.9223  -5.8704  -5.8537  -5.8081  -5.7591  -5.7227  -5.6908
    -5.6716  -5.6037  -5.5990  -5.5947  -5.4986  -5.4892  -5.4034  -5.3624
    -5.3452  -5.3061  -5.1874  -5.1666  -5.0311  -4.8602  -4.4868  -4.1991
    -3.1122  -2.9240  -2.4252  -2.2944  -2.2574  -1.5639  -1.5092  -1.4621
    -1.1459  -0.9939  -0.9508  -0.9329  -0.8663  -0.8405  -0.8321  -0.6749
    -0.5101  -0.2729  -0.2408  -0.2084  -0.1817  -0.1493  -0.0713   0.1467
     0.1495   0.5143   0.5623   0.6051   0.6686   0.7837   0.9447   0.9590
     1.0693   1.2847   1.9103   2.0155   2.5307   2.6505   2.6920   4.2912
     4.3844   4.7682   5.8367   6.2733   6.4413   6.6254   7.0135   7.1537

     the Fermi energy is     0.9309 ev

!    total energy              =   -1971.25913697 Ry
     estimated scf accuracy    <       0.00000498 Ry
     smearing contrib. (-TS)   =      -0.07248542 Ry
     internal energy E=F+TS    =   -1971.18665155 Ry

     The total energy is F=E-TS. E is the sum of the following terms:
     one-electron contribution =  -14716.03087129 Ry
     hartree contribution      =    7404.43206552 Ry
     xc contribution           =    -385.47839951 Ry
     ewald contribution        =    5725.89055373 Ry
     electric field correction =       0.00000000 Ry

     convergence has been achieved in  16 iterations

     negative rho (up, down):  1.676E-03 0.000E+00

     Forces acting on atoms (cartesian axes, Ry/au):

     atom    1 type  1   force =     0.00004684    0.00003330    0.02346013
     atom    2 type  1   force =     0.00004248    0.00002722    0.02349239
     atom    3 type  2   force =    -0.00005943   -0.00004644   -0.02330300
     atom    4 type  2   force =    -0.00006200   -0.00003875   -0.02331192
     atom    5 type  1   force =    -0.00004432   -0.00003214    0.01671799
     atom    6 type  1   force =    -0.00003040   -0.00002116    0.01672884
     atom    7 type  2   force =     0.00003351    0.00006176   -0.01545287
     atom    8 type  2   force =     0.00006553    0.00001700   -0.01545710
     atom    9 type  1   force =    -0.00005604   -0.00003705   -0.00169819
     atom   10 type  1   force =    -0.00001912   -0.00002111   -0.00171141
     atom   11 type  2   force =     0.00005274    0.00001189    0.00026988
     atom   12 type  2   force =     0.00003020    0.00004546    0.00026527

     Total force =     0.056849     Total SCF correction =     0.011254
     SCF correction compared to forces is large: reduce conv_thr to get better values

     Writing output data file ./Rh2Hg2/Rh2Hg2_beef.save/

     General routines

     Parallel routines

   This run was terminated on:  13:25:51  11Jul2022

   JOB DONE.