     Program PWSCF v.6.6 starts on 25Jun2022 at 13:19: 0

     R & G space division:  proc/nbgrp/npool/nimage =      37
     Fft bands division:     nmany     =       1
     Reading input from Rh2Hf2.in
Warning: card &CELL ignored
Warning: card / ignored

     Current dimensions of program PWSCF are:
     Max number of different atomic species (ntypx) = 10
     Max number of k-points (npk) =  40000
     Max angular momentum in pseudopotentials (lmaxx) =  3
     Presently stress not available with electric field and gates

     Message from routine cell_base_init:
     DEPRECATED: use true lattice parameter, not A to a.u. conversion factor
     file Rh.pbe-spn-rrkjus_psl.1.0.0.UPF: wavefunction(s)  4S 5S renormalized

     IMPORTANT: XC functional enforced from input :
     Exchange-correlation= BEEF-VDW
                           (   1   4  43  14   2   0   0)
     Any further DFT definition will be discarded
     Please, verify this is what you really want

     Subspace diagonalization in iterative solution of the eigenvalue problem:
     a serial algorithm will be used

     Found symmetry operation: I + (  0.5000 -0.5000  0.0000)
     This is a supercell, fractional translations are disabled

     bravais-lattice index     =            0
     lattice parameter (alat)  =       1.8897  a.u.
     unit-cell volume          =    5014.1804 (a.u.)^3
     number of atoms/cell      =           12
     number of atomic types    =            2
     number of electrons       =       174.00
     number of Kohn-Sham states=          104
     kinetic-energy cutoff     =      55.1240  Ry
     charge density cutoff     =     551.2396  Ry
     convergence threshold     =      1.0E-05
     mixing beta               =       0.1000
     number of iterations used =           10  plain     mixing
     Exchange-correlation= BEEF-VDW
                           (   1   4  43  14   2   0   0)

     celldm(1)=   1.889726  celldm(2)=   0.000000  celldm(3)=   0.000000
     celldm(4)=   0.000000  celldm(5)=   0.000000  celldm(6)=   0.000000

     crystal axes: (cart. coord. in units of alat)
               a(1) = (   5.670079   0.000000   0.000000 )
               a(2) = (   1.973366   5.315601   0.000000 )
               a(3) = (   0.000000   0.000000  24.652556 )

     reciprocal axes: (cart. coord. in units 2 pi/alat)
               b(1) = (  0.176364 -0.065474  0.000000 )
               b(2) = (  0.000000  0.188125  0.000000 )
               b(3) = (  0.000000  0.000000  0.040564 )

     PseudoPot. # 1 for Rh read from file:
     ../pseudo/Rh.pbe-spn-rrkjus_psl.1.0.0.UPF
     MD5 check sum: 912a852783f0c9b7bd5e9eb06cc0cc10
     Pseudo is Ultrasoft + core correction, Zval = 17.0
     Generated using "atomic" code by A. Dal Corso v.6.3
     Using radial grid of 1233 points,  6 beta functions with:
                l(1) =   0
                l(2) =   0
                l(3) =   1
                l(4) =   1
                l(5) =   2
                l(6) =   2
     Q(r) pseudized with 0 coefficients

     PseudoPot. # 2 for Hf read from file:
     ../pseudo/Hf.pbe-spn-rrkjus_psl.1.0.0.UPF
     MD5 check sum: 9605440c6f839e558204c6a924125fd0
     Pseudo is Ultrasoft + core correction, Zval = 12.0
     Generated using "atomic" code by A. Dal Corso v.6.2.2
     Using radial grid of 1271 points,  6 beta functions with:
                l(1) =   0
                l(2) =   0
                l(3) =   1
                l(4) =   1
                l(5) =   2
                l(6) =   2
     Q(r) pseudized with 0 coefficients

     atomic species   valence    mass     pseudopotential
        Rh            17.00   102.90550     Rh( 1.00)
        Hf            12.00   178.49000     Hf( 1.00)

     No symmetry found

   Cartesian axes

     site n.     atom                  positions (alat units)
         1           Rh  tau(   1) = (   0.0000000   0.0000000  10.0000000  )
         2           Rh  tau(   2) = (   3.8217222   2.6578007  10.0000000  )
         3           Hf  tau(   3) = (   2.8350393   0.0000000  10.0000000  )
         4           Hf  tau(   4) = (   0.9866829   2.6578007  10.0000000  )
         5           Rh  tau(   5) = (   5.6700785   3.9432324  12.3262781  )
         6           Rh  tau(   6) = (   1.8483563   1.2854317  12.3262781  )
         7           Hf  tau(   7) = (   2.8350393   3.9432324  12.3262781  )
         8           Hf  tau(   8) = (   4.6833956   1.2854317  12.3262781  )
         9           Rh  tau(   9) = (   3.7533754   2.6102714  14.4439706  )
        10           Rh  tau(  10) = (   7.5751004   5.2680698  14.4439741  )
        11           Hf  tau(  11) = (   6.5926822   2.6132320  14.6566396  )
        12           Hf  tau(  12) = (   4.7443275   5.2710435  14.6566423  )

     number of k points=    74  Fermi-Dirac smearing, width (Ry)=  0.0100
                       cart. coord. in units 2pi/alat
        k(    1) = (   0.0000000   0.0000000   0.0000000), wk =   0.0138889
        k(    2) = (   0.0000000   0.0156771   0.0000000), wk =   0.0277778
        k(    3) = (   0.0000000   0.0313542   0.0000000), wk =   0.0277778
        k(    4) = (   0.0000000   0.0470314   0.0000000), wk =   0.0277778
        k(    5) = (   0.0000000   0.0627085   0.0000000), wk =   0.0277778
        k(    6) = (   0.0000000   0.0783856   0.0000000), wk =   0.0277778
        k(    7) = (   0.0000000  -0.0940627   0.0000000), wk =   0.0138889
        k(    8) = (   0.0146970  -0.0054561   0.0000000), wk =   0.0277778
        k(    9) = (   0.0146970   0.0102210   0.0000000), wk =   0.0277778
        k(   10) = (   0.0146970   0.0258981   0.0000000), wk =   0.0277778
        k(   11) = (   0.0146970   0.0415752   0.0000000), wk =   0.0277778
        k(   12) = (   0.0146970   0.0572524   0.0000000), wk =   0.0277778
        k(   13) = (   0.0146970   0.0729295   0.0000000), wk =   0.0277778
        k(   14) = (   0.0146970  -0.0995189   0.0000000), wk =   0.0277778
        k(   15) = (   0.0146970  -0.0838418   0.0000000), wk =   0.0277778
        k(   16) = (   0.0146970  -0.0681646   0.0000000), wk =   0.0277778
        k(   17) = (   0.0146970  -0.0524875   0.0000000), wk =   0.0277778
        k(   18) = (   0.0146970  -0.0368104   0.0000000), wk =   0.0277778
        k(   19) = (   0.0146970  -0.0211333   0.0000000), wk =   0.0277778
        k(   20) = (   0.0293941  -0.0109123   0.0000000), wk =   0.0277778
        k(   21) = (   0.0293941   0.0047649   0.0000000), wk =   0.0277778
        k(   22) = (   0.0293941   0.0204420   0.0000000), wk =   0.0277778
        k(   23) = (   0.0293941   0.0361191   0.0000000), wk =   0.0277778
        k(   24) = (   0.0293941   0.0517962   0.0000000), wk =   0.0277778
        k(   25) = (   0.0293941   0.0674734   0.0000000), wk =   0.0277778
        k(   26) = (   0.0293941  -0.1049750   0.0000000), wk =   0.0277778
        k(   27) = (   0.0293941  -0.0892979   0.0000000), wk =   0.0277778
        k(   28) = (   0.0293941  -0.0736208   0.0000000), wk =   0.0277778
        k(   29) = (   0.0293941  -0.0579436   0.0000000), wk =   0.0277778
        k(   30) = (   0.0293941  -0.0422665   0.0000000), wk =   0.0277778
        k(   31) = (   0.0293941  -0.0265894   0.0000000), wk =   0.0277778
        k(   32) = (   0.0440911  -0.0163684   0.0000000), wk =   0.0277778
        k(   33) = (   0.0440911  -0.0006913   0.0000000), wk =   0.0277778
        k(   34) = (   0.0440911   0.0149858   0.0000000), wk =   0.0277778
        k(   35) = (   0.0440911   0.0306630   0.0000000), wk =   0.0277778
        k(   36) = (   0.0440911   0.0463401   0.0000000), wk =   0.0277778
        k(   37) = (   0.0440911   0.0620172   0.0000000), wk =   0.0277778
        k(   38) = (   0.0440911  -0.1104311   0.0000000), wk =   0.0277778
        k(   39) = (   0.0440911  -0.0947540   0.0000000), wk =   0.0277778
        k(   40) = (   0.0440911  -0.0790769   0.0000000), wk =   0.0277778
        k(   41) = (   0.0440911  -0.0633998   0.0000000), wk =   0.0277778
        k(   42) = (   0.0440911  -0.0477226   0.0000000), wk =   0.0277778
        k(   43) = (   0.0440911  -0.0320455   0.0000000), wk =   0.0277778
        k(   44) = (   0.0587881  -0.0218245   0.0000000), wk =   0.0277778
        k(   45) = (   0.0587881  -0.0061474   0.0000000), wk =   0.0277778
        k(   46) = (   0.0587881   0.0095297   0.0000000), wk =   0.0277778
        k(   47) = (   0.0587881   0.0252068   0.0000000), wk =   0.0277778
        k(   48) = (   0.0587881   0.0408840   0.0000000), wk =   0.0277778
        k(   49) = (   0.0587881   0.0565611   0.0000000), wk =   0.0277778
        k(   50) = (   0.0587881  -0.1158873   0.0000000), wk =   0.0277778
        k(   51) = (   0.0587881  -0.1002101   0.0000000), wk =   0.0277778
        k(   52) = (   0.0587881  -0.0845330   0.0000000), wk =   0.0277778
        k(   53) = (   0.0587881  -0.0688559   0.0000000), wk =   0.0277778
        k(   54) = (   0.0587881  -0.0531788   0.0000000), wk =   0.0277778
        k(   55) = (   0.0587881  -0.0375017   0.0000000), wk =   0.0277778
        k(   56) = (   0.0734852  -0.0272807   0.0000000), wk =   0.0277778
        k(   57) = (   0.0734852  -0.0116035   0.0000000), wk =   0.0277778
        k(   58) = (   0.0734852   0.0040736   0.0000000), wk =   0.0277778
        k(   59) = (   0.0734852   0.0197507   0.0000000), wk =   0.0277778
        k(   60) = (   0.0734852   0.0354278   0.0000000), wk =   0.0277778
        k(   61) = (   0.0734852   0.0511050   0.0000000), wk =   0.0277778
        k(   62) = (   0.0734852  -0.1213434   0.0000000), wk =   0.0277778
        k(   63) = (   0.0734852  -0.1056663   0.0000000), wk =   0.0277778
        k(   64) = (   0.0734852  -0.0899892   0.0000000), wk =   0.0277778
        k(   65) = (   0.0734852  -0.0743120   0.0000000), wk =   0.0277778
        k(   66) = (   0.0734852  -0.0586349   0.0000000), wk =   0.0277778
        k(   67) = (   0.0734852  -0.0429578   0.0000000), wk =   0.0277778
        k(   68) = (  -0.0881822   0.0327368   0.0000000), wk =   0.0138889
        k(   69) = (  -0.0881822   0.0484139   0.0000000), wk =   0.0277778
        k(   70) = (  -0.0881822   0.0640910   0.0000000), wk =   0.0277778
        k(   71) = (  -0.0881822   0.0797682   0.0000000), wk =   0.0277778
        k(   72) = (  -0.0881822   0.0954453   0.0000000), wk =   0.0277778
        k(   73) = (  -0.0881822   0.1111224   0.0000000), wk =   0.0277778
        k(   74) = (  -0.0881822  -0.0613259   0.0000000), wk =   0.0138889

     Initial potential from superposition of free atoms

     starting charge  173.98543, renormalised to  174.00000

     negative rho (up, down):  1.177E-03 0.000E+00

     %%%%%%%%%%%%%%%%%%%%%%%%%%%%%%%%%%%%%%%%%%%%%%%%%%%%%%%%%%%%%%%%%%%%%%%%
     %                                                                      %
     % You are using vdW-DF, which was implemented by the Thonhauser group. %
     % Please cite the following two papers that made this development      %
     % possible and the two reviews that describe the various versions:     %
     %                                                                      %
     %   T. Thonhauser et al., PRL 115, 136402 (2015).                      %
     %   T. Thonhauser et al., PRB 76, 125112 (2007).                       %
     %   K. Berland et al., Rep. Prog. Phys. 78, 066501 (2015).             %
     %   D.C. Langreth et al., J. Phys.: Condens. Matter 21, 084203 (2009). %
     %                                                                      %
     %                                                                      %
     % If you are calculating the stress with vdW-DF, please also cite:     %
     %                                                                      %
     %   R. Sabatini et al., J. Phys.: Condens. Matter 24, 424209 (2012).   %
     %                                                                      %
     %%%%%%%%%%%%%%%%%%%%%%%%%%%%%%%%%%%%%%%%%%%%%%%%%%%%%%%%%%%%%%%%%%%%%%%%

     Adding external electric field

     Computed dipole along edir(3) :
        Dipole                0.0008 Ry au,          0.0019 Debye
        Dipole field          0.0000 Ry au,

        Potential amp.       -0.0002 Ry
        Total length         45.4219 bohr

     Starting wfcs are  120 randomized atomic wfcs

     Self-consistent Calculation

     iteration #  1     ecut=    55.12 Ry     beta= 0.10
     Davidson diagonalization with overlap
     ethr =  1.00E-02,  avg # of iterations =  3.2

[...]

     total energy              =   -2122.40741928 Ry
     estimated scf accuracy    <       9.13107359 Ry

[...]

     iteration # 11     ecut=    55.12 Ry     beta= 0.10
     Davidson diagonalization with overlap
     c_bands:  1 eigenvalues not converged
     ethr =  1.15E-06,  avg # of iterations =  9.7

[...]

     total energy              =   -2122.59394421 Ry
     estimated scf accuracy    <       0.00003528 Ry

     iteration # 17     ecut=    55.12 Ry     beta= 0.10
     Davidson diagonalization with overlap
     ethr =  2.03E-08,  avg # of iterations =  3.6

[...]

     Adding external electric field

     Computed dipole along edir(3) :
        Dipole                0.0924 Ry au,          0.2348 Debye
        Dipole field          0.0002 Ry au,

        Potential amp.       -0.0210 Ry
        Total length         45.4219 bohr

     End of self-consistent calculation

          k = 0.0000 0.0000 0.0000 ( 34661 PWs)   bands (ev):

   -76.8293 -76.8263 -76.4763 -76.4733 -76.2799 -76.2770 -61.1977 -61.1837
   -61.1652 -61.1512 -60.6267 -60.6122 -44.7449 -44.7033 -44.6997 -44.6904
   -44.6791 -44.6736 -44.4000 -44.3944 -44.3894 -44.3348 -44.2898 -44.2856
   -44.2617 -44.2562 -44.1752 -44.1219 -44.0396 -44.0351 -29.7735 -29.7457
   -29.7278 -29.6987 -29.6930 -29.6745 -29.5752 -29.5517 -29.5393 -29.5149
   -29.3799 -29.3617 -29.2856 -29.1215 -29.0953 -29.0867 -29.0472 -28.9592
    -4.9836  -3.3455  -2.9312  -2.7275  -2.6343  -2.5847  -2.4732  -2.3492
    -2.2936  -2.2827  -1.8492  -1.7000  -1.4380  -1.2937  -1.1871  -1.1273
    -1.0366  -0.9359  -0.8435  -0.8344  -0.6536  -0.6253  -0.4446  -0.1095
    -0.0787   0.0597   0.0872   0.1607   0.6096   0.7187   0.7392   1.0218
     1.0914   1.2376   1.9347   2.0938   2.3288   2.3442   2.5373   2.7076
     2.8488   2.9879   3.0182   3.2504   3.3417   3.4467   3.4959   3.5273
     3.5914   3.8462   4.1392   4.2885   4.4336   4.7442   4.7838   4.8008

[...]

          k = 0.0735-0.0430 0.0000 ( 34631 PWs)   bands (ev):

[...]

          k =-0.0882 0.0327 0.0000 ( 34630 PWs)   bands (ev):

[...]

          k =-0.0882-0.0613 0.0000 ( 34638 PWs)   bands (ev):

   -76.8292 -76.8264 -76.4763 -76.4733 -76.2799 -76.2770 -61.1980 -61.1839
   -61.1656 -61.1514 -60.6273 -60.6122 -44.7427 -44.7040 -44.6986 -44.6900
   -44.6753 -44.6720 -44.3968 -44.3930 -44.3873 -44.3346 -44.2894 -44.2864
   -44.2581 -44.2546 -44.1730 -44.1215 -44.0395 -44.0352 -29.7821 -29.7443
   -29.7281 -29.7047 -29.6959 -29.6865 -29.6008 -29.5611 -29.5599 -29.5238
   -29.3832 -29.3652 -29.2964 -29.1406 -29.1041 -29.0732 -29.0566 -28.9636
    -3.0708  -3.0264  -1.9721  -1.9147  -1.8782  -1.8537  -1.8297  -1.7866
    -1.6502  -1.4086  -1.2779  -1.1487  -1.0898  -1.0722  -0.8856  -0.8278
    -0.6774  -0.5990  -0.5692  -0.4398  -0.4346  -0.3162  -0.2828  -0.2629
    -0.1746  -0.0865   0.0371   0.1090   0.1186   0.2020   0.4270   0.5075
     0.7199   0.8988   0.9956   1.0111   1.1250   1.2311   1.2791   1.2907
     1.7811   1.7893   2.3458   2.4711   2.5244   2.5592   2.6270   3.0522
     3.0824   3.1706   3.3108   3.5149   3.7018   3.9536   3.9689   3.9761

     the Fermi energy is     2.1341 ev

!    total energy              =   -2122.59394786 Ry
     estimated scf accuracy    <       0.00000094 Ry
     smearing contrib. (-TS)   =      -0.03927591 Ry
     internal energy E=F+TS    =   -2122.55467195 Ry

     The total energy is F=E-TS. E is the sum of the following terms:
     one-electron contribution =  -15317.56115715 Ry
     hartree contribution      =    7652.62652688 Ry
     xc contribution           =    -441.13073793 Ry
     ewald contribution        =    5983.51067487 Ry
     electric field correction =       0.00002138 Ry

     convergence has been achieved in  17 iterations

     negative rho (up, down):  1.089E-03 0.000E+00

     Forces acting on atoms (cartesian axes, Ry/au):

     atom    1 type  1   force =    -0.00095809   -0.00066651    0.04655871
     atom    2 type  1   force =    -0.00096048   -0.00066807    0.04654558
     atom    3 type  2   force =    -0.00586742   -0.00407743   -0.01157022
     atom    4 type  2   force =    -0.00586454   -0.00408142   -0.01157038
     atom    5 type  1   force =     0.00147680    0.00102549   -0.00401148
     atom    6 type  1   force =     0.00147137    0.00102428   -0.00402124
     atom    7 type  2   force =     0.00508159    0.00352899   -0.02682922
     atom    8 type  2   force =     0.00507730    0.00353641   -0.02682916
     atom    9 type  1   force =     0.00073505    0.00051143   -0.00325414
     atom   10 type  1   force =     0.00073784    0.00051324   -0.00325943
     atom   11 type  2   force =    -0.00047062   -0.00031379   -0.00087941
     atom   12 type  2   force =    -0.00045880   -0.00033262   -0.00087961

     Total force =     0.079289     Total SCF correction =     0.005228

     Writing output data file ./Rh2Hf2/Rh2Hf2_beef.save/

     General routines

     Parallel routines

   This run was terminated on:  14:53:16  25Jun2022

   JOB DONE.