     Program PWSCF v.6.6 starts on 11Jul2022 at 13:26:15

     R & G space division:  proc/nbgrp/npool/nimage =      37
     Fft bands division:     nmany     =       1
     Reading input from Rh2Os2.in
Warning: card &CELL ignored
Warning: card / ignored

     Current dimensions of program PWSCF are:
     Max number of different atomic species (ntypx) = 10
     Max number of k-points (npk) =  40000
     Max angular momentum in pseudopotentials (lmaxx) =  3
     Presently stress not available with electric field and gates

     Message from routine cell_base_init:
     DEPRECATED: use true lattice parameter, not A to a.u. conversion factor
     file Rh.pbe-spn-rrkjus_psl.1.0.0.UPF: wavefunction(s)  4S 5S renormalized

     IMPORTANT: XC functional enforced from input :
     Exchange-correlation= BEEF-VDW
                           (   1   4  43  14   2   0   0)
     Any further DFT definition will be discarded
     Please, verify this is what you really want

     Subspace diagonalization in iterative solution of the eigenvalue problem:
     a serial algorithm will be used

     Found symmetry operation: I + (  0.5000  0.0000  0.0000)
     This is a supercell, fractional translations are disabled

     bravais-lattice index     =            0
     lattice parameter (alat)  =       1.8897  a.u.
     unit-cell volume          =    4236.7278 (a.u.)^3
     number of atoms/cell      =           12
     number of atomic types    =            2
     number of electrons       =       198.00
     number of Kohn-Sham states=          119
     kinetic-energy cutoff     =      55.1240  Ry
     charge density cutoff     =     551.2396  Ry
     convergence threshold     =      1.0E-05
     mixing beta               =       0.1000
     number of iterations used =           10  plain     mixing
     Exchange-correlation= BEEF-VDW
                           (   1   4  43  14   2   0   0)

     celldm(1)=   1.889726  celldm(2)=   0.000000  celldm(3)=   0.000000
     celldm(4)=   0.000000  celldm(5)=   0.000000  celldm(6)=   0.000000

     crystal axes: (cart. coord. in units of alat)
               a(1) = (   5.398192   0.000000   0.000000 )
               a(2) = (  -2.699096   4.757609   0.000000 )
               a(3) = (   0.000000   0.000000  24.445390 )

     reciprocal axes: (cart. coord. in units 2 pi/alat)
               b(1) = (  0.185247  0.105095 -0.000000 )
               b(2) = (  0.000000  0.210190  0.000000 )
               b(3) = (  0.000000 -0.000000  0.040908 )

     PseudoPot. # 1 for Rh read from file:
     ../pseudo/Rh.pbe-spn-rrkjus_psl.1.0.0.UPF
     MD5 check sum: 912a852783f0c9b7bd5e9eb06cc0cc10
     Pseudo is Ultrasoft + core correction, Zval = 17.0
     Generated using "atomic" code by A. Dal Corso v.6.3
     Using radial grid of 1233 points,  6 beta functions with:
                l(1) =   0
                l(2) =   0
                l(3) =   1
                l(4) =   1
                l(5) =   2
                l(6) =   2
     Q(r) pseudized with 0 coefficients

     PseudoPot. # 2 for Os read from file:
     ../pseudo/Os.pbe-spn-rrkjus_psl.1.0.0.UPF
     MD5 check sum: 3e7416ed594f6513d36e5cb31ba709d9
     Pseudo is Ultrasoft + core correction, Zval = 16.0
     Generated using "atomic" code by A. Dal Corso v.6.2.2
     Using radial grid of 1275 points,  6 beta functions with:
                l(1) =   0
                l(2) =   0
                l(3) =   1
                l(4) =   1
                l(5) =   2
                l(6) =   2
     Q(r) pseudized with 0 coefficients

     atomic species   valence    mass     pseudopotential
        Rh            17.00   102.90550     Rh( 1.00)
        Os            16.00   190.23000     Os( 1.00)

     No symmetry found

   Cartesian axes

     site n.     atom                  positions (alat units)
         1           Rh  tau(   1) = (   0.0000000   0.0000000  10.0000000  )
         2           Rh  tau(   2) = (   2.6990959   0.0000000  10.0000000  )
         3           Os  tau(   3) = (   1.3495479   2.3788047  10.0000000  )
         4           Os  tau(   4) = (  -1.3495479   2.3788047  10.0000000  )
         5           Rh  tau(   5) = (   2.6990959   1.5312562  12.2226950  )
         6           Rh  tau(   6) = (  -0.0000000   1.5312562  12.2226950  )
         7           Os  tau(   7) = (  -1.3495479   3.9100608  12.2226950  )
         8           Os  tau(   8) = (   1.3495479   3.9100608  12.2226950  )
         9           Rh  tau(   9) = (  -0.0000006   3.1249606  14.3772730  )
        10           Rh  tau(  10) = (   2.6990971   3.1249584  14.3772746  )
        11           Os  tau(  11) = (   4.0486448   0.6549519  14.3615618  )
        12           Os  tau(  12) = (   1.3495463   0.6549539  14.3615664  )

     number of k points=    74  Fermi-Dirac smearing, width (Ry)=  0.0100
                       cart. coord. in units 2pi/alat
        k(    1) = (   0.0000000   0.0000000   0.0000000), wk =   0.0138889
        k(    2) = (   0.0000000   0.0175158   0.0000000), wk =   0.0277778
        k(    3) = (   0.0000000   0.0350316   0.0000000), wk =   0.0277778
        k(    4) = (   0.0000000   0.0525474   0.0000000), wk =   0.0277778
        k(    5) = (   0.0000000   0.0700632   0.0000000), wk =   0.0277778
        k(    6) = (   0.0000000   0.0875790   0.0000000), wk =   0.0277778
        k(    7) = (   0.0000000  -0.1050948   0.0000000), wk =   0.0138889
        k(    8) = (   0.0154373   0.0087579   0.0000000), wk =   0.0277778
        k(    9) = (   0.0154373   0.0262737   0.0000000), wk =   0.0277778
        k(   10) = (   0.0154373   0.0437895   0.0000000), wk =   0.0277778
        k(   11) = (   0.0154373   0.0613053   0.0000000), wk =   0.0277778
        k(   12) = (   0.0154373   0.0788211   0.0000000), wk =   0.0277778
        k(   13) = (   0.0154373   0.0963369   0.0000000), wk =   0.0277778
        k(   14) = (   0.0154373  -0.0963369   0.0000000), wk =   0.0277778
        k(   15) = (   0.0154373  -0.0788211   0.0000000), wk =   0.0277778
        k(   16) = (   0.0154373  -0.0613053   0.0000000), wk =   0.0277778
        k(   17) = (   0.0154373  -0.0437895   0.0000000), wk =   0.0277778
        k(   18) = (   0.0154373  -0.0262737   0.0000000), wk =   0.0277778
        k(   19) = (   0.0154373  -0.0087579   0.0000000), wk =   0.0277778
        k(   20) = (   0.0308745   0.0175158   0.0000000), wk =   0.0277778
        k(   21) = (   0.0308745   0.0350316   0.0000000), wk =   0.0277778
        k(   22) = (   0.0308745   0.0525474   0.0000000), wk =   0.0277778
        k(   23) = (   0.0308745   0.0700632   0.0000000), wk =   0.0277778
        k(   24) = (   0.0308745   0.0875790   0.0000000), wk =   0.0277778
        k(   25) = (   0.0308745   0.1050948   0.0000000), wk =   0.0277778
        k(   26) = (   0.0308745  -0.0875790   0.0000000), wk =   0.0277778
        k(   27) = (   0.0308745  -0.0700632   0.0000000), wk =   0.0277778
        k(   28) = (   0.0308745  -0.0525474   0.0000000), wk =   0.0277778
        k(   29) = (   0.0308745  -0.0350316   0.0000000), wk =   0.0277778
        k(   30) = (   0.0308745  -0.0175158   0.0000000), wk =   0.0277778
        k(   31) = (   0.0308745  -0.0000000   0.0000000), wk =   0.0277778
        k(   32) = (   0.0463118   0.0262737   0.0000000), wk =   0.0277778
        k(   33) = (   0.0463118   0.0437895   0.0000000), wk =   0.0277778
        k(   34) = (   0.0463118   0.0613053   0.0000000), wk =   0.0277778
        k(   35) = (   0.0463118   0.0788211   0.0000000), wk =   0.0277778
        k(   36) = (   0.0463118   0.0963369   0.0000000), wk =   0.0277778
        k(   37) = (   0.0463118   0.1138527   0.0000000), wk =   0.0277778
        k(   38) = (   0.0463118  -0.0788211   0.0000000), wk =   0.0277778
        k(   39) = (   0.0463118  -0.0613053   0.0000000), wk =   0.0277778
        k(   40) = (   0.0463118  -0.0437895   0.0000000), wk =   0.0277778
        k(   41) = (   0.0463118  -0.0262737   0.0000000), wk =   0.0277778
        k(   42) = (   0.0463118  -0.0087579   0.0000000), wk =   0.0277778
        k(   43) = (   0.0463118   0.0087579   0.0000000), wk =   0.0277778
        k(   44) = (   0.0617491   0.0350316   0.0000000), wk =   0.0277778
        k(   45) = (   0.0617491   0.0525474   0.0000000), wk =   0.0277778
        k(   46) = (   0.0617491   0.0700632   0.0000000), wk =   0.0277778
        k(   47) = (   0.0617491   0.0875790   0.0000000), wk =   0.0277778
        k(   48) = (   0.0617491   0.1050948   0.0000000), wk =   0.0277778
        k(   49) = (   0.0617491   0.1226106   0.0000000), wk =   0.0277778
        k(   50) = (   0.0617491  -0.0700632   0.0000000), wk =   0.0277778
        k(   51) = (   0.0617491  -0.0525474   0.0000000), wk =   0.0277778
        k(   52) = (   0.0617491  -0.0350316   0.0000000), wk =   0.0277778
        k(   53) = (   0.0617491  -0.0175158   0.0000000), wk =   0.0277778
        k(   54) = (   0.0617491   0.0000000   0.0000000), wk =   0.0277778
        k(   55) = (   0.0617491   0.0175158   0.0000000), wk =   0.0277778
        k(   56) = (   0.0771863   0.0437895   0.0000000), wk =   0.0277778
        k(   57) = (   0.0771863   0.0613053   0.0000000), wk =   0.0277778
        k(   58) = (   0.0771863   0.0788211   0.0000000), wk =   0.0277778
        k(   59) = (   0.0771863   0.0963369   0.0000000), wk =   0.0277778
        k(   60) = (   0.0771863   0.1138527   0.0000000), wk =   0.0277778
        k(   61) = (   0.0771863   0.1313685   0.0000000), wk =   0.0277778
        k(   62) = (   0.0771863  -0.0613053   0.0000000), wk =   0.0277778
        k(   63) = (   0.0771863  -0.0437895   0.0000000), wk =   0.0277778
        k(   64) = (   0.0771863  -0.0262737   0.0000000), wk =   0.0277778
        k(   65) = (   0.0771863  -0.0087579   0.0000000), wk =   0.0277778
        k(   66) = (   0.0771863   0.0087579   0.0000000), wk =   0.0277778
        k(   67) = (   0.0771863   0.0262737   0.0000000), wk =   0.0277778
        k(   68) = (  -0.0926236  -0.0525474   0.0000000), wk =   0.0138889
        k(   69) = (  -0.0926236  -0.0350316   0.0000000), wk =   0.0277778
        k(   70) = (  -0.0926236  -0.0175158   0.0000000), wk =   0.0277778
        k(   71) = (  -0.0926236   0.0000000   0.0000000), wk =   0.0277778
        k(   72) = (  -0.0926236   0.0175158   0.0000000), wk =   0.0277778
        k(   73) = (  -0.0926236   0.0350316   0.0000000), wk =   0.0277778
        k(   74) = (  -0.0926236  -0.1576422   0.0000000), wk =   0.0138889

     Initial potential from superposition of free atoms

     starting charge  197.99560, renormalised to  198.00000

     negative rho (up, down):  1.153E-03 0.000E+00

     %%%%%%%%%%%%%%%%%%%%%%%%%%%%%%%%%%%%%%%%%%%%%%%%%%%%%%%%%%%%%%%%%%%%%%%%
     %                                                                      %
     % You are using vdW-DF, which was implemented by the Thonhauser group. %
     % Please cite the following two papers that made this development      %
     % possible and the two reviews that describe the various versions:     %
     %                                                                      %
     %   T. Thonhauser et al., PRL 115, 136402 (2015).                      %
     %   T. Thonhauser et al., PRB 76, 125112 (2007).                       %
     %   K. Berland et al., Rep. Prog. Phys. 78, 066501 (2015).             %
     %   D.C. Langreth et al., J. Phys.: Condens. Matter 21, 084203 (2009). %
     %                                                                      %
     %                                                                      %
     % If you are calculating the stress with vdW-DF, please also cite:     %
     %                                                                      %
     %   R. Sabatini et al., J. Phys.: Condens. Matter 24, 424209 (2012).   %
     %                                                                      %
     %%%%%%%%%%%%%%%%%%%%%%%%%%%%%%%%%%%%%%%%%%%%%%%%%%%%%%%%%%%%%%%%%%%%%%%%

     Adding external electric field

     Computed dipole along edir(3) :
        Dipole                0.0000 Ry au,          0.0000 Debye
        Dipole field          0.0000 Ry au,

        Potential amp.       -0.0000 Ry
        Total length         45.0402 bohr

     Starting wfcs are  120 randomized atomic wfcs

     Self-consistent Calculation

     iteration #  1     ecut=    55.12 Ry     beta= 0.10
     Davidson diagonalization with overlap
     ethr =  1.00E-02,  avg # of iterations =  5.4

[...]

     total energy              =   -2567.94658735 Ry
     estimated scf accuracy    <       5.67473122 Ry

[...]

     iteration #  7     ecut=    55.12 Ry     beta= 0.10
     Davidson diagonalization with overlap
     c_bands:  1 eigenvalues not converged
     c_bands:  1 eigenvalues not converged
     ethr =  1.43E-05,  avg # of iterations =  3.7

[...]

     total energy              =   -2568.36825866 Ry
     estimated scf accuracy    <       0.00001153 Ry

     iteration # 14     ecut=    55.12 Ry     beta= 0.10
     Davidson diagonalization with overlap
     ethr =  5.82E-09,  avg # of iterations =  2.0

[...]

     Adding external electric field

     Computed dipole along edir(3) :
        Dipole                0.0087 Ry au,          0.0221 Debye
        Dipole field          0.0000 Ry au,

        Potential amp.       -0.0023 Ry
        Total length         45.0402 bohr

     End of self-consistent calculation

          k = 0.0000 0.0000 0.0000 ( 29221 PWs)   bands (ev):

   -84.6230 -84.5898 -84.1062 -84.0730 -84.0080 -83.9749 -76.7623 -76.7274
   -76.3522 -76.3173 -76.2354 -76.2006 -44.8348 -44.7540 -44.6856 -44.6728
   -44.6181 -44.4431 -44.4282 -44.4026 -44.2993 -44.2924 -44.2713 -44.2003
   -44.1613 -44.1184 -44.0425 -44.0234 -44.0223 -43.9131 -43.8970 -43.8919
   -43.8582 -43.7551 -43.7180 -43.5843 -43.5568 -43.5078 -43.3259 -43.2796
   -43.2599 -43.2580 -43.2008 -43.1677 -43.1559 -43.1420 -43.0934 -43.0125
    -6.0219  -4.2308  -4.1061  -3.9545  -3.8741  -3.7363  -3.5390  -3.4260
    -3.4075  -3.1687  -3.1323  -3.0938  -2.7174  -2.6862  -2.6085  -1.5174
    -1.4080  -1.3716  -0.9229  -0.7137  -0.7014  -0.6761  -0.5461  -0.4296
    -0.2928  -0.2826  -0.2084  -0.1251  -0.0741  -0.0274   0.1118   0.3499
     0.5131   0.5135   0.7616   1.4039   1.5000   1.6180   1.6227   1.7443
     1.7499   1.9118   1.9841   2.0923   2.4735   2.6706   2.7822   2.9542
     3.1527   3.1986   3.2304   3.3060   3.3615   3.5983   3.6140   3.7733
     3.7747   3.8109   3.8954   4.0544   4.1811   4.2387   4.3079   4.3919
     4.4308   4.6456   4.9137   6.0964   6.2859   6.3850   6.4011

[...]

          k = 0.0772 0.0263 0.0000 ( 29291 PWs)   bands (ev):

[...]

          k =-0.0926-0.0525 0.0000 ( 29314 PWs)   bands (ev):

[...]

          k =-0.0926-0.1576 0.0000 ( 29314 PWs)   bands (ev):

   -84.6064 -84.6064 -84.0897 -84.0896 -83.9915 -83.9914 -76.7449 -76.7449
   -76.3349 -76.3348 -76.2181 -76.2181 -44.6876 -44.6876 -44.6356 -44.6356
   -44.6113 -44.6113 -44.3302 -44.3302 -44.2367 -44.2367 -44.1897 -44.1897
   -44.1490 -44.1490 -44.0826 -44.0826 -44.0169 -44.0168 -43.8912 -43.8912
   -43.7976 -43.7976 -43.7399 -43.7399 -43.3671 -43.3671 -43.3024 -43.3024
   -43.2831 -43.2831 -43.2786 -43.2786 -43.1908 -43.1907 -43.1668 -43.1667
    -4.2329  -4.2328  -3.0228  -3.0228  -2.8037  -2.8037  -2.6683  -2.6683
    -2.4855  -2.4855  -2.1966  -2.1966  -1.8632  -1.8632  -1.7361  -1.7361
    -1.3468  -1.3468  -1.3404  -1.3404  -0.9561  -0.9561  -0.4902  -0.4902
    -0.2467  -0.2467  -0.1200  -0.1200   0.0070   0.0070   0.1519   0.1519
     0.2104   0.2104   0.2655   0.2655   0.3106   0.3106   0.4297   0.4297
     0.9157   0.9157   1.2530   1.2530   1.5962   1.5962   1.6693   1.6693
     1.9140   1.9140   2.0785   2.0785   2.2814   2.2814   2.4638   2.4638
     2.7640   2.7640   3.1230   3.1230   3.6518   3.6518   3.9272   3.9272
     5.0309   5.0309   6.0239   6.0239   6.7193   6.7193   7.4078

     the Fermi energy is     2.4986 ev

!    total energy              =   -2568.36825688 Ry
     estimated scf accuracy    <       0.00000507 Ry
     smearing contrib. (-TS)   =      -0.06435013 Ry
     internal energy E=F+TS    =   -2568.30390675 Ry

     The total energy is F=E-TS. E is the sum of the following terms:
     one-electron contribution =  -23200.71137871 Ry
     hartree contribution      =   11592.22779128 Ry
     xc contribution           =    -420.07479173 Ry
     ewald contribution        =    9460.25447219 Ry
     electric field correction =       0.00000022 Ry

     convergence has been achieved in  14 iterations

     negative rho (up, down):  1.149E-03 0.000E+00

     Forces acting on atoms (cartesian axes, Ry/au):

     atom    1 type  1   force =    -0.00000102   -0.02251200    0.01503426
     atom    2 type  1   force =     0.00000113   -0.02251027    0.01503335
     atom    3 type  2   force =    -0.00000001    0.01884137    0.02396028
     atom    4 type  2   force =     0.00000001    0.01884333    0.02396281
     atom    5 type  1   force =    -0.00001030    0.00337376   -0.01420360
     atom    6 type  1   force =     0.00001035    0.00337805   -0.01420127
     atom    7 type  2   force =     0.00000368   -0.00084323   -0.02186137
     atom    8 type  2   force =    -0.00000370   -0.00085781   -0.02187627
     atom    9 type  1   force =     0.00000052    0.00187012   -0.00149947
     atom   10 type  1   force =    -0.00000097    0.00187162   -0.00150242
     atom   11 type  2   force =    -0.00000071   -0.00072884   -0.00142427
     atom   12 type  2   force =     0.00000102   -0.00072610   -0.00142203

     Total force =     0.068736     Total SCF correction =     0.014797
     SCF correction compared to forces is large: reduce conv_thr to get better values

     Writing output data file ./Rh2Os2/Rh2Os2_beef.save/

     General routines

     Parallel routines

   This run was terminated on:   0:37:37  12Jul2022

   JOB DONE.