     Program PWSCF v.6.6 starts on 24Jun2022 at 13:27: 6

     R & G space division:  proc/nbgrp/npool/nimage =      37
     Fft bands division:     nmany     =       1
     Reading input from Rh2Pd2.in
Warning: card &CELL ignored
Warning: card / ignored

     Current dimensions of program PWSCF are:
     Max number of different atomic species (ntypx) = 10
     Max number of k-points (npk) =  40000
     Max angular momentum in pseudopotentials (lmaxx) =  3
     Presently stress not available with electric field and gates

     Message from routine cell_base_init:
     DEPRECATED: use true lattice parameter, not A to a.u. conversion factor
     file Rh.pbe-spn-rrkjus_psl.1.0.0.UPF: wavefunction(s)  4S 5S renormalized
     file Pd.pbe-n-rrkjus_psl.1.0.0.UPF: wavefunction(s)  4D renormalized

     IMPORTANT: XC functional enforced from input :
     Exchange-correlation= BEEF-VDW
                           (   1   4  43  14   2   0   0)
     Any further DFT definition will be discarded
     Please, verify this is what you really want

     Subspace diagonalization in iterative solution of the eigenvalue problem:
     a serial algorithm will be used

     bravais-lattice index     =            0
     lattice parameter (alat)  =       1.8897  a.u.
     unit-cell volume          =    4402.8284 (a.u.)^3
     number of atoms/cell      =           12
     number of atomic types    =            2
     number of electrons       =       162.00
     number of Kohn-Sham states=           97
     kinetic-energy cutoff     =      55.1240  Ry
     charge density cutoff     =     551.2396  Ry
     convergence threshold     =      1.0E-05
     mixing beta               =       0.1000
     number of iterations used =           10  plain     mixing
     Exchange-correlation= BEEF-VDW
                           (   1   4  43  14   2   0   0)

     celldm(1)=   1.889726  celldm(2)=   0.000000  celldm(3)=   0.000000
     celldm(4)=   0.000000  celldm(5)=   0.000000  celldm(6)=   0.000000

     crystal axes: (cart. coord. in units of alat)
               a(1) = (   5.535702   0.000000   0.000000 )
               a(2) = (   2.747733   4.805617   0.000000 )
               a(3) = (   0.000000   0.000000  24.525247 )

     reciprocal axes: (cart. coord. in units 2 pi/alat)
               b(1) = (  0.180646 -0.103289  0.000000 )
               b(2) = (  0.000000  0.208090  0.000000 )
               b(3) = (  0.000000  0.000000  0.040774 )

     PseudoPot. # 1 for Rh read from file:
     ../pseudo/Rh.pbe-spn-rrkjus_psl.1.0.0.UPF
     MD5 check sum: 912a852783f0c9b7bd5e9eb06cc0cc10
     Pseudo is Ultrasoft + core correction, Zval = 17.0
     Generated using "atomic" code by A. Dal Corso v.6.3
     Using radial grid of 1233 points,  6 beta functions with:
                l(1) =   0
                l(2) =   0
                l(3) =   1
                l(4) =   1
                l(5) =   2
                l(6) =   2
     Q(r) pseudized with 0 coefficients

     PseudoPot. # 2 for Pd read from file:
     ../pseudo/Pd.pbe-n-rrkjus_psl.1.0.0.UPF
     MD5 check sum: d9f693bf1c5b493397a6bd6f2231cfc3
     Pseudo is Ultrasoft + core correction, Zval = 10.0
     Generated using "atomic" code by A. Dal Corso v.6.3
     Using radial grid of 1235 points,  6 beta functions with:
                l(1) =   0
                l(2) =   0
                l(3) =   1
                l(4) =   1
                l(5) =   2
                l(6) =   2
     Q(r) pseudized with 0 coefficients

     atomic species   valence    mass     pseudopotential
        Rh            17.00   102.90550     Rh( 1.00)
        Pd            10.00   106.42000     Pd( 1.00)

     No symmetry found

   Cartesian axes

     site n.     atom                  positions (alat units)
         1           Rh  tau(   1) = (   0.0000000   0.0000000  10.0000000  )
         2           Rh  tau(   2) = (   4.1417174   2.4028085  10.0000000  )
         3           Pd  tau(   3) = (   2.7678508   0.0000000  10.0000000  )
         4           Pd  tau(   4) = (   1.3738666   2.4028085  10.0000000  )
         5           Rh  tau(   5) = (   5.5357016   3.2115254  12.2626236  )
         6           Rh  tau(   6) = (   1.3939842   0.8087169  12.2626236  )
         7           Pd  tau(   7) = (   2.7678508   3.2115254  12.2626236  )
         8           Pd  tau(   8) = (   4.1618350   0.8087169  12.2626236  )
         9           Rh  tau(   9) = (   2.7116040   1.5731345  14.4409824  )
        10           Rh  tau(  10) = (   6.8532934   3.9759213  14.4408137  )
        11           Pd  tau(  11) = (   5.5040885   1.5873885  14.5738455  )
        12           Pd  tau(  12) = (   4.1100822   3.9902469  14.5738413  )

     number of k points=    74  Fermi-Dirac smearing, width (Ry)=  0.0100
                       cart. coord. in units 2pi/alat
        k(    1) = (   0.0000000   0.0000000   0.0000000), wk =   0.0138889
        k(    2) = (   0.0000000   0.0173408   0.0000000), wk =   0.0277778
        k(    3) = (   0.0000000   0.0346816   0.0000000), wk =   0.0277778
        k(    4) = (   0.0000000   0.0520225   0.0000000), wk =   0.0277778
        k(    5) = (   0.0000000   0.0693633   0.0000000), wk =   0.0277778
        k(    6) = (   0.0000000   0.0867041   0.0000000), wk =   0.0277778
        k(    7) = (   0.0000000  -0.1040449   0.0000000), wk =   0.0138889
        k(    8) = (   0.0150538  -0.0086074   0.0000000), wk =   0.0277778
        k(    9) = (   0.0150538   0.0087334   0.0000000), wk =   0.0277778
        k(   10) = (   0.0150538   0.0260742   0.0000000), wk =   0.0277778
        k(   11) = (   0.0150538   0.0434151   0.0000000), wk =   0.0277778
        k(   12) = (   0.0150538   0.0607559   0.0000000), wk =   0.0277778
        k(   13) = (   0.0150538   0.0780967   0.0000000), wk =   0.0277778
        k(   14) = (   0.0150538  -0.1126523   0.0000000), wk =   0.0277778
        k(   15) = (   0.0150538  -0.0953115   0.0000000), wk =   0.0277778
        k(   16) = (   0.0150538  -0.0779707   0.0000000), wk =   0.0277778
        k(   17) = (   0.0150538  -0.0606298   0.0000000), wk =   0.0277778
        k(   18) = (   0.0150538  -0.0432890   0.0000000), wk =   0.0277778
        k(   19) = (   0.0150538  -0.0259482   0.0000000), wk =   0.0277778
        k(   20) = (   0.0301076  -0.0172148   0.0000000), wk =   0.0277778
        k(   21) = (   0.0301076   0.0001260   0.0000000), wk =   0.0277778
        k(   22) = (   0.0301076   0.0174669   0.0000000), wk =   0.0277778
        k(   23) = (   0.0301076   0.0348077   0.0000000), wk =   0.0277778
        k(   24) = (   0.0301076   0.0521485   0.0000000), wk =   0.0277778
        k(   25) = (   0.0301076   0.0694893   0.0000000), wk =   0.0277778
        k(   26) = (   0.0301076  -0.1212597   0.0000000), wk =   0.0277778
        k(   27) = (   0.0301076  -0.1039189   0.0000000), wk =   0.0277778
        k(   28) = (   0.0301076  -0.0865781   0.0000000), wk =   0.0277778
        k(   29) = (   0.0301076  -0.0692372   0.0000000), wk =   0.0277778
        k(   30) = (   0.0301076  -0.0518964   0.0000000), wk =   0.0277778
        k(   31) = (   0.0301076  -0.0345556   0.0000000), wk =   0.0277778
        k(   32) = (   0.0451614  -0.0258222   0.0000000), wk =   0.0277778
        k(   33) = (   0.0451614  -0.0084813   0.0000000), wk =   0.0277778
        k(   34) = (   0.0451614   0.0088595   0.0000000), wk =   0.0277778
        k(   35) = (   0.0451614   0.0262003   0.0000000), wk =   0.0277778
        k(   36) = (   0.0451614   0.0435411   0.0000000), wk =   0.0277778
        k(   37) = (   0.0451614   0.0608819   0.0000000), wk =   0.0277778
        k(   38) = (   0.0451614  -0.1298671   0.0000000), wk =   0.0277778
        k(   39) = (   0.0451614  -0.1125263   0.0000000), wk =   0.0277778
        k(   40) = (   0.0451614  -0.0951854   0.0000000), wk =   0.0277778
        k(   41) = (   0.0451614  -0.0778446   0.0000000), wk =   0.0277778
        k(   42) = (   0.0451614  -0.0605038   0.0000000), wk =   0.0277778
        k(   43) = (   0.0451614  -0.0431630   0.0000000), wk =   0.0277778
        k(   44) = (   0.0602152  -0.0344296   0.0000000), wk =   0.0277778
        k(   45) = (   0.0602152  -0.0170887   0.0000000), wk =   0.0277778
        k(   46) = (   0.0602152   0.0002521   0.0000000), wk =   0.0277778
        k(   47) = (   0.0602152   0.0175929   0.0000000), wk =   0.0277778
        k(   48) = (   0.0602152   0.0349337   0.0000000), wk =   0.0277778
        k(   49) = (   0.0602152   0.0522745   0.0000000), wk =   0.0277778
        k(   50) = (   0.0602152  -0.1384745   0.0000000), wk =   0.0277778
        k(   51) = (   0.0602152  -0.1211336   0.0000000), wk =   0.0277778
        k(   52) = (   0.0602152  -0.1037928   0.0000000), wk =   0.0277778
        k(   53) = (   0.0602152  -0.0864520   0.0000000), wk =   0.0277778
        k(   54) = (   0.0602152  -0.0691112   0.0000000), wk =   0.0277778
        k(   55) = (   0.0602152  -0.0517704   0.0000000), wk =   0.0277778
        k(   56) = (   0.0752690  -0.0430369   0.0000000), wk =   0.0277778
        k(   57) = (   0.0752690  -0.0256961   0.0000000), wk =   0.0277778
        k(   58) = (   0.0752690  -0.0083553   0.0000000), wk =   0.0277778
        k(   59) = (   0.0752690   0.0089855   0.0000000), wk =   0.0277778
        k(   60) = (   0.0752690   0.0263263   0.0000000), wk =   0.0277778
        k(   61) = (   0.0752690   0.0436671   0.0000000), wk =   0.0277778
        k(   62) = (   0.0752690  -0.1470819   0.0000000), wk =   0.0277778
        k(   63) = (   0.0752690  -0.1297410   0.0000000), wk =   0.0277778
        k(   64) = (   0.0752690  -0.1124002   0.0000000), wk =   0.0277778
        k(   65) = (   0.0752690  -0.0950594   0.0000000), wk =   0.0277778
        k(   66) = (   0.0752690  -0.0777186   0.0000000), wk =   0.0277778
        k(   67) = (   0.0752690  -0.0603778   0.0000000), wk =   0.0277778
        k(   68) = (  -0.0903228   0.0516443   0.0000000), wk =   0.0138889
        k(   69) = (  -0.0903228   0.0689852   0.0000000), wk =   0.0277778
        k(   70) = (  -0.0903228   0.0863260   0.0000000), wk =   0.0277778
        k(   71) = (  -0.0903228   0.1036668   0.0000000), wk =   0.0277778
        k(   72) = (  -0.0903228   0.1210076   0.0000000), wk =   0.0277778
        k(   73) = (  -0.0903228   0.1383484   0.0000000), wk =   0.0277778
        k(   74) = (  -0.0903228  -0.0524006   0.0000000), wk =   0.0138889

     Initial potential from superposition of free atoms

     starting charge  161.99363, renormalised to  162.00000

     negative rho (up, down):  1.375E-03 0.000E+00

     %%%%%%%%%%%%%%%%%%%%%%%%%%%%%%%%%%%%%%%%%%%%%%%%%%%%%%%%%%%%%%%%%%%%%%%%
     %                                                                      %
     % You are using vdW-DF, which was implemented by the Thonhauser group. %
     % Please cite the following two papers that made this development      %
     % possible and the two reviews that describe the various versions:     %
     %                                                                      %
     %   T. Thonhauser et al., PRL 115, 136402 (2015).                      %
     %   T. Thonhauser et al., PRB 76, 125112 (2007).                       %
     %   K. Berland et al., Rep. Prog. Phys. 78, 066501 (2015).             %
     %   D.C. Langreth et al., J. Phys.: Condens. Matter 21, 084203 (2009). %
     %                                                                      %
     %                                                                      %
     % If you are calculating the stress with vdW-DF, please also cite:     %
     %                                                                      %
     %   R. Sabatini et al., J. Phys.: Condens. Matter 24, 424209 (2012).   %
     %                                                                      %
     %%%%%%%%%%%%%%%%%%%%%%%%%%%%%%%%%%%%%%%%%%%%%%%%%%%%%%%%%%%%%%%%%%%%%%%%

     Adding external electric field

     Computed dipole along edir(3) :
        Dipole                0.0001 Ry au,          0.0002 Debye
        Dipole field          0.0000 Ry au,

        Potential amp.       -0.0000 Ry
        Total length         45.1873 bohr

     Starting wfcs are  114 randomized atomic wfcs

     Self-consistent Calculation

     iteration #  1     ecut=    55.12 Ry     beta= 0.10
     Davidson diagonalization with overlap
     ethr =  1.00E-02,  avg # of iterations =  5.7

[...]

     total energy              =   -1774.47661619 Ry
     estimated scf accuracy    <      13.32306228 Ry

[...]

     iteration #  7     ecut=    55.12 Ry     beta= 0.10
     Davidson diagonalization with overlap
     c_bands:  1 eigenvalues not converged
     ethr =  2.84E-05,  avg # of iterations =  6.2

[...]

     iteration #  9     ecut=    55.12 Ry     beta= 0.10
     Davidson diagonalization with overlap
     c_bands:  1 eigenvalues not converged
     c_bands:  1 eigenvalues not converged
     ethr =  8.50E-06,  avg # of iterations =  6.1

[...]

     total energy              =   -1775.69760568 Ry
     estimated scf accuracy    <       0.00003035 Ry

     iteration # 15     ecut=    55.12 Ry     beta= 0.10
     Davidson diagonalization with overlap
     ethr =  1.87E-08,  avg # of iterations =  1.8

[...]

     Adding external electric field

     Computed dipole along edir(3) :
        Dipole               -0.0031 Ry au,         -0.0078 Debye
        Dipole field         -0.0000 Ry au,

        Potential amp.        0.0008 Ry
        Total length         45.1873 bohr

     End of self-consistent calculation

          k = 0.0000 0.0000 0.0000 ( 30517 PWs)   bands (ev):

   -77.6832 -77.6594 -77.3512 -77.3270 -77.2635 -77.2393 -45.6445 -45.6176
   -45.6148 -45.4972 -45.4712 -45.3929 -45.3472 -45.3262 -45.2289 -45.2031
   -45.1530 -45.1269 -45.1247 -45.1147 -45.0889 -45.0578 -45.0100 -44.9840
    -5.3839  -4.1394  -4.1388  -4.0988  -4.0731  -4.0302  -3.9434  -3.8642
    -3.7734  -3.6722  -3.6561  -3.6491  -3.4383  -3.3926  -3.3466  -2.4524
    -2.3856  -2.3304  -2.1405  -2.0710  -2.0451  -1.8908  -1.8705  -1.6938
    -1.6713  -1.5433  -1.4733  -1.4603  -1.4187  -1.4078  -1.3498  -1.2864
    -0.9295  -0.6528  -0.4733  -0.4121  -0.3668  -0.3072  -0.2285  -0.1281
    -0.0357   0.0159   0.1756   0.3371   0.4433   0.5067   0.5181   0.7533
     0.8062   0.8124   0.8275   0.9420   0.9927   1.0226   1.0416   1.0859
     1.1328   1.1650   1.3369   1.3898   1.4508   1.5746   1.6941   2.2262
     3.0179   3.0479   3.1227   4.4721   4.5340   4.5813   4.7843   4.8263
     4.8352

[...]

          k = 0.0753-0.0604 0.0000 ( 30412 PWs)   bands (ev):

[...]

          k =-0.0903 0.0516 0.0000 ( 30418 PWs)   bands (ev):

[...]

          k =-0.0903-0.0524 0.0000 ( 30434 PWs)   bands (ev):

   -77.6831 -77.6593 -77.3511 -77.3270 -77.2634 -77.2393 -45.6457 -45.6182
   -45.6157 -45.4986 -45.4717 -45.3936 -45.3474 -45.3271 -45.2306 -45.2042
   -45.1549 -45.1281 -45.1248 -45.1144 -45.0888 -45.0580 -45.0100 -44.9841
    -4.0115  -3.9184  -3.4869  -3.4505  -3.3430  -3.2475  -3.1767  -3.1443
    -3.1319  -3.1137  -2.9325  -2.8450  -2.7584  -2.6645  -2.6025  -2.5343
    -2.3931  -2.3509  -2.3226  -2.1820  -2.0627  -1.9034  -1.8343  -1.7280
    -1.6618  -1.5726  -1.4876  -1.4449  -1.4217  -1.4101  -1.3203  -1.2911
    -1.2741  -1.0815  -1.0813  -1.0693  -1.0321  -0.9243  -0.8422  -0.7686
    -0.7558  -0.6388  -0.5927  -0.5659  -0.5420  -0.4751  -0.2397  -0.2135
    -0.1684  -0.1372   0.0410   0.2309   0.2871   0.3366   0.5469   0.5561
     0.6153   0.6225   0.6840   0.9383   0.9896   1.0451   1.0661   1.6246
     3.1097   3.2515   3.3237   3.9923   4.4186   4.7724   5.3629   5.5465
     6.5507

     the Fermi energy is     0.8380 ev

!    total energy              =   -1775.69759496 Ry
     estimated scf accuracy    <       0.00000648 Ry
     smearing contrib. (-TS)   =      -0.11247944 Ry
     internal energy E=F+TS    =   -1775.58511552 Ry

     The total energy is F=E-TS. E is the sum of the following terms:
     one-electron contribution =  -14903.08323821 Ry
     hartree contribution      =    7493.55622537 Ry
     xc contribution           =    -318.76393381 Ry
     ewald contribution        =    5952.70583110 Ry
     electric field correction =       0.00000003 Ry

     convergence has been achieved in  15 iterations

     negative rho (up, down):  1.453E-03 0.000E+00

     Forces acting on atoms (cartesian axes, Ry/au):

     atom    1 type  1   force =     0.00676390    0.00392356    0.01776757
     atom    2 type  1   force =     0.00682273    0.00395787    0.01784893
     atom    3 type  2   force =    -0.00361608   -0.00207572   -0.01008771
     atom    4 type  2   force =    -0.00359738   -0.00210891   -0.01008739
     atom    5 type  1   force =    -0.00677110   -0.00392853    0.00125802
     atom    6 type  1   force =    -0.00702928   -0.00407809    0.00102038
     atom    7 type  2   force =     0.00397227    0.00212539   -0.00789255
     atom    8 type  2   force =     0.00381695    0.00239347   -0.00789199
     atom    9 type  1   force =    -0.00007518   -0.00004236   -0.00182898
     atom   10 type  1   force =    -0.00005035   -0.00002954   -0.00154737
     atom   11 type  2   force =    -0.00011613   -0.00007162    0.00072019
     atom   12 type  2   force =    -0.00012034   -0.00006552    0.00072091

     Total force =     0.036026     Total SCF correction =     0.008088
     SCF correction compared to forces is large: reduce conv_thr to get better values

     Writing output data file ./Rh2Pd2/Rh2Pd2_beef.save/

     General routines

     Parallel routines

   This run was terminated on:  14:12:59  24Jun2022

   JOB DONE.