     Program PWSCF v.6.6 starts on 24Jun2022 at 18:15:38

     R & G space division:  proc/nbgrp/npool/nimage =      37
     Fft bands division:     nmany     =       1
     Reading input from Rh2Pt2.in
Warning: card &CELL ignored
Warning: card / ignored

     Current dimensions of program PWSCF are:
     Max number of different atomic species (ntypx) = 10
     Max number of k-points (npk) =  40000
     Max angular momentum in pseudopotentials (lmaxx) =  3
     Presently stress not available with electric field and gates

     Message from routine cell_base_init:
     DEPRECATED: use true lattice parameter, not A to a.u. conversion factor
     file Rh.pbe-spn-rrkjus_psl.1.0.0.UPF: wavefunction(s)  4S 5S renormalized
     file Pt.pbe-n-rrkjus_psl.1.0.0.UPF: wavefunction(s)  6S renormalized

     IMPORTANT: XC functional enforced from input :
     Exchange-correlation= BEEF-VDW
                           (   1   4  43  14   2   0   0)
     Any further DFT definition will be discarded
     Please, verify this is what you really want

     Subspace diagonalization in iterative solution of the eigenvalue problem:
     a serial algorithm will be used

     Found symmetry operation: I + (  0.5000 -0.5000  0.0000)
     This is a supercell, fractional translations are disabled

     bravais-lattice index     =            0
     lattice parameter (alat)  =       1.8897  a.u.
     unit-cell volume          =    4409.2221 (a.u.)^3
     number of atoms/cell      =           12
     number of atomic types    =            2
     number of electrons       =       162.00
     number of Kohn-Sham states=           97
     kinetic-energy cutoff     =      55.1240  Ry
     charge density cutoff     =     551.2396  Ry
     convergence threshold     =      1.0E-05
     mixing beta               =       0.1000
     number of iterations used =           10  plain     mixing
     Exchange-correlation= BEEF-VDW
                           (   1   4  43  14   2   0   0)

     celldm(1)=   1.889726  celldm(2)=   0.000000  celldm(3)=   0.000000
     celldm(4)=   0.000000  celldm(5)=   0.000000  celldm(6)=   0.000000

     crystal axes: (cart. coord. in units of alat)
               a(1) = (   5.543992   0.000000   0.000000 )
               a(2) = (   2.765822   4.804797   0.000000 )
               a(3) = (   0.000000   0.000000  24.528321 )

     reciprocal axes: (cart. coord. in units 2 pi/alat)
               b(1) = (  0.180375 -0.103831  0.000000 )
               b(2) = (  0.000000  0.208125  0.000000 )
               b(3) = (  0.000000  0.000000  0.040769 )

     PseudoPot. # 1 for Rh read from file:
     ../pseudo/Rh.pbe-spn-rrkjus_psl.1.0.0.UPF
     MD5 check sum: 912a852783f0c9b7bd5e9eb06cc0cc10
     Pseudo is Ultrasoft + core correction, Zval = 17.0
     Generated using "atomic" code by A. Dal Corso v.6.3
     Using radial grid of 1233 points,  6 beta functions with:
                l(1) =   0
                l(2) =   0
                l(3) =   1
                l(4) =   1
                l(5) =   2
                l(6) =   2
     Q(r) pseudized with 0 coefficients

     PseudoPot. # 2 for Pt read from file:
     ../pseudo/Pt.pbe-n-rrkjus_psl.1.0.0.UPF
     MD5 check sum: 6bc887cfe28d63a5fc1f72d35a7d3ef7
     Pseudo is Ultrasoft + core correction, Zval = 10.0
     Generated using "atomic" code by A. Dal Corso v.6.3
     Using radial grid of 1277 points,  6 beta functions with:
                l(1) =   0
                l(2) =   0
                l(3) =   1
                l(4) =   1
                l(5) =   2
                l(6) =   2
     Q(r) pseudized with 0 coefficients

     atomic species   valence    mass     pseudopotential
        Rh            17.00   102.90550     Rh( 1.00)
        Pt            10.00   195.08400     Pt( 1.00)

     No symmetry found

   Cartesian axes

     site n.     atom                  positions (alat units)
         1           Rh  tau(   1) = (   0.0000000   0.0000000  10.0000000  )
         2           Rh  tau(   2) = (   4.1549071   2.4023987  10.0000000  )
         3           Pt  tau(   3) = (   2.7719961   0.0000000  10.0000000  )
         4           Pt  tau(   4) = (   1.3829110   2.4023987  10.0000000  )
         5           Rh  tau(   5) = (   5.5439921   3.2055782  12.2641603  )
         6           Rh  tau(   6) = (   1.3890851   0.8031795  12.2641603  )
         7           Pt  tau(   7) = (   2.7719961   3.2055782  12.2641603  )
         8           Pt  tau(   8) = (   4.1610811   0.8031795  12.2641603  )
         9           Rh  tau(   9) = (   2.7720419   1.6028157  14.4871917  )
        10           Rh  tau(  10) = (   6.9269330   4.0052042  14.4871822  )
        11           Pt  tau(  11) = (   5.5640985   1.6144023  14.5357495  )
        12           Pt  tau(  12) = (   4.1750030   4.0168208  14.5357498  )

     number of k points=    74  Fermi-Dirac smearing, width (Ry)=  0.0100
                       cart. coord. in units 2pi/alat
        k(    1) = (   0.0000000   0.0000000   0.0000000), wk =   0.0138889
        k(    2) = (   0.0000000   0.0173438   0.0000000), wk =   0.0277778
        k(    3) = (   0.0000000   0.0346876   0.0000000), wk =   0.0277778
        k(    4) = (   0.0000000   0.0520313   0.0000000), wk =   0.0277778
        k(    5) = (   0.0000000   0.0693751   0.0000000), wk =   0.0277778
        k(    6) = (   0.0000000   0.0867189   0.0000000), wk =   0.0277778
        k(    7) = (   0.0000000  -0.1040627   0.0000000), wk =   0.0138889
        k(    8) = (   0.0150313  -0.0086526   0.0000000), wk =   0.0277778
        k(    9) = (   0.0150313   0.0086912   0.0000000), wk =   0.0277778
        k(   10) = (   0.0150313   0.0260350   0.0000000), wk =   0.0277778
        k(   11) = (   0.0150313   0.0433788   0.0000000), wk =   0.0277778
        k(   12) = (   0.0150313   0.0607225   0.0000000), wk =   0.0277778
        k(   13) = (   0.0150313   0.0780663   0.0000000), wk =   0.0277778
        k(   14) = (   0.0150313  -0.1127152   0.0000000), wk =   0.0277778
        k(   15) = (   0.0150313  -0.0953715   0.0000000), wk =   0.0277778
        k(   16) = (   0.0150313  -0.0780277   0.0000000), wk =   0.0277778
        k(   17) = (   0.0150313  -0.0606839   0.0000000), wk =   0.0277778
        k(   18) = (   0.0150313  -0.0433401   0.0000000), wk =   0.0277778
        k(   19) = (   0.0150313  -0.0259964   0.0000000), wk =   0.0277778
        k(   20) = (   0.0300626  -0.0173051   0.0000000), wk =   0.0277778
        k(   21) = (   0.0300626   0.0000386   0.0000000), wk =   0.0277778
        k(   22) = (   0.0300626   0.0173824   0.0000000), wk =   0.0277778
        k(   23) = (   0.0300626   0.0347262   0.0000000), wk =   0.0277778
        k(   24) = (   0.0300626   0.0520700   0.0000000), wk =   0.0277778
        k(   25) = (   0.0300626   0.0694137   0.0000000), wk =   0.0277778
        k(   26) = (   0.0300626  -0.1213678   0.0000000), wk =   0.0277778
        k(   27) = (   0.0300626  -0.1040240   0.0000000), wk =   0.0277778
        k(   28) = (   0.0300626  -0.0866803   0.0000000), wk =   0.0277778
        k(   29) = (   0.0300626  -0.0693365   0.0000000), wk =   0.0277778
        k(   30) = (   0.0300626  -0.0519927   0.0000000), wk =   0.0277778
        k(   31) = (   0.0300626  -0.0346489   0.0000000), wk =   0.0277778
        k(   32) = (   0.0450939  -0.0259577   0.0000000), wk =   0.0277778
        k(   33) = (   0.0450939  -0.0086139   0.0000000), wk =   0.0277778
        k(   34) = (   0.0450939   0.0087298   0.0000000), wk =   0.0277778
        k(   35) = (   0.0450939   0.0260736   0.0000000), wk =   0.0277778
        k(   36) = (   0.0450939   0.0434174   0.0000000), wk =   0.0277778
        k(   37) = (   0.0450939   0.0607612   0.0000000), wk =   0.0277778
        k(   38) = (   0.0450939  -0.1300204   0.0000000), wk =   0.0277778
        k(   39) = (   0.0450939  -0.1126766   0.0000000), wk =   0.0277778
        k(   40) = (   0.0450939  -0.0953328   0.0000000), wk =   0.0277778
        k(   41) = (   0.0450939  -0.0779891   0.0000000), wk =   0.0277778
        k(   42) = (   0.0450939  -0.0606453   0.0000000), wk =   0.0277778
        k(   43) = (   0.0450939  -0.0433015   0.0000000), wk =   0.0277778
        k(   44) = (   0.0601251  -0.0346103   0.0000000), wk =   0.0277778
        k(   45) = (   0.0601251  -0.0172665   0.0000000), wk =   0.0277778
        k(   46) = (   0.0601251   0.0000773   0.0000000), wk =   0.0277778
        k(   47) = (   0.0601251   0.0174210   0.0000000), wk =   0.0277778
        k(   48) = (   0.0601251   0.0347648   0.0000000), wk =   0.0277778
        k(   49) = (   0.0601251   0.0521086   0.0000000), wk =   0.0277778
        k(   50) = (   0.0601251  -0.1386730   0.0000000), wk =   0.0277778
        k(   51) = (   0.0601251  -0.1213292   0.0000000), wk =   0.0277778
        k(   52) = (   0.0601251  -0.1039854   0.0000000), wk =   0.0277778
        k(   53) = (   0.0601251  -0.0866416   0.0000000), wk =   0.0277778
        k(   54) = (   0.0601251  -0.0692979   0.0000000), wk =   0.0277778
        k(   55) = (   0.0601251  -0.0519541   0.0000000), wk =   0.0277778
        k(   56) = (   0.0751564  -0.0432629   0.0000000), wk =   0.0277778
        k(   57) = (   0.0751564  -0.0259191   0.0000000), wk =   0.0277778
        k(   58) = (   0.0751564  -0.0085753   0.0000000), wk =   0.0277778
        k(   59) = (   0.0751564   0.0087685   0.0000000), wk =   0.0277778
        k(   60) = (   0.0751564   0.0261122   0.0000000), wk =   0.0277778
        k(   61) = (   0.0751564   0.0434560   0.0000000), wk =   0.0277778
        k(   62) = (   0.0751564  -0.1473255   0.0000000), wk =   0.0277778
        k(   63) = (   0.0751564  -0.1299818   0.0000000), wk =   0.0277778
        k(   64) = (   0.0751564  -0.1126380   0.0000000), wk =   0.0277778
        k(   65) = (   0.0751564  -0.0952942   0.0000000), wk =   0.0277778
        k(   66) = (   0.0751564  -0.0779504   0.0000000), wk =   0.0277778
        k(   67) = (   0.0751564  -0.0606067   0.0000000), wk =   0.0277778
        k(   68) = (  -0.0901877   0.0519154   0.0000000), wk =   0.0138889
        k(   69) = (  -0.0901877   0.0692592   0.0000000), wk =   0.0277778
        k(   70) = (  -0.0901877   0.0866030   0.0000000), wk =   0.0277778
        k(   71) = (  -0.0901877   0.1039468   0.0000000), wk =   0.0277778
        k(   72) = (  -0.0901877   0.1212906   0.0000000), wk =   0.0277778
        k(   73) = (  -0.0901877   0.1386343   0.0000000), wk =   0.0277778
        k(   74) = (  -0.0901877  -0.0521472   0.0000000), wk =   0.0138889

     Initial potential from superposition of free atoms

     starting charge  161.99604, renormalised to  162.00000

     negative rho (up, down):  1.293E-03 0.000E+00

     %%%%%%%%%%%%%%%%%%%%%%%%%%%%%%%%%%%%%%%%%%%%%%%%%%%%%%%%%%%%%%%%%%%%%%%%
     %                                                                      %
     % You are using vdW-DF, which was implemented by the Thonhauser group. %
     % Please cite the following two papers that made this development      %
     % possible and the two reviews that describe the various versions:     %
     %                                                                      %
     %   T. Thonhauser et al., PRL 115, 136402 (2015).                      %
     %   T. Thonhauser et al., PRB 76, 125112 (2007).                       %
     %   K. Berland et al., Rep. Prog. Phys. 78, 066501 (2015).             %
     %   D.C. Langreth et al., J. Phys.: Condens. Matter 21, 084203 (2009). %
     %                                                                      %
     %                                                                      %
     % If you are calculating the stress with vdW-DF, please also cite:     %
     %                                                                      %
     %   R. Sabatini et al., J. Phys.: Condens. Matter 24, 424209 (2012).   %
     %                                                                      %
     %%%%%%%%%%%%%%%%%%%%%%%%%%%%%%%%%%%%%%%%%%%%%%%%%%%%%%%%%%%%%%%%%%%%%%%%

     Adding external electric field

     Computed dipole along edir(3) :
        Dipole               -0.0000 Ry au,         -0.0000 Debye
        Dipole field         -0.0000 Ry au,

        Potential amp.        0.0000 Ry
        Total length         45.1930 bohr

     Starting wfcs are  114 randomized atomic wfcs

     Self-consistent Calculation

     iteration #  1     ecut=    55.12 Ry     beta= 0.10
     Davidson diagonalization with overlap
     ethr =  1.00E-02,  avg # of iterations =  5.4

[...]

     total energy              =   -1760.59163083 Ry
     estimated scf accuracy    <      13.71972690 Ry

[...]

     iteration #  6     ecut=    55.12 Ry     beta= 0.10
     Davidson diagonalization with overlap
     c_bands:  1 eigenvalues not converged
     ethr =  8.80E-05,  avg # of iterations =  3.0

[...]

     iteration # 10     ecut=    55.12 Ry     beta= 0.10
     Davidson diagonalization with overlap
     c_bands:  1 eigenvalues not converged
     c_bands:  1 eigenvalues not converged
     ethr =  1.27E-06,  avg # of iterations =  8.4

[...]

     total energy              =   -1761.60775246 Ry
     estimated scf accuracy    <       0.00005345 Ry

     iteration # 15     ecut=    55.12 Ry     beta= 0.10
     Davidson diagonalization with overlap
     ethr =  3.30E-08,  avg # of iterations =  1.9

[...]

     Adding external electric field

     Computed dipole along edir(3) :
        Dipole               -0.0016 Ry au,         -0.0040 Debye
        Dipole field         -0.0000 Ry au,

        Potential amp.        0.0004 Ry
        Total length         45.1930 bohr

     End of self-consistent calculation

          k = 0.0000 0.0000 0.0000 ( 30541 PWs)   bands (ev):

   -77.5863 -77.5620 -77.2343 -77.2099 -77.1924 -77.1680 -45.5230 -45.4978
   -45.4705 -45.4511 -45.4244 -45.2701 -45.2510 -45.2327 -45.1435 -45.1170
   -45.1077 -45.0813 -44.9989 -44.9743 -44.9616 -44.9479 -44.9207 -44.8945
    -6.7409  -5.1752  -5.0522  -4.7597  -4.6471  -4.5771  -4.4714  -4.3942
    -4.3336  -4.1611  -4.0956  -4.0421  -3.9050  -3.7596  -3.7514  -2.8155
    -2.6146  -2.4057  -2.3384  -2.2757  -2.2489  -1.9892  -1.9740  -1.7259
    -1.7255  -1.6999  -1.6441  -1.4955  -1.4558  -1.4157  -1.2694  -1.2268
    -1.1502  -0.6298  -0.4920  -0.1615  -0.1398  -0.1030   0.0301   0.1005
     0.1092   0.1644   0.2480   0.6199   0.6840   0.7017   0.9468   1.0306
     1.1330   1.1782   1.2281   1.2773   1.2928   1.3020   1.3648   1.4894
     1.5743   1.7077   1.7768   1.8074   1.8617   1.8736   1.9365   2.1791
     2.7047   2.8710   3.0174   4.4600   4.4793   4.5336   4.5474   4.6021
     4.6431

[...]

          k = 0.0752-0.0606 0.0000 ( 30456 PWs)   bands (ev):

[...]

          k =-0.0902 0.0519 0.0000 ( 30454 PWs)   bands (ev):

[...]

          k =-0.0902-0.0521 0.0000 ( 30454 PWs)   bands (ev):

   -77.5861 -77.5619 -77.2342 -77.2098 -77.1923 -77.1679 -45.5242 -45.4993
   -45.4712 -45.4529 -45.4250 -45.2711 -45.2513 -45.2338 -45.1458 -45.1184
   -45.1102 -45.0828 -44.9991 -44.9738 -44.9619 -44.9477 -44.9209 -44.8947
    -5.5475  -4.9073  -4.2531  -4.0660  -3.9052  -3.8578  -3.8071  -3.6166
    -3.5673  -3.4628  -3.4016  -3.1072  -3.0238  -2.9477  -2.9109  -2.8607
    -2.8148  -2.6896  -2.4884  -2.2811  -2.0256  -1.9712  -1.8691  -1.8246
    -1.8095  -1.7353  -1.6685  -1.6014  -1.5218  -1.4155  -1.3902  -1.3067
    -1.2358  -1.2008  -1.0913  -1.0807  -1.0053  -0.9527  -0.9238  -0.8486
    -0.8397  -0.4526  -0.4383  -0.4377  -0.4130  -0.3001  -0.1831  -0.0457
    -0.0316   0.1960   0.2421   0.3409   0.3704   0.4586   0.6794   0.7261
     0.7798   0.9208   1.0261   1.2861   1.3043   1.3424   1.3609   1.7353
     3.1932   3.3479   3.4959   3.9090   4.4173   4.7419   5.7169   5.7703
     6.3370

     the Fermi energy is     1.1163 ev

!    total energy              =   -1761.60775561 Ry
     estimated scf accuracy    <       0.00000298 Ry
     smearing contrib. (-TS)   =      -0.11185745 Ry
     internal energy E=F+TS    =   -1761.49589817 Ry

     The total energy is F=E-TS. E is the sum of the following terms:
     one-electron contribution =  -14794.00807230 Ry
     hartree contribution      =    7434.98985128 Ry
     xc contribution           =    -332.39990640 Ry
     ewald contribution        =    5929.92222924 Ry
     electric field correction =       0.00000001 Ry

     convergence has been achieved in  15 iterations

     negative rho (up, down):  1.366E-03 0.000E+00

     Forces acting on atoms (cartesian axes, Ry/au):

     atom    1 type  1   force =     0.00445245    0.00257514    0.00776434
     atom    2 type  1   force =     0.00447854    0.00258378    0.00773911
     atom    3 type  2   force =    -0.00651623   -0.00375305   -0.00451035
     atom    4 type  2   force =    -0.00649144   -0.00375764   -0.00447002
     atom    5 type  1   force =    -0.00209522   -0.00121439   -0.00256339
     atom    6 type  1   force =    -0.00206292   -0.00119463   -0.00254400
     atom    7 type  2   force =     0.00312766    0.00185861   -0.00438640
     atom    8 type  2   force =     0.00313282    0.00178703   -0.00439087
     atom    9 type  1   force =     0.00016519    0.00009446    0.00162427
     atom   10 type  1   force =     0.00014642    0.00008096    0.00164943
     atom   11 type  2   force =     0.00083600    0.00045350    0.00204724
     atom   12 type  2   force =     0.00082674    0.00048622    0.00204064

     Total force =     0.020772     Total SCF correction =     0.008517
     SCF correction compared to forces is large: reduce conv_thr to get better values

     Writing output data file ./Rh2Pt2/Rh2Pt2_beef.save/

     General routines

     Parallel routines

   This run was terminated on:  19: 1:59  24Jun2022

   JOB DONE.