     Program PWSCF v.6.6 starts on 24Jun2022 at 19: 2: 2

     R & G space division:  proc/nbgrp/npool/nimage =      37
     Fft bands division:     nmany     =       1
     Reading input from Rh2Re2.in
Warning: card &CELL ignored
Warning: card / ignored

     Current dimensions of program PWSCF are:
     Max number of different atomic species (ntypx) = 10
     Max number of k-points (npk) =  40000
     Max angular momentum in pseudopotentials (lmaxx) =  3
     Presently stress not available with electric field and gates

     Message from routine cell_base_init:
     DEPRECATED: use true lattice parameter, not A to a.u. conversion factor
     file Rh.pbe-spn-rrkjus_psl.1.0.0.UPF: wavefunction(s)  4S 5S renormalized

     IMPORTANT: XC functional enforced from input :
     Exchange-correlation= BEEF-VDW
                           (   1   4  43  14   2   0   0)
     Any further DFT definition will be discarded
     Please, verify this is what you really want

     Subspace diagonalization in iterative solution of the eigenvalue problem:
     a serial algorithm will be used

     Found symmetry operation: I + ( -0.5000  0.0000  0.0000)
     This is a supercell, fractional translations are disabled

     bravais-lattice index     =            0
     lattice parameter (alat)  =       1.8897  a.u.
     unit-cell volume          =    4278.3234 (a.u.)^3
     number of atoms/cell      =           12
     number of atomic types    =            2
     number of electrons       =       192.00
     number of Kohn-Sham states=          115
     kinetic-energy cutoff     =      55.1240  Ry
     charge density cutoff     =     551.2396  Ry
     convergence threshold     =      1.0E-05
     mixing beta               =       0.1000
     number of iterations used =           10  plain     mixing
     Exchange-correlation= BEEF-VDW
                           (   1   4  43  14   2   0   0)

     celldm(1)=   1.889726  celldm(2)=   0.000000  celldm(3)=   0.000000
     celldm(4)=   0.000000  celldm(5)=   0.000000  celldm(6)=   0.000000

     crystal axes: (cart. coord. in units of alat)
               a(1) = (   5.398726   0.000000   0.000000 )
               a(2) = (  -2.699363   4.800149   0.000000 )
               a(3) = (   0.000000   0.000000  24.464204 )

     reciprocal axes: (cart. coord. in units 2 pi/alat)
               b(1) = (  0.185229  0.104163 -0.000000 )
               b(2) = (  0.000000  0.208327  0.000000 )
               b(3) = (  0.000000 -0.000000  0.040876 )

     PseudoPot. # 1 for Rh read from file:
     ../pseudo/Rh.pbe-spn-rrkjus_psl.1.0.0.UPF
     MD5 check sum: 912a852783f0c9b7bd5e9eb06cc0cc10
     Pseudo is Ultrasoft + core correction, Zval = 17.0
     Generated using "atomic" code by A. Dal Corso v.6.3
     Using radial grid of 1233 points,  6 beta functions with:
                l(1) =   0
                l(2) =   0
                l(3) =   1
                l(4) =   1
                l(5) =   2
                l(6) =   2
     Q(r) pseudized with 0 coefficients

     PseudoPot. # 2 for Re read from file:
     ../pseudo/Re.pbe-spn-rrkjus_psl.1.0.0.UPF
     MD5 check sum: 1282f1ec51ad523723a04c61ae80a9e6
     Pseudo is Ultrasoft + core correction, Zval = 15.0
     Generated using "atomic" code by A. Dal Corso v.6.2.2
     Using radial grid of 1275 points,  6 beta functions with:
                l(1) =   0
                l(2) =   0
                l(3) =   1
                l(4) =   1
                l(5) =   2
                l(6) =   2
     Q(r) pseudized with 0 coefficients

     atomic species   valence    mass     pseudopotential
        Rh            17.00   102.90550     Rh( 1.00)
        Re            15.00   186.20700     Re( 1.00)

     No symmetry found

   Cartesian axes

     site n.     atom                  positions (alat units)
         1           Rh  tau(   1) = (   0.0000000   0.0000000  10.0000000  )
         2           Rh  tau(   2) = (   2.6993631   0.0000000  10.0000000  )
         3           Re  tau(   3) = (   1.3496816   2.4000746  10.0000000  )
         4           Re  tau(   4) = (  -1.3496816   2.4000746  10.0000000  )
         5           Rh  tau(   5) = (   2.6993631   1.5179864  12.2321018  )
         6           Rh  tau(   6) = (   0.0000000   1.5179864  12.2321018  )
         7           Re  tau(   7) = (  -1.3496816   3.9180610  12.2321018  )
         8           Re  tau(   8) = (   1.3496816   3.9180610  12.2321018  )
         9           Rh  tau(   9) = (  -0.0000007   3.1374407  14.3935590  )
        10           Rh  tau(  10) = (   2.6993696   3.1374355  14.3935584  )
        11           Re  tau(  11) = (   4.0490539   0.6524095  14.3649131  )
        12           Re  tau(  12) = (   1.3496826   0.6524033  14.3649103  )

     number of k points=    74  Fermi-Dirac smearing, width (Ry)=  0.0100
                       cart. coord. in units 2pi/alat
        k(    1) = (   0.0000000   0.0000000   0.0000000), wk =   0.0138889
        k(    2) = (   0.0000000   0.0173606   0.0000000), wk =   0.0277778
        k(    3) = (   0.0000000   0.0347211   0.0000000), wk =   0.0277778
        k(    4) = (   0.0000000   0.0520817   0.0000000), wk =   0.0277778
        k(    5) = (   0.0000000   0.0694423   0.0000000), wk =   0.0277778
        k(    6) = (   0.0000000   0.0868029   0.0000000), wk =   0.0277778
        k(    7) = (   0.0000000  -0.1041634   0.0000000), wk =   0.0138889
        k(    8) = (   0.0154357   0.0086803   0.0000000), wk =   0.0277778
        k(    9) = (   0.0154357   0.0260409   0.0000000), wk =   0.0277778
        k(   10) = (   0.0154357   0.0434014   0.0000000), wk =   0.0277778
        k(   11) = (   0.0154357   0.0607620   0.0000000), wk =   0.0277778
        k(   12) = (   0.0154357   0.0781226   0.0000000), wk =   0.0277778
        k(   13) = (   0.0154357   0.0954831   0.0000000), wk =   0.0277778
        k(   14) = (   0.0154357  -0.0954831   0.0000000), wk =   0.0277778
        k(   15) = (   0.0154357  -0.0781226   0.0000000), wk =   0.0277778
        k(   16) = (   0.0154357  -0.0607620   0.0000000), wk =   0.0277778
        k(   17) = (   0.0154357  -0.0434014   0.0000000), wk =   0.0277778
        k(   18) = (   0.0154357  -0.0260409   0.0000000), wk =   0.0277778
        k(   19) = (   0.0154357  -0.0086803   0.0000000), wk =   0.0277778
        k(   20) = (   0.0308715   0.0173606   0.0000000), wk =   0.0277778
        k(   21) = (   0.0308715   0.0347211   0.0000000), wk =   0.0277778
        k(   22) = (   0.0308715   0.0520817   0.0000000), wk =   0.0277778
        k(   23) = (   0.0308715   0.0694423   0.0000000), wk =   0.0277778
        k(   24) = (   0.0308715   0.0868029   0.0000000), wk =   0.0277778
        k(   25) = (   0.0308715   0.1041634   0.0000000), wk =   0.0277778
        k(   26) = (   0.0308715  -0.0868029   0.0000000), wk =   0.0277778
        k(   27) = (   0.0308715  -0.0694423   0.0000000), wk =   0.0277778
        k(   28) = (   0.0308715  -0.0520817   0.0000000), wk =   0.0277778
        k(   29) = (   0.0308715  -0.0347211   0.0000000), wk =   0.0277778
        k(   30) = (   0.0308715  -0.0173606   0.0000000), wk =   0.0277778
        k(   31) = (   0.0308715  -0.0000000   0.0000000), wk =   0.0277778
        k(   32) = (   0.0463072   0.0260409   0.0000000), wk =   0.0277778
        k(   33) = (   0.0463072   0.0434014   0.0000000), wk =   0.0277778
        k(   34) = (   0.0463072   0.0607620   0.0000000), wk =   0.0277778
        k(   35) = (   0.0463072   0.0781226   0.0000000), wk =   0.0277778
        k(   36) = (   0.0463072   0.0954831   0.0000000), wk =   0.0277778
        k(   37) = (   0.0463072   0.1128437   0.0000000), wk =   0.0277778
        k(   38) = (   0.0463072  -0.0781226   0.0000000), wk =   0.0277778
        k(   39) = (   0.0463072  -0.0607620   0.0000000), wk =   0.0277778
        k(   40) = (   0.0463072  -0.0434014   0.0000000), wk =   0.0277778
        k(   41) = (   0.0463072  -0.0260409   0.0000000), wk =   0.0277778
        k(   42) = (   0.0463072  -0.0086803   0.0000000), wk =   0.0277778
        k(   43) = (   0.0463072   0.0086803   0.0000000), wk =   0.0277778
        k(   44) = (   0.0617430   0.0347211   0.0000000), wk =   0.0277778
        k(   45) = (   0.0617430   0.0520817   0.0000000), wk =   0.0277778
        k(   46) = (   0.0617430   0.0694423   0.0000000), wk =   0.0277778
        k(   47) = (   0.0617430   0.0868029   0.0000000), wk =   0.0277778
        k(   48) = (   0.0617430   0.1041634   0.0000000), wk =   0.0277778
        k(   49) = (   0.0617430   0.1215240   0.0000000), wk =   0.0277778
        k(   50) = (   0.0617430  -0.0694423   0.0000000), wk =   0.0277778
        k(   51) = (   0.0617430  -0.0520817   0.0000000), wk =   0.0277778
        k(   52) = (   0.0617430  -0.0347211   0.0000000), wk =   0.0277778
        k(   53) = (   0.0617430  -0.0173606   0.0000000), wk =   0.0277778
        k(   54) = (   0.0617430   0.0000000   0.0000000), wk =   0.0277778
        k(   55) = (   0.0617430   0.0173606   0.0000000), wk =   0.0277778
        k(   56) = (   0.0771787   0.0434014   0.0000000), wk =   0.0277778
        k(   57) = (   0.0771787   0.0607620   0.0000000), wk =   0.0277778
        k(   58) = (   0.0771787   0.0781226   0.0000000), wk =   0.0277778
        k(   59) = (   0.0771787   0.0954831   0.0000000), wk =   0.0277778
        k(   60) = (   0.0771787   0.1128437   0.0000000), wk =   0.0277778
        k(   61) = (   0.0771787   0.1302043   0.0000000), wk =   0.0277778
        k(   62) = (   0.0771787  -0.0607620   0.0000000), wk =   0.0277778
        k(   63) = (   0.0771787  -0.0434014   0.0000000), wk =   0.0277778
        k(   64) = (   0.0771787  -0.0260409   0.0000000), wk =   0.0277778
        k(   65) = (   0.0771787  -0.0086803   0.0000000), wk =   0.0277778
        k(   66) = (   0.0771787   0.0086803   0.0000000), wk =   0.0277778
        k(   67) = (   0.0771787   0.0260409   0.0000000), wk =   0.0277778
        k(   68) = (  -0.0926144  -0.0520817   0.0000000), wk =   0.0138889
        k(   69) = (  -0.0926144  -0.0347211   0.0000000), wk =   0.0277778
        k(   70) = (  -0.0926144  -0.0173606   0.0000000), wk =   0.0277778
        k(   71) = (  -0.0926144   0.0000000   0.0000000), wk =   0.0277778
        k(   72) = (  -0.0926144   0.0173606   0.0000000), wk =   0.0277778
        k(   73) = (  -0.0926144   0.0347211   0.0000000), wk =   0.0277778
        k(   74) = (  -0.0926144  -0.1562451   0.0000000), wk =   0.0138889

     Initial potential from superposition of free atoms

     starting charge  191.99526, renormalised to  192.00000

     negative rho (up, down):  1.117E-03 0.000E+00

     %%%%%%%%%%%%%%%%%%%%%%%%%%%%%%%%%%%%%%%%%%%%%%%%%%%%%%%%%%%%%%%%%%%%%%%%
     %                                                                      %
     % You are using vdW-DF, which was implemented by the Thonhauser group. %
     % Please cite the following two papers that made this development      %
     % possible and the two reviews that describe the various versions:     %
     %                                                                      %
     %   T. Thonhauser et al., PRL 115, 136402 (2015).                      %
     %   T. Thonhauser et al., PRB 76, 125112 (2007).                       %
     %   K. Berland et al., Rep. Prog. Phys. 78, 066501 (2015).             %
     %   D.C. Langreth et al., J. Phys.: Condens. Matter 21, 084203 (2009). %
     %                                                                      %
     %                                                                      %
     % If you are calculating the stress with vdW-DF, please also cite:     %
     %                                                                      %
     %   R. Sabatini et al., J. Phys.: Condens. Matter 24, 424209 (2012).   %
     %                                                                      %
     %%%%%%%%%%%%%%%%%%%%%%%%%%%%%%%%%%%%%%%%%%%%%%%%%%%%%%%%%%%%%%%%%%%%%%%%

     Adding external electric field

     Computed dipole along edir(3) :
        Dipole                0.0000 Ry au,          0.0000 Debye
        Dipole field          0.0000 Ry au,

        Potential amp.       -0.0000 Ry
        Total length         45.0749 bohr

     Starting wfcs are  120 randomized atomic wfcs

     Self-consistent Calculation

     iteration #  1     ecut=    55.12 Ry     beta= 0.10
     Davidson diagonalization with overlap
     ethr =  1.00E-02,  avg # of iterations =  3.2

[...]

     total energy              =   -2440.03223860 Ry
     estimated scf accuracy    <       6.92296418 Ry

[...]

     total energy              =   -2440.54530863 Ry
     estimated scf accuracy    <       0.00006801 Ry

     iteration # 13     ecut=    55.12 Ry     beta= 0.10
     Davidson diagonalization with overlap
     ethr =  3.54E-08,  avg # of iterations =  1.8

[...]

     Adding external electric field

     Computed dipole along edir(3) :
        Dipole                0.0144 Ry au,          0.0366 Debye
        Dipole field          0.0000 Ry au,

        Potential amp.       -0.0038 Ry
        Total length         45.0749 bohr

     End of self-consistent calculation

          k = 0.0000 0.0000 0.0000 ( 29537 PWs)   bands (ev):

   -78.5263 -78.4778 -78.1531 -78.1353 -78.1052 -78.0879 -76.8371 -76.8032
   -76.3484 -76.3143 -76.2469 -76.2127 -44.8792 -44.7555 -44.7067 -44.6963
   -44.6501 -44.5035 -44.3688 -44.2948 -44.2450 -44.2425 -44.2053 -44.1563
   -44.1398 -44.1010 -44.0297 -43.9956 -43.9914 -43.8733 -40.5588 -40.3813
   -40.3095 -40.2234 -40.1624 -40.1272 -40.0990 -39.9038 -39.8677 -39.8442
   -39.8316 -39.8285 -39.8047 -39.7647 -39.6862 -39.6226 -39.4143 -39.3883
    -5.9156  -4.0907  -3.9497  -3.7953  -3.7570  -3.6460  -3.4412  -3.2666
    -3.2168  -2.9954  -2.9630  -2.9121  -2.5985  -2.4898  -2.4488  -1.2907
    -1.2864  -1.2745  -0.8999  -0.6277  -0.5152  -0.3922  -0.3377  -0.2244
    -0.1537  -0.1467   0.0485   0.0508   0.2915   0.3274   0.3395   0.5419
     0.5858   0.7470   1.1703   1.5205   1.5324   1.7041   1.8056   1.8090
     1.9545   2.1261   2.4723   2.6058   2.7273   2.8447   2.9301   3.1908
     3.3978   3.5501   3.8005   3.8437   3.8868   3.9476   4.0678   4.1264
     4.2054   4.2307   4.4544   4.5574   4.6142   4.8481   5.0134   5.0581
     5.2334   5.3224   5.7598

[...]

          k = 0.0772 0.0260 0.0000 ( 29620 PWs)   bands (ev):

[...]

          k =-0.0926-0.0521 0.0000 ( 29578 PWs)   bands (ev):

[...]

          k =-0.0926-0.1562 0.0000 ( 29578 PWs)   bands (ev):

   -78.5019 -78.5019 -78.1291 -78.1291 -78.1116 -78.1116 -76.8204 -76.8204
   -76.3315 -76.3315 -76.2300 -76.2300 -44.7276 -44.7276 -44.6915 -44.6915
   -44.6686 -44.6686 -44.2650 -44.2650 -44.1825 -44.1825 -44.1742 -44.1742
   -44.1213 -44.1213 -44.0579 -44.0579 -44.0101 -44.0101 -40.3535 -40.3535
   -40.2150 -40.2150 -40.1978 -40.1978 -39.8650 -39.8650 -39.8445 -39.8444
   -39.8059 -39.8058 -39.7809 -39.7809 -39.7546 -39.7546 -39.6565 -39.6565
    -4.0881  -4.0881  -2.8540  -2.8540  -2.6632  -2.6632  -2.5620  -2.5620
    -2.3143  -2.3143  -2.0392  -2.0392  -1.6718  -1.6718  -1.5818  -1.5818
    -1.2749  -1.2749  -1.0999  -1.0999  -0.7687  -0.7687  -0.3126  -0.3126
    -0.1321  -0.1321   0.0229   0.0229   0.1031   0.1032   0.2380   0.2380
     0.4160   0.4160   0.5296   0.5297   0.5852   0.5852   0.6591   0.6592
     1.1474   1.1474   1.6117   1.6117   2.0179   2.0179   2.1344   2.1344
     2.3286   2.3286   2.5272   2.5272   2.6368   2.6368   2.8350   2.8350
     3.3488   3.3488   3.5274   3.5274   4.2676   4.2676   4.5781   4.5781
     5.3824   5.3824   6.4074

     the Fermi energy is     2.4134 ev

!    total energy              =   -2440.54531033 Ry
     estimated scf accuracy    <       0.00000862 Ry
     smearing contrib. (-TS)   =      -0.05956682 Ry
     internal energy E=F+TS    =   -2440.48574351 Ry

     The total energy is F=E-TS. E is the sum of the following terms:
     one-electron contribution =  -21604.15399233 Ry
     hartree contribution      =   10794.02925523 Ry
     xc contribution           =    -429.84903194 Ry
     ewald contribution        =    8799.48802493 Ry
     electric field correction =       0.00000061 Ry

     convergence has been achieved in  13 iterations

     negative rho (up, down):  1.120E-03 0.000E+00

     Forces acting on atoms (cartesian axes, Ry/au):

     atom    1 type  1   force =    -0.00000122   -0.02306978    0.01647172
     atom    2 type  1   force =     0.00000055   -0.02307105    0.01647284
     atom    3 type  2   force =    -0.00000141    0.01581380    0.02439048
     atom    4 type  2   force =     0.00000173    0.01581188    0.02438429
     atom    5 type  1   force =     0.00000279    0.00490774   -0.01387199
     atom    6 type  1   force =    -0.00000274    0.00490941   -0.01387182
     atom    7 type  2   force =     0.00000117    0.00193385   -0.02218227
     atom    8 type  2   force =     0.00000012    0.00193445   -0.02218208
     atom    9 type  1   force =     0.00000501    0.00045182   -0.00275181
     atom   10 type  1   force =    -0.00000510    0.00045221   -0.00275110
     atom   11 type  2   force =    -0.00000074   -0.00003923   -0.00205422
     atom   12 type  2   force =    -0.00000017   -0.00003511   -0.00205404

     Total force =     0.068887     Total SCF correction =     0.016163
     SCF correction compared to forces is large: reduce conv_thr to get better values

     Writing output data file ./Rh2Re2/Rh2Re2_beef.save/

     General routines

     Parallel routines

   This run was terminated on:  19:52:38  24Jun2022

   JOB DONE.