     Program PWSCF v.6.6 starts on 25Jun2022 at 14:53:21

     R & G space division:  proc/nbgrp/npool/nimage =      37
     Fft bands division:     nmany     =       1
     Reading input from Rh2Ta2.in
Warning: card &CELL ignored
Warning: card / ignored

     Current dimensions of program PWSCF are:
     Max number of different atomic species (ntypx) = 10
     Max number of k-points (npk) =  40000
     Max angular momentum in pseudopotentials (lmaxx) =  3
     Presently stress not available with electric field and gates

     Message from routine cell_base_init:
     DEPRECATED: use true lattice parameter, not A to a.u. conversion factor
     file Rh.pbe-spn-rrkjus_psl.1.0.0.UPF: wavefunction(s)  4S 5S renormalized
     file Ta.pbe-spfn-rrkjus_psl.1.0.0.UPF: wavefunction(s)  5S 5P renormalized

     IMPORTANT: XC functional enforced from input :
     Exchange-correlation= BEEF-VDW
                           (   1   4  43  14   2   0   0)
     Any further DFT definition will be discarded
     Please, verify this is what you really want

     Subspace diagonalization in iterative solution of the eigenvalue problem:
     a serial algorithm will be used

     Found symmetry operation: I + (  0.5000 -0.5000  0.0000)
     This is a supercell, fractional translations are disabled

     bravais-lattice index     =            0
     lattice parameter (alat)  =       1.8897  a.u.
     unit-cell volume          =    4609.2296 (a.u.)^3
     number of atoms/cell      =           12
     number of atomic types    =            2
     number of electrons       =       264.00
     number of Kohn-Sham states=          158
     kinetic-energy cutoff     =      55.1240  Ry
     charge density cutoff     =     551.2396  Ry
     convergence threshold     =      1.0E-05
     mixing beta               =       0.1000
     number of iterations used =           10  plain     mixing
     Exchange-correlation= BEEF-VDW
                           (   1   4  43  14   2   0   0)

     celldm(1)=   1.889726  celldm(2)=   0.000000  celldm(3)=   0.000000
     celldm(4)=   0.000000  celldm(5)=   0.000000  celldm(6)=   0.000000

     crystal axes: (cart. coord. in units of alat)
               a(1) = (   5.613346   0.000000   0.000000 )
               a(2) = (   2.660593   4.942762   0.000000 )
               a(3) = (   0.000000   0.000000  24.617294 )

     reciprocal axes: (cart. coord. in units 2 pi/alat)
               b(1) = (  0.178147 -0.095893  0.000000 )
               b(2) = (  0.000000  0.202316  0.000000 )
               b(3) = (  0.000000  0.000000  0.040622 )

     PseudoPot. # 1 for Rh read from file:
     ../pseudo/Rh.pbe-spn-rrkjus_psl.1.0.0.UPF
     MD5 check sum: 912a852783f0c9b7bd5e9eb06cc0cc10
     Pseudo is Ultrasoft + core correction, Zval = 17.0
     Generated using "atomic" code by A. Dal Corso v.6.3
     Using radial grid of 1233 points,  6 beta functions with:
                l(1) =   0
                l(2) =   0
                l(3) =   1
                l(4) =   1
                l(5) =   2
                l(6) =   2
     Q(r) pseudized with 0 coefficients

     PseudoPot. # 2 for Ta read from file:
     ../pseudo/Ta.pbe-spfn-rrkjus_psl.1.0.0.UPF
     MD5 check sum: 39d7d349fe394e56adf8454eb9315fbb
     Pseudo is Ultrasoft + core correction, Zval = 27.0
     Generated using "atomic" code by A. Dal Corso v.6.3
     Using radial grid of 1273 points,  8 beta functions with:
                l(1) =   0
                l(2) =   0
                l(3) =   1
                l(4) =   1
                l(5) =   2
                l(6) =   2
                l(7) =   3
                l(8) =   3
     Q(r) pseudized with 0 coefficients

     atomic species   valence    mass     pseudopotential
        Rh            17.00   102.90550     Rh( 1.00)
        Ta            27.00   180.94788     Ta( 1.00)

     No symmetry found

   Cartesian axes

     site n.     atom                  positions (alat units)
         1           Rh  tau(   1) = (   0.0000000   0.0000000  10.0000000  )
         2           Rh  tau(   2) = (   4.1369695   2.4713812  10.0000000  )
         3           Ta  tau(   3) = (   2.8066731   0.0000000  10.0000000  )
         4           Ta  tau(   4) = (   1.3302965   2.4713812  10.0000000  )
         5           Rh  tau(   5) = (   5.6133462   3.3533527  12.3086471  )
         6           Rh  tau(   6) = (   1.4763766   0.8819715  12.3086471  )
         7           Ta  tau(   7) = (   2.8066731   3.3533527  12.3086471  )
         8           Ta  tau(   8) = (   4.2830497   0.8819715  12.3086471  )
         9           Rh  tau(   9) = (   3.0755596   1.8373020  14.5528574  )
        10           Rh  tau(  10) = (   7.2125277   4.3086904  14.5528573  )
        11           Ta  tau(  11) = (   5.8828904   1.8376934  14.5437884  )
        12           Ta  tau(  12) = (   4.4065071   4.3090825  14.5437919  )

     number of k points=    74  Fermi-Dirac smearing, width (Ry)=  0.0100
                       cart. coord. in units 2pi/alat
        k(    1) = (   0.0000000   0.0000000   0.0000000), wk =   0.0138889
        k(    2) = (   0.0000000   0.0168597   0.0000000), wk =   0.0277778
        k(    3) = (   0.0000000   0.0337193   0.0000000), wk =   0.0277778
        k(    4) = (   0.0000000   0.0505790   0.0000000), wk =   0.0277778
        k(    5) = (   0.0000000   0.0674387   0.0000000), wk =   0.0277778
        k(    6) = (   0.0000000   0.0842983   0.0000000), wk =   0.0277778
        k(    7) = (   0.0000000  -0.1011580   0.0000000), wk =   0.0138889
        k(    8) = (   0.0148456  -0.0079911   0.0000000), wk =   0.0277778
        k(    9) = (   0.0148456   0.0088686   0.0000000), wk =   0.0277778
        k(   10) = (   0.0148456   0.0257283   0.0000000), wk =   0.0277778
        k(   11) = (   0.0148456   0.0425879   0.0000000), wk =   0.0277778
        k(   12) = (   0.0148456   0.0594476   0.0000000), wk =   0.0277778
        k(   13) = (   0.0148456   0.0763073   0.0000000), wk =   0.0277778
        k(   14) = (   0.0148456  -0.1091491   0.0000000), wk =   0.0277778
        k(   15) = (   0.0148456  -0.0922894   0.0000000), wk =   0.0277778
        k(   16) = (   0.0148456  -0.0754298   0.0000000), wk =   0.0277778
        k(   17) = (   0.0148456  -0.0585701   0.0000000), wk =   0.0277778
        k(   18) = (   0.0148456  -0.0417104   0.0000000), wk =   0.0277778
        k(   19) = (   0.0148456  -0.0248508   0.0000000), wk =   0.0277778
        k(   20) = (   0.0296911  -0.0159822   0.0000000), wk =   0.0277778
        k(   21) = (   0.0296911   0.0008775   0.0000000), wk =   0.0277778
        k(   22) = (   0.0296911   0.0177372   0.0000000), wk =   0.0277778
        k(   23) = (   0.0296911   0.0345968   0.0000000), wk =   0.0277778
        k(   24) = (   0.0296911   0.0514565   0.0000000), wk =   0.0277778
        k(   25) = (   0.0296911   0.0683162   0.0000000), wk =   0.0277778
        k(   26) = (   0.0296911  -0.1171402   0.0000000), wk =   0.0277778
        k(   27) = (   0.0296911  -0.1002805   0.0000000), wk =   0.0277778
        k(   28) = (   0.0296911  -0.0834208   0.0000000), wk =   0.0277778
        k(   29) = (   0.0296911  -0.0665612   0.0000000), wk =   0.0277778
        k(   30) = (   0.0296911  -0.0497015   0.0000000), wk =   0.0277778
        k(   31) = (   0.0296911  -0.0328418   0.0000000), wk =   0.0277778
        k(   32) = (   0.0445367  -0.0239733   0.0000000), wk =   0.0277778
        k(   33) = (   0.0445367  -0.0071136   0.0000000), wk =   0.0277778
        k(   34) = (   0.0445367   0.0097461   0.0000000), wk =   0.0277778
        k(   35) = (   0.0445367   0.0266058   0.0000000), wk =   0.0277778
        k(   36) = (   0.0445367   0.0434654   0.0000000), wk =   0.0277778
        k(   37) = (   0.0445367   0.0603251   0.0000000), wk =   0.0277778
        k(   38) = (   0.0445367  -0.1251313   0.0000000), wk =   0.0277778
        k(   39) = (   0.0445367  -0.1082716   0.0000000), wk =   0.0277778
        k(   40) = (   0.0445367  -0.0914119   0.0000000), wk =   0.0277778
        k(   41) = (   0.0445367  -0.0745523   0.0000000), wk =   0.0277778
        k(   42) = (   0.0445367  -0.0576926   0.0000000), wk =   0.0277778
        k(   43) = (   0.0445367  -0.0408329   0.0000000), wk =   0.0277778
        k(   44) = (   0.0593823  -0.0319643   0.0000000), wk =   0.0277778
        k(   45) = (   0.0593823  -0.0151047   0.0000000), wk =   0.0277778
        k(   46) = (   0.0593823   0.0017550   0.0000000), wk =   0.0277778
        k(   47) = (   0.0593823   0.0186147   0.0000000), wk =   0.0277778
        k(   48) = (   0.0593823   0.0354743   0.0000000), wk =   0.0277778
        k(   49) = (   0.0593823   0.0523340   0.0000000), wk =   0.0277778
        k(   50) = (   0.0593823  -0.1331224   0.0000000), wk =   0.0277778
        k(   51) = (   0.0593823  -0.1162627   0.0000000), wk =   0.0277778
        k(   52) = (   0.0593823  -0.0994030   0.0000000), wk =   0.0277778
        k(   53) = (   0.0593823  -0.0825433   0.0000000), wk =   0.0277778
        k(   54) = (   0.0593823  -0.0656837   0.0000000), wk =   0.0277778
        k(   55) = (   0.0593823  -0.0488240   0.0000000), wk =   0.0277778
        k(   56) = (   0.0742279  -0.0399554   0.0000000), wk =   0.0277778
        k(   57) = (   0.0742279  -0.0230957   0.0000000), wk =   0.0277778
        k(   58) = (   0.0742279  -0.0062361   0.0000000), wk =   0.0277778
        k(   59) = (   0.0742279   0.0106236   0.0000000), wk =   0.0277778
        k(   60) = (   0.0742279   0.0274833   0.0000000), wk =   0.0277778
        k(   61) = (   0.0742279   0.0443429   0.0000000), wk =   0.0277778
        k(   62) = (   0.0742279  -0.1411134   0.0000000), wk =   0.0277778
        k(   63) = (   0.0742279  -0.1242538   0.0000000), wk =   0.0277778
        k(   64) = (   0.0742279  -0.1073941   0.0000000), wk =   0.0277778
        k(   65) = (   0.0742279  -0.0905344   0.0000000), wk =   0.0277778
        k(   66) = (   0.0742279  -0.0736748   0.0000000), wk =   0.0277778
        k(   67) = (   0.0742279  -0.0568151   0.0000000), wk =   0.0277778
        k(   68) = (  -0.0890734   0.0479465   0.0000000), wk =   0.0138889
        k(   69) = (  -0.0890734   0.0648062   0.0000000), wk =   0.0277778
        k(   70) = (  -0.0890734   0.0816658   0.0000000), wk =   0.0277778
        k(   71) = (  -0.0890734   0.0985255   0.0000000), wk =   0.0277778
        k(   72) = (  -0.0890734   0.1153852   0.0000000), wk =   0.0277778
        k(   73) = (  -0.0890734   0.1322449   0.0000000), wk =   0.0277778
        k(   74) = (  -0.0890734  -0.0532115   0.0000000), wk =   0.0138889

     Initial potential from superposition of free atoms

     starting charge  263.99200, renormalised to  264.00000

     negative rho (up, down):  1.097E-03 0.000E+00

     %%%%%%%%%%%%%%%%%%%%%%%%%%%%%%%%%%%%%%%%%%%%%%%%%%%%%%%%%%%%%%%%%%%%%%%%
     %                                                                      %
     % You are using vdW-DF, which was implemented by the Thonhauser group. %
     % Please cite the following two papers that made this development      %
     % possible and the two reviews that describe the various versions:     %
     %                                                                      %
     %   T. Thonhauser et al., PRL 115, 136402 (2015).                      %
     %   T. Thonhauser et al., PRB 76, 125112 (2007).                       %
     %   K. Berland et al., Rep. Prog. Phys. 78, 066501 (2015).             %
     %   D.C. Langreth et al., J. Phys.: Condens. Matter 21, 084203 (2009). %
     %                                                                      %
     %                                                                      %
     % If you are calculating the stress with vdW-DF, please also cite:     %
     %                                                                      %
     %   R. Sabatini et al., J. Phys.: Condens. Matter 24, 424209 (2012).   %
     %                                                                      %
     %%%%%%%%%%%%%%%%%%%%%%%%%%%%%%%%%%%%%%%%%%%%%%%%%%%%%%%%%%%%%%%%%%%%%%%%

     Adding external electric field

     Computed dipole along edir(3) :
        Dipole               -0.0000 Ry au,         -0.0000 Debye
        Dipole field         -0.0000 Ry au,

        Potential amp.        0.0000 Ry
        Total length         45.3569 bohr

     Starting wfcs are  162 randomized atomic wfcs

     Self-consistent Calculation

     iteration #  1     ecut=    55.12 Ry     beta= 0.10
     Davidson diagonalization with overlap
     ethr =  1.00E-02,  avg # of iterations =  3.7

[...]

     total energy              =   -5456.58321041 Ry
     estimated scf accuracy    <       9.14220350 Ry

[...]

     iteration #  7     ecut=    55.12 Ry     beta= 0.10
     Davidson diagonalization with overlap
     c_bands:  1 eigenvalues not converged
     c_bands:  1 eigenvalues not converged
     ethr =  1.97E-05,  avg # of iterations =  6.1

[...]

     total energy              =   -5457.01320848 Ry
     estimated scf accuracy    <       0.00002155 Ry

     iteration # 14     ecut=    55.12 Ry     beta= 0.10
     Davidson diagonalization with overlap
     ethr =  8.16E-09,  avg # of iterations =  2.1

[...]

     Adding external electric field

     Computed dipole along edir(3) :
        Dipole                0.0279 Ry au,          0.0710 Debye
        Dipole field          0.0001 Ry au,

        Potential amp.       -0.0069 Ry
        Total length         45.3569 bohr

     End of self-consistent calculation

          k = 0.0000 0.0000 0.0000 ( 31889 PWs)   bands (ev):

   -76.1046 -76.0892 -75.6437 -75.6284 -75.5711 -75.5560 -65.9599 -65.9373
   -65.9166 -65.8942 -65.7630 -65.7189 -44.0485 -44.0446 -44.0238 -43.9150
   -43.8938 -43.8547 -43.5983 -43.5766 -43.5605 -43.5357 -43.5141 -43.4794
   -43.4578 -43.4391 -43.3690 -43.3684 -43.3507 -43.2889 -32.4500 -32.4405
   -32.4257 -32.3788 -32.3653 -32.3510 -32.2749 -32.2321 -32.1922 -32.1679
   -32.1225 -32.1026 -32.0257 -31.8690 -31.8002 -31.7512 -31.7255 -31.6788
   -17.6510 -17.6507 -17.6495 -17.6487 -17.6333 -17.6315 -17.6312 -17.6297
   -17.6263 -17.6103 -17.6091 -17.6089 -17.6086 -17.6009 -17.5929 -17.5914
   -17.5912 -17.5831 -17.5805 -17.5716 -17.5670 -17.5640 -17.5527 -17.5482
   -17.5384 -17.5345 -17.5197 -17.5159 -17.4261 -17.4243 -17.4025 -17.4017
   -17.3991 -17.3958 -17.3878 -17.3878 -17.3797 -17.3731 -17.3698 -17.3644
   -17.3511 -17.3490  -4.6115  -2.9734  -2.5989  -2.3820  -2.2939  -2.2253
    -2.1933  -1.9614  -1.8218  -1.6467  -1.5491  -1.5331  -1.4772  -1.2610
    -1.2202  -0.3085  -0.2462  -0.0804   0.1220   0.1893   0.3909   0.4073
     0.5300   0.5494   0.6550   0.7946   0.9538   1.0251   1.0968   1.8186
     1.9845   2.0036   2.1028   2.1968   2.2495   2.3279   2.4030   2.5842
     2.8215   2.9989   3.1018   3.3976   3.5333   3.5445   3.7548   3.8996
     4.1661   4.1948   4.2892   4.4339   4.7619   4.9020   4.9040   4.9547
     5.2914   5.4931   5.6884   5.7509   6.2265   6.2323   6.6505   6.7491
     6.9119   7.0713   7.0843   7.0975   7.3311   7.3806

[...]

          k = 0.0742-0.0568 0.0000 ( 31846 PWs)   bands (ev):

[...]

          k =-0.0891 0.0479 0.0000 ( 31852 PWs)   bands (ev):

[...]

          k =-0.0891-0.0532 0.0000 ( 31786 PWs)   bands (ev):

   -76.1046 -76.0892 -75.6436 -75.6284 -75.5711 -75.5560 -65.9602 -65.9376
   -65.9168 -65.8943 -65.7634 -65.7188 -44.0461 -44.0427 -44.0228 -43.9107
   -43.8922 -43.8544 -43.5929 -43.5748 -43.5580 -43.5301 -43.5122 -43.4769
   -43.4580 -43.4394 -43.3687 -43.3682 -43.3507 -43.2887 -32.4654 -32.4593
   -32.4318 -32.3855 -32.3732 -32.3398 -32.2685 -32.2611 -32.2104 -32.1741
   -32.1321 -32.1075 -32.0380 -31.8698 -31.8014 -31.7535 -31.7270 -31.6804
   -17.6514 -17.6511 -17.6497 -17.6487 -17.6337 -17.6319 -17.6314 -17.6298
   -17.6266 -17.6106 -17.6094 -17.6092 -17.6086 -17.6009 -17.5931 -17.5915
   -17.5914 -17.5832 -17.5804 -17.5726 -17.5679 -17.5639 -17.5538 -17.5491
   -17.5383 -17.5351 -17.5196 -17.5165 -17.4267 -17.4249 -17.4029 -17.4017
   -17.3993 -17.3968 -17.3882 -17.3881 -17.3798 -17.3733 -17.3703 -17.3645
   -17.3510 -17.3492  -2.9416  -2.7597  -1.7027  -1.6162  -1.5495  -1.3355
    -1.2328  -1.2243  -1.1335  -1.0230  -0.8899  -0.6775  -0.6116  -0.4185
    -0.3884  -0.3467  -0.2370  -0.0736  -0.0685   0.3448   0.3867   0.4012
     0.5589   0.6626   0.6920   0.7464   0.9310   1.0864   1.0895   1.2058
     1.2397   1.3199   1.4047   1.4825   1.6661   1.7015   1.7693   1.8155
     1.9882   1.9936   2.0080   2.1085   2.1579   2.3022   2.3875   2.4219
     2.5947   2.9609   3.4203   3.8393   4.0826   4.1410   4.1503   4.6535
     4.8125   5.1300   5.1641   5.2404   5.4174   5.4682   5.6801   5.9452
     6.2680   6.4229   6.5718   6.7356   7.1381   7.4941

     the Fermi energy is     2.7984 ev

!    total energy              =   -5457.01320873 Ry
     estimated scf accuracy    <       0.00000923 Ry
     smearing contrib. (-TS)   =      -0.06506337 Ry
     internal energy E=F+TS    =   -5456.94814536 Ry

     The total energy is F=E-TS. E is the sum of the following terms:
     one-electron contribution =  -40023.28450734 Ry
     hartree contribution      =   20116.29907228 Ry
     xc contribution           =    -598.19238839 Ry
     ewald contribution        =   15048.22967596 Ry
     electric field correction =       0.00000213 Ry

     convergence has been achieved in  14 iterations

     negative rho (up, down):  1.131E-03 0.000E+00

     Forces acting on atoms (cartesian axes, Ry/au):

     atom    1 type  1   force =    -0.00751898   -0.00448969    0.01339087
     atom    2 type  1   force =    -0.00751732   -0.00449342    0.01339009
     atom    3 type  2   force =    -0.00331133   -0.00197539    0.01567769
     atom    4 type  2   force =    -0.00329496   -0.00196871    0.01568963
     atom    5 type  1   force =     0.00502225    0.00300113   -0.01299875
     atom    6 type  1   force =     0.00502323    0.00299876   -0.01299938
     atom    7 type  2   force =     0.00426599    0.00254826   -0.01134169
     atom    8 type  2   force =     0.00427343    0.00255314   -0.01133815
     atom    9 type  1   force =     0.00056565    0.00033698   -0.00264996
     atom   10 type  1   force =     0.00056375    0.00033733   -0.00264914
     atom   11 type  2   force =     0.00097088    0.00058377   -0.00208133
     atom   12 type  2   force =     0.00095741    0.00056784   -0.00208990

     Total force =     0.042104     Total SCF correction =     0.014563
     SCF correction compared to forces is large: reduce conv_thr to get better values

     Writing output data file ./Rh2Ta2/Rh2Ta2_beef.save/

     General routines

     Parallel routines

   This run was terminated on:  17:14:37  25Jun2022

   JOB DONE.