     Program PWSCF v.6.6 starts on 24Jun2022 at 14:13: 1

     R & G space division:  proc/nbgrp/npool/nimage =      37
     Fft bands division:     nmany     =       1
     Reading input from Rh2W2.in
Warning: card &CELL ignored
Warning: card / ignored

     Current dimensions of program PWSCF are:
     Max number of different atomic species (ntypx) = 10
     Max number of k-points (npk) =  40000
     Max angular momentum in pseudopotentials (lmaxx) =  3
     Presently stress not available with electric field and gates

     Message from routine cell_base_init:
     DEPRECATED: use true lattice parameter, not A to a.u. conversion factor
     Message from routine emend_upf/check:
     BEWARE !!! Possible out of bounds while fixing pseudo
     Message from routine emend_upf/check:
     BEWARE !!! Possible out of bounds while fixing pseudo
     Message from routine read_upf:
     Pseudo file W.pbe-spn-rrkjus_psl.0.2.3.UPF has been fixed on the fly.
     To avoid this message in the future, permanently fix
     your pseudo files following these instructions:
     file Rh.pbe-spn-rrkjus_psl.1.0.0.UPF: wavefunction(s)  4S 5S renormalized

     IMPORTANT: XC functional enforced from input :
     Exchange-correlation= BEEF-VDW
                           (   1   4  43  14   2   0   0)
     Any further DFT definition will be discarded
     Please, verify this is what you really want

     Subspace diagonalization in iterative solution of the eigenvalue problem:
     a serial algorithm will be used

     Found symmetry operation: I + (  0.5000  0.0000  0.0000)
     This is a supercell, fractional translations are disabled

     bravais-lattice index     =            0
     lattice parameter (alat)  =       1.8897  a.u.
     unit-cell volume          =    4397.6718 (a.u.)^3
     number of atoms/cell      =           12
     number of atomic types    =            2
     number of electrons       =       186.00
     number of Kohn-Sham states=          112
     kinetic-energy cutoff     =      55.1240  Ry
     charge density cutoff     =     551.2396  Ry
     convergence threshold     =      1.0E-05
     mixing beta               =       0.1000
     number of iterations used =           10  plain     mixing
     Exchange-correlation= BEEF-VDW
                           (   1   4  43  14   2   0   0)

     celldm(1)=   1.889726  celldm(2)=   0.000000  celldm(3)=   0.000000
     celldm(4)=   0.000000  celldm(5)=   0.000000  celldm(6)=   0.000000

     crystal axes: (cart. coord. in units of alat)
               a(1) = (   5.520439   0.000000   0.000000 )
               a(2) = (  -2.760219   4.813750   0.000000 )
               a(3) = (   0.000000   0.000000  24.522749 )

     reciprocal axes: (cart. coord. in units 2 pi/alat)
               b(1) = (  0.181145  0.103869 -0.000000 )
               b(2) = (  0.000000  0.207738  0.000000 )
               b(3) = (  0.000000 -0.000000  0.040778 )

     PseudoPot. # 1 for Rh read from file:
     ../pseudo/Rh.pbe-spn-rrkjus_psl.1.0.0.UPF
     MD5 check sum: 912a852783f0c9b7bd5e9eb06cc0cc10
     Pseudo is Ultrasoft + core correction, Zval = 17.0
     Generated using "atomic" code by A. Dal Corso v.6.3
     Using radial grid of 1233 points,  6 beta functions with:
                l(1) =   0
                l(2) =   0
                l(3) =   1
                l(4) =   1
                l(5) =   2
                l(6) =   2
     Q(r) pseudized with 0 coefficients

     PseudoPot. # 2 for W  read from file:
     ../pseudo/W.pbe-spn-rrkjus_psl.0.2.3.UPF
     MD5 check sum: 25b665cf2bbae626ad8d9f1bc024df95
     Pseudo is Ultrasoft + core correction, Zval = 14.0
     Generated using "atomic" code by A. Dal Corso v.5.0.2 svn rev. 10551
     Using radial grid of 1273 points,  6 beta functions with:
                l(1) =   0
                l(2) =   0
                l(3) =   1
                l(4) =   1
                l(5) =   2
                l(6) =   2
     Q(r) pseudized with 0 coefficients

     atomic species   valence    mass     pseudopotential
        Rh            17.00   102.90550     Rh( 1.00)
        W             14.00   183.84000     W ( 1.00)

     No symmetry found

   Cartesian axes

     site n.     atom                  positions (alat units)
         1           Rh  tau(   1) = (   0.0000000   0.0000000  10.0000000  )
         2           Rh  tau(   2) = (   2.7602194   0.0000000  10.0000000  )
         3           W   tau(   3) = (   1.3801097   2.4068752  10.0000000  )
         4           W   tau(   4) = (  -1.3801097   2.4068752  10.0000000  )
         5           Rh  tau(   5) = (   2.7602194   1.5827184  12.2613743  )
         6           Rh  tau(   6) = (   0.0000000   1.5827184  12.2613743  )
         7           W   tau(   7) = (  -1.3801097   3.9895936  12.2613743  )
         8           W   tau(   8) = (   1.3801097   3.9895936  12.2613743  )
         9           Rh  tau(   9) = (   0.0000016   3.2451610  14.4678511  )
        10           Rh  tau(  10) = (   2.7602175   3.2451619  14.4678510  )
        11           W   tau(  11) = (   4.1403286   0.7881886  14.4086920  )
        12           W   tau(  12) = (   1.3801082   0.7881899  14.4086923  )

     number of k points=    74  Fermi-Dirac smearing, width (Ry)=  0.0100
                       cart. coord. in units 2pi/alat
        k(    1) = (   0.0000000   0.0000000   0.0000000), wk =   0.0138889
        k(    2) = (   0.0000000   0.0173115   0.0000000), wk =   0.0277778
        k(    3) = (   0.0000000   0.0346230   0.0000000), wk =   0.0277778
        k(    4) = (   0.0000000   0.0519346   0.0000000), wk =   0.0277778
        k(    5) = (   0.0000000   0.0692461   0.0000000), wk =   0.0277778
        k(    6) = (   0.0000000   0.0865576   0.0000000), wk =   0.0277778
        k(    7) = (   0.0000000  -0.1038691   0.0000000), wk =   0.0138889
        k(    8) = (   0.0150954   0.0086558   0.0000000), wk =   0.0277778
        k(    9) = (   0.0150954   0.0259673   0.0000000), wk =   0.0277778
        k(   10) = (   0.0150954   0.0432788   0.0000000), wk =   0.0277778
        k(   11) = (   0.0150954   0.0605903   0.0000000), wk =   0.0277778
        k(   12) = (   0.0150954   0.0779018   0.0000000), wk =   0.0277778
        k(   13) = (   0.0150954   0.0952134   0.0000000), wk =   0.0277778
        k(   14) = (   0.0150954  -0.0952134   0.0000000), wk =   0.0277778
        k(   15) = (   0.0150954  -0.0779018   0.0000000), wk =   0.0277778
        k(   16) = (   0.0150954  -0.0605903   0.0000000), wk =   0.0277778
        k(   17) = (   0.0150954  -0.0432788   0.0000000), wk =   0.0277778
        k(   18) = (   0.0150954  -0.0259673   0.0000000), wk =   0.0277778
        k(   19) = (   0.0150954  -0.0086558   0.0000000), wk =   0.0277778
        k(   20) = (   0.0301908   0.0173115   0.0000000), wk =   0.0277778
        k(   21) = (   0.0301908   0.0346230   0.0000000), wk =   0.0277778
        k(   22) = (   0.0301908   0.0519346   0.0000000), wk =   0.0277778
        k(   23) = (   0.0301908   0.0692461   0.0000000), wk =   0.0277778
        k(   24) = (   0.0301908   0.0865576   0.0000000), wk =   0.0277778
        k(   25) = (   0.0301908   0.1038691   0.0000000), wk =   0.0277778
        k(   26) = (   0.0301908  -0.0865576   0.0000000), wk =   0.0277778
        k(   27) = (   0.0301908  -0.0692461   0.0000000), wk =   0.0277778
        k(   28) = (   0.0301908  -0.0519346   0.0000000), wk =   0.0277778
        k(   29) = (   0.0301908  -0.0346230   0.0000000), wk =   0.0277778
        k(   30) = (   0.0301908  -0.0173115   0.0000000), wk =   0.0277778
        k(   31) = (   0.0301908  -0.0000000   0.0000000), wk =   0.0277778
        k(   32) = (   0.0452863   0.0259673   0.0000000), wk =   0.0277778
        k(   33) = (   0.0452863   0.0432788   0.0000000), wk =   0.0277778
        k(   34) = (   0.0452863   0.0605903   0.0000000), wk =   0.0277778
        k(   35) = (   0.0452863   0.0779018   0.0000000), wk =   0.0277778
        k(   36) = (   0.0452863   0.0952134   0.0000000), wk =   0.0277778
        k(   37) = (   0.0452863   0.1125249   0.0000000), wk =   0.0277778
        k(   38) = (   0.0452863  -0.0779018   0.0000000), wk =   0.0277778
        k(   39) = (   0.0452863  -0.0605903   0.0000000), wk =   0.0277778
        k(   40) = (   0.0452863  -0.0432788   0.0000000), wk =   0.0277778
        k(   41) = (   0.0452863  -0.0259673   0.0000000), wk =   0.0277778
        k(   42) = (   0.0452863  -0.0086558   0.0000000), wk =   0.0277778
        k(   43) = (   0.0452863   0.0086558   0.0000000), wk =   0.0277778
        k(   44) = (   0.0603817   0.0346230   0.0000000), wk =   0.0277778
        k(   45) = (   0.0603817   0.0519346   0.0000000), wk =   0.0277778
        k(   46) = (   0.0603817   0.0692461   0.0000000), wk =   0.0277778
        k(   47) = (   0.0603817   0.0865576   0.0000000), wk =   0.0277778
        k(   48) = (   0.0603817   0.1038691   0.0000000), wk =   0.0277778
        k(   49) = (   0.0603817   0.1211806   0.0000000), wk =   0.0277778
        k(   50) = (   0.0603817  -0.0692461   0.0000000), wk =   0.0277778
        k(   51) = (   0.0603817  -0.0519346   0.0000000), wk =   0.0277778
        k(   52) = (   0.0603817  -0.0346230   0.0000000), wk =   0.0277778
        k(   53) = (   0.0603817  -0.0173115   0.0000000), wk =   0.0277778
        k(   54) = (   0.0603817  -0.0000000   0.0000000), wk =   0.0277778
        k(   55) = (   0.0603817   0.0173115   0.0000000), wk =   0.0277778
        k(   56) = (   0.0754771   0.0432788   0.0000000), wk =   0.0277778
        k(   57) = (   0.0754771   0.0605903   0.0000000), wk =   0.0277778
        k(   58) = (   0.0754771   0.0779018   0.0000000), wk =   0.0277778
        k(   59) = (   0.0754771   0.0952134   0.0000000), wk =   0.0277778
        k(   60) = (   0.0754771   0.1125249   0.0000000), wk =   0.0277778
        k(   61) = (   0.0754771   0.1298364   0.0000000), wk =   0.0277778
        k(   62) = (   0.0754771  -0.0605903   0.0000000), wk =   0.0277778
        k(   63) = (   0.0754771  -0.0432788   0.0000000), wk =   0.0277778
        k(   64) = (   0.0754771  -0.0259673   0.0000000), wk =   0.0277778
        k(   65) = (   0.0754771  -0.0086558   0.0000000), wk =   0.0277778
        k(   66) = (   0.0754771   0.0086558   0.0000000), wk =   0.0277778
        k(   67) = (   0.0754771   0.0259673   0.0000000), wk =   0.0277778
        k(   68) = (  -0.0905725  -0.0519346   0.0000000), wk =   0.0138889
        k(   69) = (  -0.0905725  -0.0346230   0.0000000), wk =   0.0277778
        k(   70) = (  -0.0905725  -0.0173115   0.0000000), wk =   0.0277778
        k(   71) = (  -0.0905725   0.0000000   0.0000000), wk =   0.0277778
        k(   72) = (  -0.0905725   0.0173115   0.0000000), wk =   0.0277778
        k(   73) = (  -0.0905725   0.0346231   0.0000000), wk =   0.0277778
        k(   74) = (  -0.0905725  -0.1558037   0.0000000), wk =   0.0138889

     Initial potential from superposition of free atoms

     starting charge  185.99372, renormalised to  186.00000

     negative rho (up, down):  1.352E-03 0.000E+00

     %%%%%%%%%%%%%%%%%%%%%%%%%%%%%%%%%%%%%%%%%%%%%%%%%%%%%%%%%%%%%%%%%%%%%%%%
     %                                                                      %
     % You are using vdW-DF, which was implemented by the Thonhauser group. %
     % Please cite the following two papers that made this development      %
     % possible and the two reviews that describe the various versions:     %
     %                                                                      %
     %   T. Thonhauser et al., PRL 115, 136402 (2015).                      %
     %   T. Thonhauser et al., PRB 76, 125112 (2007).                       %
     %   K. Berland et al., Rep. Prog. Phys. 78, 066501 (2015).             %
     %   D.C. Langreth et al., J. Phys.: Condens. Matter 21, 084203 (2009). %
     %                                                                      %
     %                                                                      %
     % If you are calculating the stress with vdW-DF, please also cite:     %
     %                                                                      %
     %   R. Sabatini et al., J. Phys.: Condens. Matter 24, 424209 (2012).   %
     %                                                                      %
     %%%%%%%%%%%%%%%%%%%%%%%%%%%%%%%%%%%%%%%%%%%%%%%%%%%%%%%%%%%%%%%%%%%%%%%%

     Adding external electric field

     Computed dipole along edir(3) :
        Dipole               -0.0000 Ry au,         -0.0000 Debye
        Dipole field         -0.0000 Ry au,

        Potential amp.        0.0000 Ry
        Total length         45.1827 bohr

     Starting wfcs are  138 randomized atomic wfcs

     Self-consistent Calculation

     iteration #  1     ecut=    55.12 Ry     beta= 0.10
     Davidson diagonalization with overlap
     ethr =  1.00E-02,  avg # of iterations =  2.0

[...]

     total energy              =   -2319.38561826 Ry
     estimated scf accuracy    <       8.04769985 Ry

[...]

     iteration # 12     ecut=    55.12 Ry     beta= 0.10
     Davidson diagonalization with overlap
     c_bands:  1 eigenvalues not converged
     ethr =  6.73E-08,  avg # of iterations =  5.7

[...]

     total energy              =   -2319.90536087 Ry
     estimated scf accuracy    <       0.00001623 Ry

     iteration # 16     ecut=    55.12 Ry     beta= 0.10
     Davidson diagonalization with overlap
     ethr =  6.85E-09,  avg # of iterations =  3.0

[...]

     Adding external electric field

     Computed dipole along edir(3) :
        Dipole                0.0180 Ry au,          0.0458 Debye
        Dipole field          0.0001 Ry au,

        Potential amp.       -0.0047 Ry
        Total length         45.1827 bohr

     End of self-consistent calculation

          k = 0.0000 0.0000 0.0000 ( 30485 PWs)   bands (ev):

   -76.8090 -76.7821 -76.2385 -76.2118 -76.1957 -76.1692 -72.3585 -72.3333
   -72.3077 -72.2828 -72.2619 -72.2116 -44.7937 -44.7458 -44.7104 -44.6362
   -44.6020 -44.4951 -44.2063 -44.1871 -44.1517 -44.1515 -44.1493 -44.1137
   -44.0371 -44.0074 -43.9851 -43.9556 -43.9108 -43.8580 -36.8010 -36.6945
   -36.6085 -36.5949 -36.5545 -36.4790 -36.4538 -36.3981 -36.3861 -36.3812
   -36.3495 -36.3082 -36.2749 -36.0484 -36.0221 -35.9768 -35.8316 -35.7890
    -5.6040  -3.8304  -3.6068  -3.4264  -3.3739  -3.3344  -3.1588  -2.9412
    -2.8056  -2.6504  -2.6092  -2.5407  -2.3500  -2.1629  -2.1568  -1.0616
    -1.0580  -0.9598  -0.6116  -0.4736  -0.3945  -0.1634  -0.1611  -0.0257
     0.0351   0.0454   0.4271   0.4639   0.5844   0.6089   0.7250   0.8903
     1.1750   1.2796   1.4955   1.5036   1.6865   1.6997   1.8134   1.9554
     2.3239   2.5757   2.7878   2.8730   3.1054   3.1286   3.2034   3.3308
     3.5718   3.8373   3.9628   4.2419   4.2752   4.4041   4.4457   4.4850
     4.5981   4.7477   4.7531   5.2872   5.5038   5.7407   5.8065   5.8310

[...]

          k = 0.0755 0.0260 0.0000 ( 30396 PWs)   bands (ev):

[...]

          k =-0.0906-0.0519 0.0000 ( 30390 PWs)   bands (ev):

[...]

          k =-0.0906-0.1558 0.0000 ( 30390 PWs)   bands (ev):

   -76.7955 -76.7955 -76.2251 -76.2251 -76.1824 -76.1824 -72.3334 -72.3334
   -72.3082 -72.3081 -72.2368 -72.2368 -44.7265 -44.7265 -44.6447 -44.6447
   -44.6169 -44.6169 -44.1665 -44.1665 -44.1284 -44.1284 -44.0589 -44.0589
   -44.0227 -44.0227 -44.0050 -44.0050 -43.9700 -43.9700 -36.6590 -36.6590
   -36.4393 -36.4393 -36.4268 -36.4267 -36.4196 -36.4196 -36.3521 -36.3521
   -36.3193 -36.3193 -36.2246 -36.2246 -36.1840 -36.1840 -36.0132 -36.0132
    -3.7925  -3.7924  -2.5788  -2.5788  -2.3656  -2.3656  -2.3211  -2.3211
    -1.9791  -1.9791  -1.7520  -1.7520  -1.4186  -1.4186  -1.3258  -1.3258
    -1.0228  -1.0228  -0.7153  -0.7153  -0.5526  -0.5526  -0.1481  -0.1481
     0.0066   0.0066   0.1443   0.1443   0.1712   0.1712   0.3329   0.3329
     0.5856   0.5857   0.7503   0.7503   0.9974   0.9974   1.1958   1.1958
     1.5287   1.5287   2.0219   2.0219   2.4261   2.4261   2.7895   2.7895
     2.8559   2.8559   3.0136   3.0136   3.2032   3.2032   3.3140   3.3140
     3.7858   3.7858   4.1751   4.1751   4.9171   4.9171   5.2656   5.2656

     the Fermi energy is     2.3407 ev

!    total energy              =   -2319.90533457 Ry
     estimated scf accuracy    <       0.00000074 Ry
     smearing contrib. (-TS)   =      -0.05347950 Ry
     internal energy E=F+TS    =   -2319.85185507 Ry

     The total energy is F=E-TS. E is the sum of the following terms:
     one-electron contribution =  -19706.27862866 Ry
     hartree contribution      =    9845.56384217 Ry
     xc contribution           =    -432.08451813 Ry
     ewald contribution        =    7972.94744862 Ry
     electric field correction =       0.00000093 Ry

     convergence has been achieved in  16 iterations

     negative rho (up, down):  1.751E-03 0.000E+00

     Forces acting on atoms (cartesian axes, Ry/au):

     atom    1 type  1   force =    -0.00000206   -0.01814532    0.00909546
     atom    2 type  1   force =     0.00000257   -0.01814678    0.00909575
     atom    3 type  2   force =    -0.00000093    0.01083039    0.02869340
     atom    4 type  2   force =    -0.00000031    0.01082820    0.02868928
     atom    5 type  1   force =    -0.00000086    0.00279986   -0.01697946
     atom    6 type  1   force =     0.00000061    0.00280078   -0.01697867
     atom    7 type  2   force =     0.00000098    0.00330159   -0.02019480
     atom    8 type  2   force =    -0.00000029    0.00330187   -0.02019443
     atom    9 type  1   force =     0.00000231    0.00151363    0.00005248
     atom   10 type  1   force =    -0.00000145    0.00151344    0.00005274
     atom   11 type  2   force =    -0.00000078   -0.00029981   -0.00066720
     atom   12 type  2   force =     0.00000022   -0.00029786   -0.00066453

     Total force =     0.064345     Total SCF correction =     0.005410

     Writing output data file ./Rh2W2/Rh2W2_beef.save/

     General routines

     Parallel routines

   This run was terminated on:  15:22:47  24Jun2022

   JOB DONE.