     Program PWSCF v.6.6 starts on 12Jul2022 at  0:37:52

     R & G space division:  proc/nbgrp/npool/nimage =      37
     Fft bands division:     nmany     =       1
     Reading input from Rh2Y2.in
Warning: card &CELL ignored
Warning: card / ignored

     Current dimensions of program PWSCF are:
     Max number of different atomic species (ntypx) = 10
     Max number of k-points (npk) =  40000
     Max angular momentum in pseudopotentials (lmaxx) =  3
     Presently stress not available with electric field and gates

     Message from routine cell_base_init:
     DEPRECATED: use true lattice parameter, not A to a.u. conversion factor
     file Rh.pbe-spn-rrkjus_psl.1.0.0.UPF: wavefunction(s)  4S 5S renormalized
     file Y.pbe-spn-rrkjus_psl.1.0.0.UPF: wavefunction(s)  4S renormalized

     IMPORTANT: XC functional enforced from input :
     Exchange-correlation= BEEF-VDW
                           (   1   4  43  14   2   0   0)
     Any further DFT definition will be discarded
     Please, verify this is what you really want

     Subspace diagonalization in iterative solution of the eigenvalue problem:
     a serial algorithm will be used

     Found symmetry operation: I + ( -0.5000 -0.5000  0.0000)
     This is a supercell, fractional translations are disabled

     bravais-lattice index     =            0
     lattice parameter (alat)  =       1.8897  a.u.
     unit-cell volume          =    5718.3712 (a.u.)^3
     number of atoms/cell      =           12
     number of atomic types    =            2
     number of electrons       =       168.00
     number of Kohn-Sham states=          101
     kinetic-energy cutoff     =      55.1240  Ry
     charge density cutoff     =     551.2396  Ry
     convergence threshold     =      1.0E-05
     mixing beta               =       0.1000
     number of iterations used =           10  plain     mixing
     Exchange-correlation= BEEF-VDW
                           (   1   4  43  14   2   0   0)

     celldm(1)=   1.889726  celldm(2)=   0.000000  celldm(3)=   0.000000
     celldm(4)=   0.000000  celldm(5)=   0.000000  celldm(6)=   0.000000

     crystal axes: (cart. coord. in units of alat)
               a(1) = (   5.999168   0.000000   0.000000 )
               a(2) = (   1.937477   5.677693   0.000000 )
               a(3) = (   0.000000   0.000000  24.877853 )

     reciprocal axes: (cart. coord. in units 2 pi/alat)
               b(1) = (  0.166690 -0.056882  0.000000 )
               b(2) = (  0.000000  0.176128  0.000000 )
               b(3) = (  0.000000  0.000000  0.040196 )

     PseudoPot. # 1 for Rh read from file:
     ../pseudo/Rh.pbe-spn-rrkjus_psl.1.0.0.UPF
     MD5 check sum: 912a852783f0c9b7bd5e9eb06cc0cc10
     Pseudo is Ultrasoft + core correction, Zval = 17.0
     Generated using "atomic" code by A. Dal Corso v.6.3
     Using radial grid of 1233 points,  6 beta functions with:
                l(1) =   0
                l(2) =   0
                l(3) =   1
                l(4) =   1
                l(5) =   2
                l(6) =   2
     Q(r) pseudized with 0 coefficients

     PseudoPot. # 2 for Y  read from file:
     ../pseudo/Y.pbe-spn-rrkjus_psl.1.0.0.UPF
     MD5 check sum: 5fe32e6a006803c2ec2edff47948a3c8
     Pseudo is Ultrasoft + core correction, Zval = 11.0
     Generated using "atomic" code by A. Dal Corso v.6.2.2
     Using radial grid of 1223 points,  6 beta functions with:
                l(1) =   0
                l(2) =   0
                l(3) =   1
                l(4) =   1
                l(5) =   2
                l(6) =   2
     Q(r) pseudized with 0 coefficients

     atomic species   valence    mass     pseudopotential
        Rh            17.00   102.90550     Rh( 1.00)
        Y             11.00    88.90584     Y ( 1.00)

     No symmetry found

   Cartesian axes

     site n.     atom                  positions (alat units)
         1           Rh  tau(   1) = (   0.0000000   0.0000000  10.0000000  )
         2           Rh  tau(   2) = (   3.9683226   2.8388465  10.0000000  )
         3           Y   tau(   3) = (   2.9995839   0.0000000  10.0000000  )
         4           Y   tau(   4) = (   0.9687387   2.8388465  10.0000000  )
         5           Rh  tau(   5) = (   5.9991679   4.2916663  12.4389267  )
         6           Rh  tau(   6) = (   2.0308453   1.4528199  12.4389267  )
         7           Y   tau(   7) = (   2.9995839   4.2916663  12.4389267  )
         8           Y   tau(   8) = (   5.0304292   1.4528199  12.4389267  )
         9           Rh  tau(   9) = (   4.0420635   2.8916143  14.6815754  )
        10           Rh  tau(  10) = (   0.0737526   0.0527522  14.6815795  )
        11           Y   tau(  11) = (   1.0270553   2.8805581  14.9043385  )
        12           Y   tau(  12) = (   3.0579217   0.0417354  14.9043431  )

     number of k points=    74  Fermi-Dirac smearing, width (Ry)=  0.0100
                       cart. coord. in units 2pi/alat
        k(    1) = (   0.0000000   0.0000000   0.0000000), wk =   0.0138889
        k(    2) = (   0.0000000   0.0146773   0.0000000), wk =   0.0277778
        k(    3) = (   0.0000000   0.0293546   0.0000000), wk =   0.0277778
        k(    4) = (   0.0000000   0.0440320   0.0000000), wk =   0.0277778
        k(    5) = (   0.0000000   0.0587093   0.0000000), wk =   0.0277778
        k(    6) = (   0.0000000   0.0733866   0.0000000), wk =   0.0277778
        k(    7) = (   0.0000000  -0.0880639   0.0000000), wk =   0.0138889
        k(    8) = (   0.0138908  -0.0047402   0.0000000), wk =   0.0277778
        k(    9) = (   0.0138908   0.0099372   0.0000000), wk =   0.0277778
        k(   10) = (   0.0138908   0.0246145   0.0000000), wk =   0.0277778
        k(   11) = (   0.0138908   0.0392918   0.0000000), wk =   0.0277778
        k(   12) = (   0.0138908   0.0539691   0.0000000), wk =   0.0277778
        k(   13) = (   0.0138908   0.0686465   0.0000000), wk =   0.0277778
        k(   14) = (   0.0138908  -0.0928041   0.0000000), wk =   0.0277778
        k(   15) = (   0.0138908  -0.0781268   0.0000000), wk =   0.0277778
        k(   16) = (   0.0138908  -0.0634494   0.0000000), wk =   0.0277778
        k(   17) = (   0.0138908  -0.0487721   0.0000000), wk =   0.0277778
        k(   18) = (   0.0138908  -0.0340948   0.0000000), wk =   0.0277778
        k(   19) = (   0.0138908  -0.0194175   0.0000000), wk =   0.0277778
        k(   20) = (   0.0277816  -0.0094803   0.0000000), wk =   0.0277778
        k(   21) = (   0.0277816   0.0051970   0.0000000), wk =   0.0277778
        k(   22) = (   0.0277816   0.0198743   0.0000000), wk =   0.0277778
        k(   23) = (   0.0277816   0.0345517   0.0000000), wk =   0.0277778
        k(   24) = (   0.0277816   0.0492290   0.0000000), wk =   0.0277778
        k(   25) = (   0.0277816   0.0639063   0.0000000), wk =   0.0277778
        k(   26) = (   0.0277816  -0.0975442   0.0000000), wk =   0.0277778
        k(   27) = (   0.0277816  -0.0828669   0.0000000), wk =   0.0277778
        k(   28) = (   0.0277816  -0.0681896   0.0000000), wk =   0.0277778
        k(   29) = (   0.0277816  -0.0535123   0.0000000), wk =   0.0277778
        k(   30) = (   0.0277816  -0.0388350   0.0000000), wk =   0.0277778
        k(   31) = (   0.0277816  -0.0241576   0.0000000), wk =   0.0277778
        k(   32) = (   0.0416724  -0.0142205   0.0000000), wk =   0.0277778
        k(   33) = (   0.0416724   0.0004569   0.0000000), wk =   0.0277778
        k(   34) = (   0.0416724   0.0151342   0.0000000), wk =   0.0277778
        k(   35) = (   0.0416724   0.0298115   0.0000000), wk =   0.0277778
        k(   36) = (   0.0416724   0.0444888   0.0000000), wk =   0.0277778
        k(   37) = (   0.0416724   0.0591662   0.0000000), wk =   0.0277778
        k(   38) = (   0.0416724  -0.1022844   0.0000000), wk =   0.0277778
        k(   39) = (   0.0416724  -0.0876071   0.0000000), wk =   0.0277778
        k(   40) = (   0.0416724  -0.0729298   0.0000000), wk =   0.0277778
        k(   41) = (   0.0416724  -0.0582524   0.0000000), wk =   0.0277778
        k(   42) = (   0.0416724  -0.0435751   0.0000000), wk =   0.0277778
        k(   43) = (   0.0416724  -0.0288978   0.0000000), wk =   0.0277778
        k(   44) = (   0.0555633  -0.0189606   0.0000000), wk =   0.0277778
        k(   45) = (   0.0555633  -0.0042833   0.0000000), wk =   0.0277778
        k(   46) = (   0.0555633   0.0103940   0.0000000), wk =   0.0277778
        k(   47) = (   0.0555633   0.0250714   0.0000000), wk =   0.0277778
        k(   48) = (   0.0555633   0.0397487   0.0000000), wk =   0.0277778
        k(   49) = (   0.0555633   0.0544260   0.0000000), wk =   0.0277778
        k(   50) = (   0.0555633  -0.1070246   0.0000000), wk =   0.0277778
        k(   51) = (   0.0555633  -0.0923472   0.0000000), wk =   0.0277778
        k(   52) = (   0.0555633  -0.0776699   0.0000000), wk =   0.0277778
        k(   53) = (   0.0555633  -0.0629926   0.0000000), wk =   0.0277778
        k(   54) = (   0.0555633  -0.0483153   0.0000000), wk =   0.0277778
        k(   55) = (   0.0555633  -0.0336379   0.0000000), wk =   0.0277778
        k(   56) = (   0.0694541  -0.0237008   0.0000000), wk =   0.0277778
        k(   57) = (   0.0694541  -0.0090234   0.0000000), wk =   0.0277778
        k(   58) = (   0.0694541   0.0056539   0.0000000), wk =   0.0277778
        k(   59) = (   0.0694541   0.0203312   0.0000000), wk =   0.0277778
        k(   60) = (   0.0694541   0.0350085   0.0000000), wk =   0.0277778
        k(   61) = (   0.0694541   0.0496858   0.0000000), wk =   0.0277778
        k(   62) = (   0.0694541  -0.1117647   0.0000000), wk =   0.0277778
        k(   63) = (   0.0694541  -0.0970874   0.0000000), wk =   0.0277778
        k(   64) = (   0.0694541  -0.0824101   0.0000000), wk =   0.0277778
        k(   65) = (   0.0694541  -0.0677327   0.0000000), wk =   0.0277778
        k(   66) = (   0.0694541  -0.0530554   0.0000000), wk =   0.0277778
        k(   67) = (   0.0694541  -0.0383781   0.0000000), wk =   0.0277778
        k(   68) = (  -0.0833449   0.0284409   0.0000000), wk =   0.0138889
        k(   69) = (  -0.0833449   0.0431182   0.0000000), wk =   0.0277778
        k(   70) = (  -0.0833449   0.0577956   0.0000000), wk =   0.0277778
        k(   71) = (  -0.0833449   0.0724729   0.0000000), wk =   0.0277778
        k(   72) = (  -0.0833449   0.0871502   0.0000000), wk =   0.0277778
        k(   73) = (  -0.0833449   0.1018275   0.0000000), wk =   0.0277778
        k(   74) = (  -0.0833449  -0.0596230   0.0000000), wk =   0.0138889

     Initial potential from superposition of free atoms

     starting charge  167.97255, renormalised to  168.00000

     negative rho (up, down):  1.214E-03 0.000E+00

     %%%%%%%%%%%%%%%%%%%%%%%%%%%%%%%%%%%%%%%%%%%%%%%%%%%%%%%%%%%%%%%%%%%%%%%%
     %                                                                      %
     % You are using vdW-DF, which was implemented by the Thonhauser group. %
     % Please cite the following two papers that made this development      %
     % possible and the two reviews that describe the various versions:     %
     %                                                                      %
     %   T. Thonhauser et al., PRL 115, 136402 (2015).                      %
     %   T. Thonhauser et al., PRB 76, 125112 (2007).                       %
     %   K. Berland et al., Rep. Prog. Phys. 78, 066501 (2015).             %
     %   D.C. Langreth et al., J. Phys.: Condens. Matter 21, 084203 (2009). %
     %                                                                      %
     %                                                                      %
     % If you are calculating the stress with vdW-DF, please also cite:     %
     %                                                                      %
     %   R. Sabatini et al., J. Phys.: Condens. Matter 24, 424209 (2012).   %
     %                                                                      %
     %%%%%%%%%%%%%%%%%%%%%%%%%%%%%%%%%%%%%%%%%%%%%%%%%%%%%%%%%%%%%%%%%%%%%%%%

     Adding external electric field

     Computed dipole along edir(3) :
        Dipole                0.0019 Ry au,          0.0049 Debye
        Dipole field          0.0000 Ry au,

        Potential amp.       -0.0004 Ry
        Total length         45.8370 bohr

     Starting wfcs are  138 randomized atomic wfcs

     Self-consistent Calculation

     iteration #  1     ecut=    55.12 Ry     beta= 0.10
     Davidson diagonalization with overlap
     ethr =  1.00E-02,  avg # of iterations =  2.2

[...]

     total energy              =   -1870.18739303 Ry
     estimated scf accuracy    <       9.14446223 Ry

[...]

     iteration # 10     ecut=    55.12 Ry     beta= 0.10
     Davidson diagonalization with overlap
     c_bands:  1 eigenvalues not converged
     c_bands:  1 eigenvalues not converged
     ethr =  1.53E-05,  avg # of iterations =  3.1

[...]

     iteration # 11     ecut=    55.12 Ry     beta= 0.10
     Davidson diagonalization with overlap
     c_bands:  2 eigenvalues not converged
     c_bands:  1 eigenvalues not converged
     c_bands:  2 eigenvalues not converged
     c_bands:  2 eigenvalues not converged
     c_bands:  1 eigenvalues not converged
     c_bands:  2 eigenvalues not converged
     c_bands:  2 eigenvalues not converged
     c_bands:  1 eigenvalues not converged
     ethr =  2.30E-06,  avg # of iterations = 11.1

[...]

     total energy              =   -1870.14172308 Ry
     estimated scf accuracy    <       0.00002896 Ry

     iteration # 17     ecut=    55.12 Ry     beta= 0.10
     Davidson diagonalization with overlap
     ethr =  1.72E-08,  avg # of iterations =  2.1

[...]

     Adding external electric field

     Computed dipole along edir(3) :
        Dipole                0.0882 Ry au,          0.2242 Debye
        Dipole field          0.0002 Ry au,

        Potential amp.       -0.0178 Ry
        Total length         45.8370 bohr

     End of self-consistent calculation

          k = 0.0000 0.0000 0.0000 ( 39593 PWs)   bands (ev):

   -76.3943 -76.3935 -76.0200 -76.0191 -75.9432 -75.9423 -44.3166 -44.2942
   -44.2922 -44.2889 -44.2378 -44.2359 -43.9801 -43.9783 -43.9542 -43.9320
   -43.9311 -43.9302 -43.8594 -43.8379 -43.8306 -43.8263 -43.7307 -43.7281
   -41.5841 -41.5556 -41.5363 -41.5077 -40.5579 -40.5302 -21.6487 -21.6162
   -21.6138 -21.5790 -21.5592 -21.5221 -21.4342 -21.4086 -21.3878 -21.3598
   -21.2881 -21.2549 -20.7201 -20.5598 -20.5391 -20.5227 -20.4881 -20.3382
    -3.2737  -2.0300  -1.7817  -1.5878  -1.5255  -1.5066  -1.4374  -1.4150
    -1.4028  -1.3986  -0.9982  -0.8405  -0.7915  -0.5791  -0.5651  -0.4931
    -0.3508  -0.3025  -0.2576  -0.2179  -0.1843  -0.0852  -0.0454   0.2052
     0.3524   0.4358   0.4965   0.5018   0.7471   0.8629   0.8958   1.1527
     1.1527   1.8244   1.9339   1.9618   2.1005   2.6431   2.7179   2.7324
     3.0945   3.3120   3.4631   3.5659   3.5938   3.6304   3.6909   3.7065
     3.8545   4.3219   4.3683   4.4409   4.5489

[...]

          k = 0.0695-0.0384 0.0000 ( 39496 PWs)   bands (ev):

[...]

          k =-0.0833 0.0284 0.0000 ( 39502 PWs)   bands (ev):

[...]

          k =-0.0833-0.0596 0.0000 ( 39518 PWs)   bands (ev):

   -76.3943 -76.3934 -76.0200 -76.0191 -75.9432 -75.9423 -44.3177 -44.2942
   -44.2927 -44.2886 -44.2404 -44.2356 -43.9839 -43.9779 -43.9559 -43.9361
   -43.9311 -43.9298 -43.8613 -43.8378 -43.8302 -43.8264 -43.7306 -43.7282
   -41.5782 -41.5529 -41.5299 -41.5048 -40.5540 -40.5277 -21.6616 -21.6297
   -21.6246 -21.5763 -21.5595 -21.5191 -21.4677 -21.4168 -21.4101 -21.3640
   -21.2921 -21.2592 -20.7327 -20.5797 -20.5341 -20.5256 -20.4996 -20.3441
    -1.7472  -1.4737  -1.1240  -1.0934  -0.9404  -0.8640  -0.7725  -0.6979
    -0.6278  -0.5634  -0.5385  -0.4996  -0.4171  -0.3844  -0.1990  -0.1933
    -0.1542  -0.0813   0.0227   0.0487   0.1443   0.1470   0.1817   0.2105
     0.3014   0.4113   0.4319   0.4422   0.4588   0.5079   0.5729   0.7602
     0.8333   1.0853   1.2891   1.4012   1.4981   1.5624   1.5665   1.6470
     1.6965   2.3920   2.4507   2.6942   2.8084   2.8194   2.9857   3.2259
     3.4810   3.5162   3.7378   3.8711   4.0650

     the Fermi energy is     1.6348 ev

!    total energy              =   -1870.14172445 Ry
     estimated scf accuracy    <       0.00000277 Ry
     smearing contrib. (-TS)   =      -0.03784564 Ry
     internal energy E=F+TS    =   -1870.10387880 Ry

     The total energy is F=E-TS. E is the sum of the following terms:
     one-electron contribution =  -12571.28892390 Ry
     hartree contribution      =    6286.59044430 Ry
     xc contribution           =    -295.99403069 Ry
     ewald contribution        =    4710.58861439 Ry
     electric field correction =       0.00001710 Ry

     convergence has been achieved in  17 iterations

     negative rho (up, down):  1.087E-03 0.000E+00

     Forces acting on atoms (cartesian axes, Ry/au):

     atom    1 type  1   force =     0.00028822    0.00020638    0.02449837
     atom    2 type  1   force =     0.00028878    0.00020683    0.02449838
     atom    3 type  2   force =     0.00373267    0.00266943   -0.00983217
     atom    4 type  2   force =     0.00373181    0.00267015   -0.00983220
     atom    5 type  1   force =    -0.00026778   -0.00019204   -0.00025928
     atom    6 type  1   force =    -0.00026705   -0.00019030   -0.00025777
     atom    7 type  2   force =    -0.00244978   -0.00175344   -0.01513345
     atom    8 type  2   force =    -0.00245073   -0.00175257   -0.01513443
     atom    9 type  1   force =    -0.00084042   -0.00060231    0.00044344
     atom   10 type  1   force =    -0.00084032   -0.00060090    0.00044261
     atom   11 type  2   force =    -0.00046268   -0.00032920    0.00028357
     atom   12 type  2   force =    -0.00046274   -0.00033203    0.00028292

     Total force =     0.043772     Total SCF correction =     0.007664
     SCF correction compared to forces is large: reduce conv_thr to get better values

     Writing output data file ./Rh2Y2/Rh2Y2_beef.save/

     General routines

     Parallel routines

   This run was terminated on:  10:33: 5  12Jul2022

   JOB DONE.