     Program PWSCF v.6.6 starts on 10Jul2022 at 19:37:19

     R & G space division:  proc/nbgrp/npool/nimage =      37
     Fft bands division:     nmany     =       1
     Reading input from Ru2Au2.in
Warning: card &CELL ignored
Warning: card / ignored

     Current dimensions of program PWSCF are:
     Max number of different atomic species (ntypx) = 10
     Max number of k-points (npk) =  40000
     Max angular momentum in pseudopotentials (lmaxx) =  3
     Presently stress not available with electric field and gates

     Message from routine cell_base_init:
     DEPRECATED: use true lattice parameter, not A to a.u. conversion factor

     IMPORTANT: XC functional enforced from input :
     Exchange-correlation= BEEF-VDW
                           (   1   4  43  14   2   0   0)
     Any further DFT definition will be discarded
     Please, verify this is what you really want

     Subspace diagonalization in iterative solution of the eigenvalue problem:
     a serial algorithm will be used

     bravais-lattice index     =            0
     lattice parameter (alat)  =       1.8897  a.u.
     unit-cell volume          =    4607.6553 (a.u.)^3
     number of atoms/cell      =           12
     number of atomic types    =            2
     number of electrons       =       162.00
     number of Kohn-Sham states=           97
     kinetic-energy cutoff     =      55.1240  Ry
     charge density cutoff     =     551.2396  Ry
     convergence threshold     =      1.0E-05
     mixing beta               =       0.1000
     number of iterations used =           10  plain     mixing
     Exchange-correlation= BEEF-VDW
                           (   1   4  43  14   2   0   0)

     celldm(1)=   1.889726  celldm(2)=   0.000000  celldm(3)=   0.000000
     celldm(4)=   0.000000  celldm(5)=   0.000000  celldm(6)=   0.000000

     crystal axes: (cart. coord. in units of alat)
               a(1) = (   5.570144   0.000000   0.000000 )
               a(2) = (  -2.785072   4.979380   0.000000 )
               a(3) = (   0.000000   0.000000  24.617377 )

     reciprocal axes: (cart. coord. in units 2 pi/alat)
               b(1) = (  0.179529  0.100414 -0.000000 )
               b(2) = (  0.000000  0.200828  0.000000 )
               b(3) = (  0.000000 -0.000000  0.040622 )

     PseudoPot. # 1 for Ru read from file:
     ../pseudo/Ru.pbe-spn-rrkjus_psl.1.0.0.UPF
     MD5 check sum: fbaca725316a1a65f98761fd4ac95971
     Pseudo is Ultrasoft + core correction, Zval = 16.0
     Generated using "atomic" code by A. Dal Corso v.6.2.2
     Using radial grid of 1233 points,  6 beta functions with:
                l(1) =   0
                l(2) =   0
                l(3) =   1
                l(4) =   1
                l(5) =   2
                l(6) =   2
     Q(r) pseudized with 0 coefficients

     PseudoPot. # 2 for Au read from file:
     ../pseudo/Au.pbe-n-rrkjus_psl.1.0.0.UPF
     MD5 check sum: d7e77ba19504afed2c9b41c931dde4f0
     Pseudo is Ultrasoft + core correction, Zval = 11.0
     Generated using "atomic" code by A. Dal Corso v.6.3
     Using radial grid of 1279 points,  6 beta functions with:
                l(1) =   0
                l(2) =   0
                l(3) =   1
                l(4) =   1
                l(5) =   2
                l(6) =   2
     Q(r) pseudized with 0 coefficients

     atomic species   valence    mass     pseudopotential
        Ru            16.00   101.07000     Ru( 1.00)
        Au            11.00   196.96657     Au( 1.00)

     No symmetry found

   Cartesian axes

     site n.     atom                  positions (alat units)
         1           Ru  tau(   1) = (   0.0000000   0.0000000  10.0000000  )
         2           Ru  tau(   2) = (   2.7850719   0.0000000  10.0000000  )
         3           Au  tau(   3) = (   1.3925359   2.4896899  10.0000000  )
         4           Au  tau(   4) = (  -1.3925359   2.4896899  10.0000000  )
         5           Ru  tau(   5) = (   2.7850719   1.5577493  12.3086885  )
         6           Ru  tau(   6) = (  -0.0000000   1.5577493  12.3086885  )
         7           Au  tau(   7) = (  -1.3925359   4.0474392  12.3086885  )
         8           Au  tau(   8) = (   1.3925359   4.0474392  12.3086885  )
         9           Ru  tau(   9) = (   0.0000374   0.7227463  14.4379532  )
        10           Ru  tau(  10) = (   2.7850716   0.7226225  14.4379986  )
        11           Au  tau(  11) = (   1.3925952   3.1501507  14.9887392  )
        12           Au  tau(  12) = (  -1.3925325   3.1501201  14.9887439  )

     number of k points=    74  Fermi-Dirac smearing, width (Ry)=  0.0100
                       cart. coord. in units 2pi/alat
        k(    1) = (   0.0000000   0.0000000   0.0000000), wk =   0.0138889
        k(    2) = (   0.0000000   0.0167357   0.0000000), wk =   0.0277778
        k(    3) = (   0.0000000   0.0334714   0.0000000), wk =   0.0277778
        k(    4) = (   0.0000000   0.0502071   0.0000000), wk =   0.0277778
        k(    5) = (   0.0000000   0.0669427   0.0000000), wk =   0.0277778
        k(    6) = (   0.0000000   0.0836784   0.0000000), wk =   0.0277778
        k(    7) = (   0.0000000  -0.1004141   0.0000000), wk =   0.0138889
        k(    8) = (   0.0149607   0.0083678   0.0000000), wk =   0.0277778
        k(    9) = (   0.0149607   0.0251035   0.0000000), wk =   0.0277778
        k(   10) = (   0.0149607   0.0418392   0.0000000), wk =   0.0277778
        k(   11) = (   0.0149607   0.0585749   0.0000000), wk =   0.0277778
        k(   12) = (   0.0149607   0.0753106   0.0000000), wk =   0.0277778
        k(   13) = (   0.0149607   0.0920463   0.0000000), wk =   0.0277778
        k(   14) = (   0.0149607  -0.0920463   0.0000000), wk =   0.0277778
        k(   15) = (   0.0149607  -0.0753106   0.0000000), wk =   0.0277778
        k(   16) = (   0.0149607  -0.0585749   0.0000000), wk =   0.0277778
        k(   17) = (   0.0149607  -0.0418392   0.0000000), wk =   0.0277778
        k(   18) = (   0.0149607  -0.0251035   0.0000000), wk =   0.0277778
        k(   19) = (   0.0149607  -0.0083678   0.0000000), wk =   0.0277778
        k(   20) = (   0.0299214   0.0167357   0.0000000), wk =   0.0277778
        k(   21) = (   0.0299214   0.0334714   0.0000000), wk =   0.0277778
        k(   22) = (   0.0299214   0.0502071   0.0000000), wk =   0.0277778
        k(   23) = (   0.0299214   0.0669427   0.0000000), wk =   0.0277778
        k(   24) = (   0.0299214   0.0836784   0.0000000), wk =   0.0277778
        k(   25) = (   0.0299214   0.1004141   0.0000000), wk =   0.0277778
        k(   26) = (   0.0299214  -0.0836784   0.0000000), wk =   0.0277778
        k(   27) = (   0.0299214  -0.0669427   0.0000000), wk =   0.0277778
        k(   28) = (   0.0299214  -0.0502071   0.0000000), wk =   0.0277778
        k(   29) = (   0.0299214  -0.0334714   0.0000000), wk =   0.0277778
        k(   30) = (   0.0299214  -0.0167357   0.0000000), wk =   0.0277778
        k(   31) = (   0.0299214  -0.0000000   0.0000000), wk =   0.0277778
        k(   32) = (   0.0448821   0.0251035   0.0000000), wk =   0.0277778
        k(   33) = (   0.0448821   0.0418392   0.0000000), wk =   0.0277778
        k(   34) = (   0.0448821   0.0585749   0.0000000), wk =   0.0277778
        k(   35) = (   0.0448821   0.0753106   0.0000000), wk =   0.0277778
        k(   36) = (   0.0448821   0.0920463   0.0000000), wk =   0.0277778
        k(   37) = (   0.0448821   0.1087820   0.0000000), wk =   0.0277778
        k(   38) = (   0.0448821  -0.0753106   0.0000000), wk =   0.0277778
        k(   39) = (   0.0448821  -0.0585749   0.0000000), wk =   0.0277778
        k(   40) = (   0.0448821  -0.0418392   0.0000000), wk =   0.0277778
        k(   41) = (   0.0448821  -0.0251035   0.0000000), wk =   0.0277778
        k(   42) = (   0.0448821  -0.0083678   0.0000000), wk =   0.0277778
        k(   43) = (   0.0448821   0.0083678   0.0000000), wk =   0.0277778
        k(   44) = (   0.0598429   0.0334714   0.0000000), wk =   0.0277778
        k(   45) = (   0.0598429   0.0502071   0.0000000), wk =   0.0277778
        k(   46) = (   0.0598429   0.0669427   0.0000000), wk =   0.0277778
        k(   47) = (   0.0598429   0.0836784   0.0000000), wk =   0.0277778
        k(   48) = (   0.0598429   0.1004141   0.0000000), wk =   0.0277778
        k(   49) = (   0.0598429   0.1171498   0.0000000), wk =   0.0277778
        k(   50) = (   0.0598429  -0.0669427   0.0000000), wk =   0.0277778
        k(   51) = (   0.0598429  -0.0502071   0.0000000), wk =   0.0277778
        k(   52) = (   0.0598429  -0.0334714   0.0000000), wk =   0.0277778
        k(   53) = (   0.0598429  -0.0167357   0.0000000), wk =   0.0277778
        k(   54) = (   0.0598429   0.0000000   0.0000000), wk =   0.0277778
        k(   55) = (   0.0598429   0.0167357   0.0000000), wk =   0.0277778
        k(   56) = (   0.0748036   0.0418392   0.0000000), wk =   0.0277778
        k(   57) = (   0.0748036   0.0585749   0.0000000), wk =   0.0277778
        k(   58) = (   0.0748036   0.0753106   0.0000000), wk =   0.0277778
        k(   59) = (   0.0748036   0.0920463   0.0000000), wk =   0.0277778
        k(   60) = (   0.0748036   0.1087820   0.0000000), wk =   0.0277778
        k(   61) = (   0.0748036   0.1255176   0.0000000), wk =   0.0277778
        k(   62) = (   0.0748036  -0.0585749   0.0000000), wk =   0.0277778
        k(   63) = (   0.0748036  -0.0418392   0.0000000), wk =   0.0277778
        k(   64) = (   0.0748036  -0.0251035   0.0000000), wk =   0.0277778
        k(   65) = (   0.0748036  -0.0083678   0.0000000), wk =   0.0277778
        k(   66) = (   0.0748036   0.0083678   0.0000000), wk =   0.0277778
        k(   67) = (   0.0748036   0.0251035   0.0000000), wk =   0.0277778
        k(   68) = (  -0.0897643  -0.0502071   0.0000000), wk =   0.0138889
        k(   69) = (  -0.0897643  -0.0334714   0.0000000), wk =   0.0277778
        k(   70) = (  -0.0897643  -0.0167357   0.0000000), wk =   0.0277778
        k(   71) = (  -0.0897643   0.0000000   0.0000000), wk =   0.0277778
        k(   72) = (  -0.0897643   0.0167357   0.0000000), wk =   0.0277778
        k(   73) = (  -0.0897643   0.0334714   0.0000000), wk =   0.0277778
        k(   74) = (  -0.0897643  -0.1506212   0.0000000), wk =   0.0138889

     Initial potential from superposition of free atoms

     starting charge  161.99552, renormalised to  162.00000

     negative rho (up, down):  1.640E-03 0.000E+00

     %%%%%%%%%%%%%%%%%%%%%%%%%%%%%%%%%%%%%%%%%%%%%%%%%%%%%%%%%%%%%%%%%%%%%%%%
     %                                                                      %
     % You are using vdW-DF, which was implemented by the Thonhauser group. %
     % Please cite the following two papers that made this development      %
     % possible and the two reviews that describe the various versions:     %
     %                                                                      %
     %   T. Thonhauser et al., PRL 115, 136402 (2015).                      %
     %   T. Thonhauser et al., PRB 76, 125112 (2007).                       %
     %   K. Berland et al., Rep. Prog. Phys. 78, 066501 (2015).             %
     %   D.C. Langreth et al., J. Phys.: Condens. Matter 21, 084203 (2009). %
     %                                                                      %
     %                                                                      %
     % If you are calculating the stress with vdW-DF, please also cite:     %
     %                                                                      %
     %   R. Sabatini et al., J. Phys.: Condens. Matter 24, 424209 (2012).   %
     %                                                                      %
     %%%%%%%%%%%%%%%%%%%%%%%%%%%%%%%%%%%%%%%%%%%%%%%%%%%%%%%%%%%%%%%%%%%%%%%%

     Adding external electric field

     Computed dipole along edir(3) :
        Dipole               -0.0004 Ry au,         -0.0010 Debye
        Dipole field         -0.0000 Ry au,

        Potential amp.        0.0001 Ry
        Total length         45.3571 bohr

     Starting wfcs are  114 randomized atomic wfcs

     Self-consistent Calculation

     iteration #  1     ecut=    55.12 Ry     beta= 0.10
     Davidson diagonalization with overlap
     ethr =  1.00E-02,  avg # of iterations =  4.8

[...]

     total energy              =   -1704.66929008 Ry
     estimated scf accuracy    <      19.25354660 Ry

[...]

     iteration #  5     ecut=    55.12 Ry     beta= 0.10
     Davidson diagonalization with overlap
     c_bands:  1 eigenvalues not converged
     c_bands:  1 eigenvalues not converged
     c_bands:  1 eigenvalues not converged
     ethr =  1.29E-04,  avg # of iterations =  8.1

[...]

     iteration # 11     ecut=    55.12 Ry     beta= 0.10
     Davidson diagonalization with overlap
     c_bands:  1 eigenvalues not converged
     c_bands:  1 eigenvalues not converged
     c_bands:  1 eigenvalues not converged
     ethr =  2.87E-06,  avg # of iterations =  8.8

[...]

     total energy              =   -1706.86979048 Ry
     estimated scf accuracy    <       0.00001780 Ry

     iteration # 17     ecut=    55.12 Ry     beta= 0.10
     Davidson diagonalization with overlap
     ethr =  1.10E-08,  avg # of iterations =  2.0

[...]

     Adding external electric field

     Computed dipole along edir(3) :
        Dipole               -0.0181 Ry au,         -0.0461 Debye
        Dipole field         -0.0000 Ry au,

        Potential amp.        0.0045 Ry
        Total length         45.3571 bohr

     End of self-consistent calculation

          k = 0.0000 0.0000 0.0000 ( 31891 PWs)   bands (ev):

   -71.7880 -71.7525 -71.4787 -71.4438 -71.1389 -71.1029 -42.4262 -42.3834
   -41.7380 -41.6542 -41.6157 -41.5169 -41.3629 -41.3605 -41.3413 -41.3042
   -41.2811 -41.2499 -41.1565 -41.0772 -41.0398 -41.0199 -40.9903 -40.9823
    -6.6175  -5.3726  -5.0448  -5.0090  -4.7648  -4.7267  -4.6929  -4.4779
    -4.4074  -4.3986  -4.2836  -4.1885  -3.8793  -3.8191  -3.5503  -3.4860
    -3.4417  -3.1586  -2.9886  -2.8330  -2.7241  -2.7094  -2.5102  -2.2938
    -2.2735  -2.1544  -2.0528  -1.9136  -1.6739  -1.6614  -1.5269  -1.4503
    -1.3939  -1.3001  -1.2356  -1.1649  -0.9886  -0.9660  -0.9333  -0.7161
    -0.4979  -0.0142   0.0402   0.1359   0.1747   0.1791   0.5192   0.7810
     0.7844   0.8147   0.9135   1.1378   1.3064   1.3817   1.6031   1.7003
     1.7688   1.8268   1.9049   1.9426   2.0113   2.0155   2.2196   2.3035
     2.6556   2.8173   3.2552   3.7771   3.7863   3.9158   4.2993   4.9435
     5.3347

[...]

          k = 0.0748 0.0251 0.0000 ( 31834 PWs)   bands (ev):

[...]

          k =-0.0898-0.0502 0.0000 ( 31834 PWs)   bands (ev):

[...]

          k =-0.0898-0.1506 0.0000 ( 31834 PWs)   bands (ev):

   -71.7704 -71.7700 -71.4615 -71.4611 -71.1209 -71.1208 -42.4050 -42.4049
   -41.6361 -41.6356 -41.5529 -41.5524 -41.3391 -41.3387 -41.3234 -41.3229
   -41.2654 -41.2653 -41.1776 -41.1775 -41.0593 -41.0592 -41.0012 -41.0011
    -5.0554  -5.0554  -4.2256  -4.2255  -4.0929  -4.0929  -3.9311  -3.9311
    -3.7447  -3.7447  -3.6671  -3.6671  -3.4799  -3.4799  -3.1575  -3.1575
    -3.1071  -3.1071  -2.9390  -2.9390  -2.7949  -2.7949  -2.6684  -2.6684
    -2.6107  -2.6106  -2.5154  -2.5153  -2.4308  -2.4306  -2.0509  -2.0508
    -1.8514  -1.8513  -1.6003  -1.6002  -1.3324  -1.3324  -0.9143  -0.9142
    -0.8111  -0.8111  -0.4322  -0.4321  -0.1762  -0.1761   0.0124   0.0124
     0.2378   0.2378   0.3570   0.3572   0.4737   0.4738   0.6122   0.6123
     0.8352   0.8353   1.4273   1.4274   1.6156   1.6157   1.8680   1.8681
     2.7287   2.7288   3.3468   3.3469   4.1836   4.1837   5.2014   5.2015
     6.0032

     the Fermi energy is     1.3202 ev

!    total energy              =   -1706.86979200 Ry
     estimated scf accuracy    <       0.00000377 Ry
     smearing contrib. (-TS)   =      -0.06628252 Ry
     internal energy E=F+TS    =   -1706.80350948 Ry

     The total energy is F=E-TS. E is the sum of the following terms:
     one-electron contribution =  -13869.64809967 Ry
     hartree contribution      =    6977.43036525 Ry
     xc contribution           =    -379.09001133 Ry
     ewald contribution        =    5564.50423536 Ry
     electric field correction =       0.00000090 Ry

     convergence has been achieved in  17 iterations

     negative rho (up, down):  1.507E-03 0.000E+00

     Forces acting on atoms (cartesian axes, Ry/au):

     atom    1 type  1   force =     0.00000531    0.02896467    0.03265748
     atom    2 type  1   force =     0.00000313    0.02900878    0.03270607
     atom    3 type  2   force =    -0.00006089   -0.01149360   -0.04642437
     atom    4 type  2   force =     0.00005801   -0.01149636   -0.04642648
     atom    5 type  1   force =     0.00000061   -0.02791356    0.00211353
     atom    6 type  1   force =     0.00000228   -0.02796527    0.00220818
     atom    7 type  2   force =     0.00003223    0.00993827    0.00961253
     atom    8 type  2   force =    -0.00003483    0.00994376    0.00961083
     atom    9 type  1   force =    -0.00000092    0.00093018   -0.00076440
     atom   10 type  1   force =    -0.00000234    0.00103090   -0.00093332
     atom   11 type  2   force =    -0.00002410   -0.00046907    0.00281951
     atom   12 type  2   force =     0.00002151   -0.00047870    0.00282045

     Total force =     0.101805     Total SCF correction =     0.009720

     Writing output data file ./Ru2Au2/Ru2Au2_beef.save/

     General routines

     Parallel routines

   This run was terminated on:  20:35:36  10Jul2022

   JOB DONE.