     Program PWSCF v.6.6 starts on 10Jul2022 at 20:35:40

     R & G space division:  proc/nbgrp/npool/nimage =      37
     Fft bands division:     nmany     =       1
     Reading input from Ru2Cd2.in
Warning: card &CELL ignored
Warning: card / ignored

     Current dimensions of program PWSCF are:
     Max number of different atomic species (ntypx) = 10
     Max number of k-points (npk) =  40000
     Max angular momentum in pseudopotentials (lmaxx) =  3
     Presently stress not available with electric field and gates

     Message from routine cell_base_init:
     DEPRECATED: use true lattice parameter, not A to a.u. conversion factor
     file Cd.pbe-n-rrkjus_psl.1.0.0.UPF: wavefunction(s)  4D renormalized

     IMPORTANT: XC functional enforced from input :
     Exchange-correlation= BEEF-VDW
                           (   1   4  43  14   2   0   0)
     Any further DFT definition will be discarded
     Please, verify this is what you really want

     Subspace diagonalization in iterative solution of the eigenvalue problem:
     a serial algorithm will be used

     Found symmetry operation: I + (  0.5000  0.0000  0.0000)
     This is a supercell, fractional translations are disabled

     bravais-lattice index     =            0
     lattice parameter (alat)  =       1.8897  a.u.
     unit-cell volume          =    4856.1405 (a.u.)^3
     number of atoms/cell      =           12
     number of atomic types    =            2
     number of electrons       =       168.00
     number of Kohn-Sham states=          101
     kinetic-energy cutoff     =      55.1240  Ry
     charge density cutoff     =     551.2396  Ry
     convergence threshold     =      1.0E-05
     mixing beta               =       0.1000
     number of iterations used =           10  plain     mixing
     Exchange-correlation= BEEF-VDW
                           (   1   4  43  14   2   0   0)

     celldm(1)=   1.889726  celldm(2)=   0.000000  celldm(3)=   0.000000
     celldm(4)=   0.000000  celldm(5)=   0.000000  celldm(6)=   0.000000

     crystal axes: (cart. coord. in units of alat)
               a(1) = (   5.678525   0.000000   0.000000 )
               a(2) = (  -2.839262   5.124846   0.000000 )
               a(3) = (   0.000000   0.000000  24.727395 )

     reciprocal axes: (cart. coord. in units 2 pi/alat)
               b(1) = (  0.176102  0.097564 -0.000000 )
               b(2) = (  0.000000  0.195128  0.000000 )
               b(3) = (  0.000000 -0.000000  0.040441 )

     PseudoPot. # 1 for Ru read from file:
     ../pseudo/Ru.pbe-spn-rrkjus_psl.1.0.0.UPF
     MD5 check sum: fbaca725316a1a65f98761fd4ac95971
     Pseudo is Ultrasoft + core correction, Zval = 16.0
     Generated using "atomic" code by A. Dal Corso v.6.2.2
     Using radial grid of 1233 points,  6 beta functions with:
                l(1) =   0
                l(2) =   0
                l(3) =   1
                l(4) =   1
                l(5) =   2
                l(6) =   2
     Q(r) pseudized with 0 coefficients

     PseudoPot. # 2 for Cd read from file:
     ../pseudo/Cd.pbe-n-rrkjus_psl.1.0.0.UPF
     MD5 check sum: a744746c89d2344a134ead0d8ab94e7a
     Pseudo is Ultrasoft + core correction, Zval = 12.0
     Generated using "atomic" code by A. Dal Corso v.6.3
     Using radial grid of 1239 points,  6 beta functions with:
                l(1) =   0
                l(2) =   0
                l(3) =   1
                l(4) =   1
                l(5) =   2
                l(6) =   2
     Q(r) pseudized with 0 coefficients

     atomic species   valence    mass     pseudopotential
        Ru            16.00   101.07000     Ru( 1.00)
        Cd            12.00   112.41400     Cd( 1.00)

     No symmetry found

   Cartesian axes

     site n.     atom                  positions (alat units)
         1           Ru  tau(   1) = (   0.0000000   0.0000000  10.0000000  )
         2           Ru  tau(   2) = (   2.8392624   0.0000000  10.0000000  )
         3           Cd  tau(   3) = (   1.4196312   2.5624231  10.0000000  )
         4           Cd  tau(   4) = (  -1.4196312   2.5624231  10.0000000  )
         5           Ru  tau(   5) = (   2.8392624   1.5730054  12.3636973  )
         6           Ru  tau(   6) = (  -0.0000000   1.5730054  12.3636973  )
         7           Cd  tau(   7) = (  -1.4196312   4.1354285  12.3636973  )
         8           Cd  tau(   8) = (   1.4196312   4.1354285  12.3636973  )
         9           Ru  tau(   9) = (  -0.0000131   2.5271498  14.4536012  )
        10           Ru  tau(  10) = (   2.8392676   2.5271345  14.4536082  )
        11           Cd  tau(  11) = (   4.2588960   0.0575378  15.1296681  )
        12           Cd  tau(  12) = (   1.4196297   0.0575616  15.1296656  )

     number of k points=    74  Fermi-Dirac smearing, width (Ry)=  0.0100
                       cart. coord. in units 2pi/alat
        k(    1) = (   0.0000000   0.0000000   0.0000000), wk =   0.0138889
        k(    2) = (   0.0000000   0.0162607   0.0000000), wk =   0.0277778
        k(    3) = (   0.0000000   0.0325213   0.0000000), wk =   0.0277778
        k(    4) = (   0.0000000   0.0487820   0.0000000), wk =   0.0277778
        k(    5) = (   0.0000000   0.0650426   0.0000000), wk =   0.0277778
        k(    6) = (   0.0000000   0.0813033   0.0000000), wk =   0.0277778
        k(    7) = (   0.0000000  -0.0975639   0.0000000), wk =   0.0138889
        k(    8) = (   0.0146752   0.0081303   0.0000000), wk =   0.0277778
        k(    9) = (   0.0146752   0.0243910   0.0000000), wk =   0.0277778
        k(   10) = (   0.0146752   0.0406516   0.0000000), wk =   0.0277778
        k(   11) = (   0.0146752   0.0569123   0.0000000), wk =   0.0277778
        k(   12) = (   0.0146752   0.0731729   0.0000000), wk =   0.0277778
        k(   13) = (   0.0146752   0.0894336   0.0000000), wk =   0.0277778
        k(   14) = (   0.0146752  -0.0894336   0.0000000), wk =   0.0277778
        k(   15) = (   0.0146752  -0.0731729   0.0000000), wk =   0.0277778
        k(   16) = (   0.0146752  -0.0569123   0.0000000), wk =   0.0277778
        k(   17) = (   0.0146752  -0.0406516   0.0000000), wk =   0.0277778
        k(   18) = (   0.0146752  -0.0243910   0.0000000), wk =   0.0277778
        k(   19) = (   0.0146752  -0.0081303   0.0000000), wk =   0.0277778
        k(   20) = (   0.0293503   0.0162606   0.0000000), wk =   0.0277778
        k(   21) = (   0.0293503   0.0325213   0.0000000), wk =   0.0277778
        k(   22) = (   0.0293503   0.0487820   0.0000000), wk =   0.0277778
        k(   23) = (   0.0293503   0.0650426   0.0000000), wk =   0.0277778
        k(   24) = (   0.0293503   0.0813033   0.0000000), wk =   0.0277778
        k(   25) = (   0.0293503   0.0975639   0.0000000), wk =   0.0277778
        k(   26) = (   0.0293503  -0.0813033   0.0000000), wk =   0.0277778
        k(   27) = (   0.0293503  -0.0650426   0.0000000), wk =   0.0277778
        k(   28) = (   0.0293503  -0.0487820   0.0000000), wk =   0.0277778
        k(   29) = (   0.0293503  -0.0325213   0.0000000), wk =   0.0277778
        k(   30) = (   0.0293503  -0.0162607   0.0000000), wk =   0.0277778
        k(   31) = (   0.0293503  -0.0000000   0.0000000), wk =   0.0277778
        k(   32) = (   0.0440255   0.0243910   0.0000000), wk =   0.0277778
        k(   33) = (   0.0440255   0.0406516   0.0000000), wk =   0.0277778
        k(   34) = (   0.0440255   0.0569123   0.0000000), wk =   0.0277778
        k(   35) = (   0.0440255   0.0731729   0.0000000), wk =   0.0277778
        k(   36) = (   0.0440255   0.0894336   0.0000000), wk =   0.0277778
        k(   37) = (   0.0440255   0.1056942   0.0000000), wk =   0.0277778
        k(   38) = (   0.0440255  -0.0731729   0.0000000), wk =   0.0277778
        k(   39) = (   0.0440255  -0.0569123   0.0000000), wk =   0.0277778
        k(   40) = (   0.0440255  -0.0406516   0.0000000), wk =   0.0277778
        k(   41) = (   0.0440255  -0.0243910   0.0000000), wk =   0.0277778
        k(   42) = (   0.0440255  -0.0081303   0.0000000), wk =   0.0277778
        k(   43) = (   0.0440255   0.0081303   0.0000000), wk =   0.0277778
        k(   44) = (   0.0587007   0.0325213   0.0000000), wk =   0.0277778
        k(   45) = (   0.0587007   0.0487819   0.0000000), wk =   0.0277778
        k(   46) = (   0.0587007   0.0650426   0.0000000), wk =   0.0277778
        k(   47) = (   0.0587007   0.0813033   0.0000000), wk =   0.0277778
        k(   48) = (   0.0587007   0.0975639   0.0000000), wk =   0.0277778
        k(   49) = (   0.0587007   0.1138246   0.0000000), wk =   0.0277778
        k(   50) = (   0.0587007  -0.0650426   0.0000000), wk =   0.0277778
        k(   51) = (   0.0587007  -0.0487820   0.0000000), wk =   0.0277778
        k(   52) = (   0.0587007  -0.0325213   0.0000000), wk =   0.0277778
        k(   53) = (   0.0587007  -0.0162607   0.0000000), wk =   0.0277778
        k(   54) = (   0.0587007  -0.0000000   0.0000000), wk =   0.0277778
        k(   55) = (   0.0587007   0.0162606   0.0000000), wk =   0.0277778
        k(   56) = (   0.0733759   0.0406516   0.0000000), wk =   0.0277778
        k(   57) = (   0.0733759   0.0569123   0.0000000), wk =   0.0277778
        k(   58) = (   0.0733759   0.0731729   0.0000000), wk =   0.0277778
        k(   59) = (   0.0733759   0.0894336   0.0000000), wk =   0.0277778
        k(   60) = (   0.0733759   0.1056942   0.0000000), wk =   0.0277778
        k(   61) = (   0.0733759   0.1219549   0.0000000), wk =   0.0277778
        k(   62) = (   0.0733759  -0.0569123   0.0000000), wk =   0.0277778
        k(   63) = (   0.0733759  -0.0406516   0.0000000), wk =   0.0277778
        k(   64) = (   0.0733759  -0.0243910   0.0000000), wk =   0.0277778
        k(   65) = (   0.0733759  -0.0081303   0.0000000), wk =   0.0277778
        k(   66) = (   0.0733759   0.0081303   0.0000000), wk =   0.0277778
        k(   67) = (   0.0733759   0.0243910   0.0000000), wk =   0.0277778
        k(   68) = (  -0.0880510  -0.0487819   0.0000000), wk =   0.0138889
        k(   69) = (  -0.0880510  -0.0325213   0.0000000), wk =   0.0277778
        k(   70) = (  -0.0880510  -0.0162606   0.0000000), wk =   0.0277778
        k(   71) = (  -0.0880510   0.0000000   0.0000000), wk =   0.0277778
        k(   72) = (  -0.0880510   0.0162607   0.0000000), wk =   0.0277778
        k(   73) = (  -0.0880510   0.0325213   0.0000000), wk =   0.0277778
        k(   74) = (  -0.0880510  -0.1463459   0.0000000), wk =   0.0138889

     Initial potential from superposition of free atoms

     starting charge  167.96687, renormalised to  168.00000

     negative rho (up, down):  3.029E-03 0.000E+00

     %%%%%%%%%%%%%%%%%%%%%%%%%%%%%%%%%%%%%%%%%%%%%%%%%%%%%%%%%%%%%%%%%%%%%%%%
     %                                                                      %
     % You are using vdW-DF, which was implemented by the Thonhauser group. %
     % Please cite the following two papers that made this development      %
     % possible and the two reviews that describe the various versions:     %
     %                                                                      %
     %   T. Thonhauser et al., PRL 115, 136402 (2015).                      %
     %   T. Thonhauser et al., PRB 76, 125112 (2007).                       %
     %   K. Berland et al., Rep. Prog. Phys. 78, 066501 (2015).             %
     %   D.C. Langreth et al., J. Phys.: Condens. Matter 21, 084203 (2009). %
     %                                                                      %
     %                                                                      %
     % If you are calculating the stress with vdW-DF, please also cite:     %
     %                                                                      %
     %   R. Sabatini et al., J. Phys.: Condens. Matter 24, 424209 (2012).   %
     %                                                                      %
     %%%%%%%%%%%%%%%%%%%%%%%%%%%%%%%%%%%%%%%%%%%%%%%%%%%%%%%%%%%%%%%%%%%%%%%%

     Adding external electric field

     Computed dipole along edir(3) :
        Dipole                0.0064 Ry au,          0.0163 Debye
        Dipole field          0.0000 Ry au,

        Potential amp.       -0.0015 Ry
        Total length         45.5598 bohr

     Starting wfcs are  114 randomized atomic wfcs

     Self-consistent Calculation

     iteration #  1     ecut=    55.12 Ry     beta= 0.10
     Davidson diagonalization with overlap
     ethr =  1.00E-02,  avg # of iterations =  3.2

[...]

     total energy              =   -1795.08275147 Ry
     estimated scf accuracy    <       4.44163127 Ry

[...]

     iteration #  5     ecut=    55.12 Ry     beta= 0.10
     Davidson diagonalization with overlap
     c_bands:  1 eigenvalues not converged
     c_bands:  1 eigenvalues not converged
     c_bands:  1 eigenvalues not converged
     c_bands:  1 eigenvalues not converged
     c_bands:  1 eigenvalues not converged
     c_bands:  1 eigenvalues not converged
     ethr =  1.44E-04,  avg # of iterations = 12.2

[...]

     iteration # 13     ecut=    55.12 Ry     beta= 0.10
     Davidson diagonalization with overlap
     c_bands:  1 eigenvalues not converged
     c_bands:  1 eigenvalues not converged
     ethr =  2.06E-07,  avg # of iterations =  3.2

[...]

     total energy              =   -1795.31526697 Ry
     estimated scf accuracy    <       0.00006662 Ry

     iteration # 16     ecut=    55.12 Ry     beta= 0.10
     Davidson diagonalization with overlap
     ethr =  3.97E-08,  avg # of iterations =  2.0

[...]

     Adding external electric field

     Computed dipole along edir(3) :
        Dipole                0.1209 Ry au,          0.3074 Debye
        Dipole field          0.0003 Ry au,

        Potential amp.       -0.0285 Ry
        Total length         45.5598 bohr

     End of self-consistent calculation

          k = 0.0000 0.0000 0.0000 ( 33505 PWs)   bands (ev):

   -71.4179 -71.3899 -71.1687 -71.1414 -70.7279 -70.6995 -42.1138 -42.0788
   -41.3833 -41.1928 -41.1913 -41.1605 -41.0720 -41.0273 -41.0044 -40.9978
   -40.9782 -40.9474 -40.8937 -40.6912 -40.6596 -40.6399 -40.6130 -40.5823
    -8.3509  -8.1489  -8.1203  -8.0838  -7.9970  -7.8452  -7.7961  -7.7750
    -7.7360  -7.7119  -7.6498  -7.6308  -7.4164  -7.3561  -7.3228  -7.2464
    -7.2025  -7.1771  -7.1520  -7.1364  -7.0983  -7.0626  -7.0394  -6.9395
    -6.9131  -6.8986  -6.8870  -6.7899  -6.7074  -6.4316  -6.1340  -4.4664
    -2.9943  -2.6834  -2.3804  -2.2913  -1.8774  -1.8013  -1.5039  -1.3844
    -1.2443  -1.1592  -1.0198  -0.8211  -0.3821  -0.1783  -0.1494  -0.0796
     0.1097   0.3735   0.4623   0.7221   0.7259   0.9949   1.0288   1.1028
     1.1749   1.4240   1.5678   1.6164   1.6771   1.6808   1.7267   2.0391
     2.1202   2.1642   2.3564   2.6598   3.0663   3.2305   3.5335   3.7462
     3.8695   4.5855   4.5872   5.2696   5.4354

[...]

          k = 0.0734 0.0244 0.0000 ( 33543 PWs)   bands (ev):

[...]

          k =-0.0881-0.0488 0.0000 ( 33534 PWs)   bands (ev):

[...]

          k =-0.0881-0.1463 0.0000 ( 33534 PWs)   bands (ev):

   -71.4045 -71.4034 -71.1557 -71.1545 -70.7137 -70.7137 -42.0970 -42.0959
   -41.2296 -41.2286 -41.1775 -41.1764 -41.0446 -41.0435 -41.0131 -41.0120
   -40.9918 -40.9907 -40.7951 -40.7951 -40.6758 -40.6757 -40.5977 -40.5977
    -7.8946  -7.8946  -7.7173  -7.7172  -7.6513  -7.6512  -7.5397  -7.5397
    -7.5116  -7.5116  -7.3965  -7.3964  -7.3455  -7.3455  -7.3274  -7.3274
    -7.3183  -7.3182  -7.2836  -7.2836  -7.2508  -7.2508  -7.2402  -7.2401
    -7.1134  -7.1134  -7.0568  -7.0568  -7.0031  -7.0031  -4.5246  -4.5245
    -3.1927  -3.1927  -2.4009  -2.4006  -2.0445  -2.0439  -1.7774  -1.7770
    -1.0946  -1.0944  -0.5778  -0.5778  -0.4911  -0.4908  -0.1663  -0.1661
    -0.0044  -0.0043   0.1897   0.1899   0.2762   0.2764   0.4727   0.4729
     0.6108   0.6110   1.0104   1.0106   1.2884   1.2885   1.7025   1.7029
     1.9869   1.9870   2.2565   2.2566   3.0993   3.0994   3.9645   3.9646
     4.8982   4.8982   6.0312   6.0313   6.7708

     the Fermi energy is     1.3610 ev

!    total energy              =   -1795.31527451 Ry
     estimated scf accuracy    <       0.00000864 Ry
     smearing contrib. (-TS)   =      -0.06705635 Ry
     internal energy E=F+TS    =   -1795.24821816 Ry

     The total energy is F=E-TS. E is the sum of the following terms:
     one-electron contribution =  -14298.65679952 Ry
     hartree contribution      =    7191.69275746 Ry
     xc contribution           =    -322.73646593 Ry
     ewald contribution        =    5634.45225199 Ry
     electric field correction =       0.00003785 Ry

     convergence has been achieved in  16 iterations

     negative rho (up, down):  3.221E-03 0.000E+00

     Forces acting on atoms (cartesian axes, Ry/au):

     atom    1 type  1   force =    -0.00000501    0.01673626    0.03108665
     atom    2 type  1   force =    -0.00000039    0.01663328    0.03105377
     atom    3 type  2   force =     0.00012507   -0.00771490   -0.03339358
     atom    4 type  2   force =    -0.00011849   -0.00773441   -0.03339655
     atom    5 type  1   force =    -0.00000468   -0.02324319   -0.00409201
     atom    6 type  1   force =    -0.00000812   -0.02317384   -0.00396680
     atom    7 type  2   force =    -0.00009534    0.01406528    0.00495188
     atom    8 type  2   force =     0.00011241    0.01404701    0.00495093
     atom    9 type  1   force =     0.00000379   -0.00023465    0.00061457
     atom   10 type  1   force =    -0.00000919   -0.00012878    0.00067176
     atom   11 type  2   force =    -0.00005798    0.00039275    0.00075917
     atom   12 type  2   force =     0.00005792    0.00035520    0.00076020

     Total force =     0.079960     Total SCF correction =     0.009120
     SCF correction compared to forces is large: reduce conv_thr to get better values

     Writing output data file ./Ru2Cd2/Ru2Cd2_beef.save/

     General routines

     Parallel routines

   This run was terminated on:  21:41:55  10Jul2022

   JOB DONE.