     Program PWSCF v.6.6 starts on 10Jul2022 at 21:41:59

     R & G space division:  proc/nbgrp/npool/nimage =      37
     Fft bands division:     nmany     =       1
     Reading input from Ru2Hg2.in
Warning: card &CELL ignored
Warning: card / ignored

     Current dimensions of program PWSCF are:
     Max number of different atomic species (ntypx) = 10
     Max number of k-points (npk) =  40000
     Max angular momentum in pseudopotentials (lmaxx) =  3
     Presently stress not available with electric field and gates

     Message from routine cell_base_init:
     DEPRECATED: use true lattice parameter, not A to a.u. conversion factor
     file Hg.pbe-n-rrkjus_psl.1.0.0.UPF: wavefunction(s)  6S renormalized

     IMPORTANT: XC functional enforced from input :
     Exchange-correlation= BEEF-VDW
                           (   1   4  43  14   2   0   0)
     Any further DFT definition will be discarded
     Please, verify this is what you really want

     Subspace diagonalization in iterative solution of the eigenvalue problem:
     a serial algorithm will be used

     Found symmetry operation: I + ( -0.5000  0.5000  0.0000)
     This is a supercell, fractional translations are disabled

     bravais-lattice index     =            0
     lattice parameter (alat)  =       1.8897  a.u.
     unit-cell volume          =    4940.4079 (a.u.)^3
     number of atoms/cell      =           12
     number of atomic types    =            2
     number of electrons       =       168.00
     number of Kohn-Sham states=          101
     kinetic-energy cutoff     =      55.1240  Ry
     charge density cutoff     =     551.2396  Ry
     convergence threshold     =      1.0E-05
     mixing beta               =       0.1000
     number of iterations used =           10  plain     mixing
     Exchange-correlation= BEEF-VDW
                           (   1   4  43  14   2   0   0)

     celldm(1)=   1.889726  celldm(2)=   0.000000  celldm(3)=   0.000000
     celldm(4)=   0.000000  celldm(5)=   0.000000  celldm(6)=   0.000000

     crystal axes: (cart. coord. in units of alat)
               a(1) = (   5.776965   0.000000   0.000000 )
               a(2) = (   2.679963   5.117727   0.000000 )
               a(3) = (   0.000000   0.000000  24.762212 )

     reciprocal axes: (cart. coord. in units 2 pi/alat)
               b(1) = (  0.173101 -0.090647  0.000000 )
               b(2) = (  0.000000  0.195399  0.000000 )
               b(3) = (  0.000000  0.000000  0.040384 )

     PseudoPot. # 1 for Ru read from file:
     ../pseudo/Ru.pbe-spn-rrkjus_psl.1.0.0.UPF
     MD5 check sum: fbaca725316a1a65f98761fd4ac95971
     Pseudo is Ultrasoft + core correction, Zval = 16.0
     Generated using "atomic" code by A. Dal Corso v.6.2.2
     Using radial grid of 1233 points,  6 beta functions with:
                l(1) =   0
                l(2) =   0
                l(3) =   1
                l(4) =   1
                l(5) =   2
                l(6) =   2
     Q(r) pseudized with 0 coefficients

     PseudoPot. # 2 for Hg read from file:
     ../pseudo/Hg.pbe-n-rrkjus_psl.1.0.0.UPF
     MD5 check sum: 7519ac2e5b9cac440d3cfd4127d6ea3c
     Pseudo is Ultrasoft + core correction, Zval = 12.0
     Generated using "atomic" code by A. Dal Corso v.6.3
     Using radial grid of 1279 points,  6 beta functions with:
                l(1) =   0
                l(2) =   0
                l(3) =   1
                l(4) =   1
                l(5) =   2
                l(6) =   2
     Q(r) pseudized with 0 coefficients

     atomic species   valence    mass     pseudopotential
        Ru            16.00   101.07000     Ru( 1.00)
        Hg            12.00   200.59200     Hg( 1.00)

     No symmetry found

   Cartesian axes

     site n.     atom                  positions (alat units)
         1           Ru  tau(   1) = (   0.0000000   0.0000000  10.0000000  )
         2           Ru  tau(   2) = (   4.2284644   2.5588633  10.0000000  )
         3           Hg  tau(   3) = (   2.8884827   0.0000000  10.0000000  )
         4           Hg  tau(   4) = (   1.3399817   2.5588633  10.0000000  )
         5           Ru  tau(   5) = (   5.7769654   3.4959416  12.3811060  )
         6           Ru  tau(   6) = (   1.5485010   0.9370783  12.3811060  )
         7           Hg  tau(   7) = (   2.8884827   3.4959416  12.3811060  )
         8           Hg  tau(   8) = (   4.4369837   0.9370783  12.3811060  )
         9           Ru  tau(   9) = (   2.2247098   1.3462877  14.4967025  )
        10           Ru  tau(  10) = (   6.4531880   3.9051428  14.4965498  )
        11           Hg  tau(  11) = (   5.1822393   1.3880329  15.3025630  )
        12           Hg  tau(  12) = (   3.6337247   3.9469412  15.3025799  )

     number of k points=    74  Fermi-Dirac smearing, width (Ry)=  0.0100
                       cart. coord. in units 2pi/alat
        k(    1) = (   0.0000000   0.0000000   0.0000000), wk =   0.0138889
        k(    2) = (   0.0000000   0.0162833   0.0000000), wk =   0.0277778
        k(    3) = (   0.0000000   0.0325665   0.0000000), wk =   0.0277778
        k(    4) = (   0.0000000   0.0488498   0.0000000), wk =   0.0277778
        k(    5) = (   0.0000000   0.0651331   0.0000000), wk =   0.0277778
        k(    6) = (   0.0000000   0.0814164   0.0000000), wk =   0.0277778
        k(    7) = (   0.0000000  -0.0976996   0.0000000), wk =   0.0138889
        k(    8) = (   0.0144251  -0.0075539   0.0000000), wk =   0.0277778
        k(    9) = (   0.0144251   0.0087294   0.0000000), wk =   0.0277778
        k(   10) = (   0.0144251   0.0250127   0.0000000), wk =   0.0277778
        k(   11) = (   0.0144251   0.0412959   0.0000000), wk =   0.0277778
        k(   12) = (   0.0144251   0.0575792   0.0000000), wk =   0.0277778
        k(   13) = (   0.0144251   0.0738625   0.0000000), wk =   0.0277778
        k(   14) = (   0.0144251  -0.1052535   0.0000000), wk =   0.0277778
        k(   15) = (   0.0144251  -0.0889702   0.0000000), wk =   0.0277778
        k(   16) = (   0.0144251  -0.0726870   0.0000000), wk =   0.0277778
        k(   17) = (   0.0144251  -0.0564037   0.0000000), wk =   0.0277778
        k(   18) = (   0.0144251  -0.0401204   0.0000000), wk =   0.0277778
        k(   19) = (   0.0144251  -0.0238372   0.0000000), wk =   0.0277778
        k(   20) = (   0.0288502  -0.0151078   0.0000000), wk =   0.0277778
        k(   21) = (   0.0288502   0.0011755   0.0000000), wk =   0.0277778
        k(   22) = (   0.0288502   0.0174588   0.0000000), wk =   0.0277778
        k(   23) = (   0.0288502   0.0337420   0.0000000), wk =   0.0277778
        k(   24) = (   0.0288502   0.0500253   0.0000000), wk =   0.0277778
        k(   25) = (   0.0288502   0.0663086   0.0000000), wk =   0.0277778
        k(   26) = (   0.0288502  -0.1128074   0.0000000), wk =   0.0277778
        k(   27) = (   0.0288502  -0.0965241   0.0000000), wk =   0.0277778
        k(   28) = (   0.0288502  -0.0802409   0.0000000), wk =   0.0277778
        k(   29) = (   0.0288502  -0.0639576   0.0000000), wk =   0.0277778
        k(   30) = (   0.0288502  -0.0476743   0.0000000), wk =   0.0277778
        k(   31) = (   0.0288502  -0.0313911   0.0000000), wk =   0.0277778
        k(   32) = (   0.0432753  -0.0226617   0.0000000), wk =   0.0277778
        k(   33) = (   0.0432753  -0.0063784   0.0000000), wk =   0.0277778
        k(   34) = (   0.0432753   0.0099049   0.0000000), wk =   0.0277778
        k(   35) = (   0.0432753   0.0261881   0.0000000), wk =   0.0277778
        k(   36) = (   0.0432753   0.0424714   0.0000000), wk =   0.0277778
        k(   37) = (   0.0432753   0.0587547   0.0000000), wk =   0.0277778
        k(   38) = (   0.0432753  -0.1203613   0.0000000), wk =   0.0277778
        k(   39) = (   0.0432753  -0.1040780   0.0000000), wk =   0.0277778
        k(   40) = (   0.0432753  -0.0877948   0.0000000), wk =   0.0277778
        k(   41) = (   0.0432753  -0.0715115   0.0000000), wk =   0.0277778
        k(   42) = (   0.0432753  -0.0552282   0.0000000), wk =   0.0277778
        k(   43) = (   0.0432753  -0.0389449   0.0000000), wk =   0.0277778
        k(   44) = (   0.0577004  -0.0302156   0.0000000), wk =   0.0277778
        k(   45) = (   0.0577004  -0.0139323   0.0000000), wk =   0.0277778
        k(   46) = (   0.0577004   0.0023510   0.0000000), wk =   0.0277778
        k(   47) = (   0.0577004   0.0186342   0.0000000), wk =   0.0277778
        k(   48) = (   0.0577004   0.0349175   0.0000000), wk =   0.0277778
        k(   49) = (   0.0577004   0.0512008   0.0000000), wk =   0.0277778
        k(   50) = (   0.0577004  -0.1279152   0.0000000), wk =   0.0277778
        k(   51) = (   0.0577004  -0.1116319   0.0000000), wk =   0.0277778
        k(   52) = (   0.0577004  -0.0953486   0.0000000), wk =   0.0277778
        k(   53) = (   0.0577004  -0.0790654   0.0000000), wk =   0.0277778
        k(   54) = (   0.0577004  -0.0627821   0.0000000), wk =   0.0277778
        k(   55) = (   0.0577004  -0.0464988   0.0000000), wk =   0.0277778
        k(   56) = (   0.0721255  -0.0377695   0.0000000), wk =   0.0277778
        k(   57) = (   0.0721255  -0.0214862   0.0000000), wk =   0.0277778
        k(   58) = (   0.0721255  -0.0052029   0.0000000), wk =   0.0277778
        k(   59) = (   0.0721255   0.0110804   0.0000000), wk =   0.0277778
        k(   60) = (   0.0721255   0.0273636   0.0000000), wk =   0.0277778
        k(   61) = (   0.0721255   0.0436469   0.0000000), wk =   0.0277778
        k(   62) = (   0.0721255  -0.1354691   0.0000000), wk =   0.0277778
        k(   63) = (   0.0721255  -0.1191858   0.0000000), wk =   0.0277778
        k(   64) = (   0.0721255  -0.1029025   0.0000000), wk =   0.0277778
        k(   65) = (   0.0721255  -0.0866193   0.0000000), wk =   0.0277778
        k(   66) = (   0.0721255  -0.0703360   0.0000000), wk =   0.0277778
        k(   67) = (   0.0721255  -0.0540527   0.0000000), wk =   0.0277778
        k(   68) = (  -0.0865506   0.0453233   0.0000000), wk =   0.0138889
        k(   69) = (  -0.0865506   0.0616066   0.0000000), wk =   0.0277778
        k(   70) = (  -0.0865506   0.0778899   0.0000000), wk =   0.0277778
        k(   71) = (  -0.0865506   0.0941732   0.0000000), wk =   0.0277778
        k(   72) = (  -0.0865506   0.1104564   0.0000000), wk =   0.0277778
        k(   73) = (  -0.0865506   0.1267397   0.0000000), wk =   0.0277778
        k(   74) = (  -0.0865506  -0.0523763   0.0000000), wk =   0.0138889

     Initial potential from superposition of free atoms

     starting charge  167.99568, renormalised to  168.00000

     negative rho (up, down):  1.836E-03 0.000E+00

     %%%%%%%%%%%%%%%%%%%%%%%%%%%%%%%%%%%%%%%%%%%%%%%%%%%%%%%%%%%%%%%%%%%%%%%%
     %                                                                      %
     % You are using vdW-DF, which was implemented by the Thonhauser group. %
     % Please cite the following two papers that made this development      %
     % possible and the two reviews that describe the various versions:     %
     %                                                                      %
     %   T. Thonhauser et al., PRL 115, 136402 (2015).                      %
     %   T. Thonhauser et al., PRB 76, 125112 (2007).                       %
     %   K. Berland et al., Rep. Prog. Phys. 78, 066501 (2015).             %
     %   D.C. Langreth et al., J. Phys.: Condens. Matter 21, 084203 (2009). %
     %                                                                      %
     %                                                                      %
     % If you are calculating the stress with vdW-DF, please also cite:     %
     %                                                                      %
     %   R. Sabatini et al., J. Phys.: Condens. Matter 24, 424209 (2012).   %
     %                                                                      %
     %%%%%%%%%%%%%%%%%%%%%%%%%%%%%%%%%%%%%%%%%%%%%%%%%%%%%%%%%%%%%%%%%%%%%%%%

     Adding external electric field

     Computed dipole along edir(3) :
        Dipole               -0.0007 Ry au,         -0.0018 Debye
        Dipole field         -0.0000 Ry au,

        Potential amp.        0.0002 Ry
        Total length         45.6240 bohr

     Starting wfcs are  114 randomized atomic wfcs

     Self-consistent Calculation

     iteration #  1     ecut=    55.12 Ry     beta= 0.10
     Davidson diagonalization with overlap
     ethr =  1.00E-02,  avg # of iterations =  4.1

[...]

     total energy              =   -1794.10291952 Ry
     estimated scf accuracy    <       8.00871668 Ry

[...]

     iteration #  8     ecut=    55.12 Ry     beta= 0.10
     Davidson diagonalization with overlap
     c_bands:  1 eigenvalues not converged
     c_bands:  1 eigenvalues not converged
     c_bands:  1 eigenvalues not converged
     c_bands:  1 eigenvalues not converged
     ethr =  1.21E-04,  avg # of iterations =  8.9

[...]

     iteration # 14     ecut=    55.12 Ry     beta= 0.10
     Davidson diagonalization with overlap
     c_bands:  1 eigenvalues not converged
     ethr =  8.51E-07,  avg # of iterations =  6.5

[...]

     total energy              =   -1794.49145002 Ry
     estimated scf accuracy    <       0.00006345 Ry

     iteration # 19     ecut=    55.12 Ry     beta= 0.10
     Davidson diagonalization with overlap
     ethr =  3.78E-08,  avg # of iterations =  2.0

[...]

     Adding external electric field

     Computed dipole along edir(3) :
        Dipole                0.0938 Ry au,          0.2384 Debye
        Dipole field          0.0002 Ry au,

        Potential amp.       -0.0218 Ry
        Total length         45.6240 bohr

     End of self-consistent calculation

          k = 0.0000 0.0000 0.0000 ( 34113 PWs)   bands (ev):

   -71.3636 -71.3494 -71.1007 -71.0872 -70.5188 -70.5046 -42.2093 -42.1897
   -41.2382 -41.1230 -41.1053 -41.0546 -41.0168 -40.9666 -40.9528 -40.9108
   -40.8945 -40.8450 -40.6461 -40.5191 -40.5015 -40.4654 -40.4390 -40.4215
    -7.1060  -6.7138  -6.6757  -6.5444  -6.5430  -6.3750  -6.3473  -6.2527
    -6.2030  -6.1854  -6.1203  -5.9204  -5.8385  -5.8241  -5.6456  -5.5201
    -5.5042  -5.4948  -5.4548  -5.3407  -5.3193  -5.2652  -5.2168  -5.1587
    -5.1394  -5.0250  -4.9246  -4.8642  -4.7956  -4.6930  -4.6409  -4.3130
    -2.9635  -2.3125  -2.2258  -2.0903  -1.9012  -1.5298  -1.2624  -1.1584
    -1.1409  -0.8122  -0.5625  -0.4767  -0.3893  -0.1095   0.1452   0.4451
     0.4720   0.6646   0.6833   0.8769   1.0401   1.1536   1.2913   1.3637
     1.4409   1.5378   1.7111   1.7155   1.8173   1.8407   1.8482   2.0878
     2.2143   2.4353   2.5947   2.8115   2.9836   3.1533   3.4396   3.9038
     3.9253   4.1945   4.6536   4.7493   5.5221

[...]

          k = 0.0721-0.0541 0.0000 ( 34138 PWs)   bands (ev):

[...]

          k =-0.0866 0.0453 0.0000 ( 34114 PWs)   bands (ev):

[...]

          k =-0.0866-0.0524 0.0000 ( 34208 PWs)   bands (ev):

   -71.3635 -71.3494 -71.1007 -71.0872 -70.5188 -70.5045 -42.2095 -42.1898
   -41.2389 -41.1247 -41.1057 -41.0549 -41.0170 -40.9666 -40.9528 -40.9113
   -40.8948 -40.8451 -40.6469 -40.5208 -40.5023 -40.4657 -40.4389 -40.4216
    -6.8394  -6.5824  -6.4592  -6.3529  -6.3269  -6.2958  -6.1074  -6.0816
    -6.0416  -5.9485  -5.8659  -5.7843  -5.6793  -5.5776  -5.5766  -5.5097
    -5.3798  -5.3568  -5.3323  -5.2754  -5.2527  -5.2185  -5.1380  -5.0483
    -5.0444  -4.9225  -4.8214  -4.8166  -4.7921  -4.6994  -4.3144  -4.2826
    -3.0413  -2.5698  -2.5084  -2.1432  -2.1081  -1.8235  -1.8056  -1.6329
    -1.4051  -1.3094  -1.1789  -0.8469  -0.7443  -0.6237  -0.5669  -0.4811
    -0.4683  -0.1737  -0.1206  -0.0497   0.2060   0.5259   0.6144   0.7329
     0.8414   1.3447   1.4153   1.4686   1.6690   1.6860   1.8027   1.8245
     1.9207   2.2401   2.8228   2.8648   3.0641   3.5793   3.7461   3.8883
     4.8632   4.8729   6.1880   6.2909   6.7057

     the Fermi energy is     1.4941 ev

!    total energy              =   -1794.49145451 Ry
     estimated scf accuracy    <       0.00000752 Ry
     smearing contrib. (-TS)   =      -0.07567192 Ry
     internal energy E=F+TS    =   -1794.41578259 Ry

     The total energy is F=E-TS. E is the sum of the following terms:
     one-electron contribution =  -13805.11379290 Ry
     hartree contribution      =    6946.46893000 Ry
     xc contribution           =    -380.80977280 Ry
     ewald contribution        =    5445.03883074 Ry
     electric field correction =       0.00002237 Ry

     convergence has been achieved in  19 iterations

     negative rho (up, down):  1.621E-03 0.000E+00

     Forces acting on atoms (cartesian axes, Ry/au):

     atom    1 type  1   force =     0.01721613    0.01042441    0.02499582
     atom    2 type  1   force =     0.01725476    0.01043955    0.02503694
     atom    3 type  2   force =    -0.00444084   -0.00262757   -0.04258101
     atom    4 type  2   force =    -0.00436553   -0.00272054   -0.04256959
     atom    5 type  1   force =    -0.02079040   -0.01258208    0.00711075
     atom    6 type  1   force =    -0.02080206   -0.01258727    0.00716028
     atom    7 type  2   force =     0.00767730    0.00457339    0.01037460
     atom    8 type  2   force =     0.00762572    0.00467040    0.01039072
     atom    9 type  1   force =     0.00014777    0.00009399   -0.00084867
     atom   10 type  1   force =     0.00012774    0.00008137   -0.00082056
     atom   11 type  2   force =     0.00018067    0.00011476    0.00087624
     atom   12 type  2   force =     0.00016874    0.00011960    0.00087448

     Total force =     0.086046     Total SCF correction =     0.011266
     SCF correction compared to forces is large: reduce conv_thr to get better values

     Writing output data file ./Ru2Hg2/Ru2Hg2_beef.save/

     General routines

     Parallel routines

   This run was terminated on:  23: 1: 1  10Jul2022

   JOB DONE.