     Program PWSCF v.6.6 starts on 25Jun2022 at 17:14:53

     R & G space division:  proc/nbgrp/npool/nimage =      37
     Fft bands division:     nmany     =       1
     Reading input from Ru2Hf2.in
Warning: card &CELL ignored
Warning: card / ignored

     Current dimensions of program PWSCF are:
     Max number of different atomic species (ntypx) = 10
     Max number of k-points (npk) =  40000
     Max angular momentum in pseudopotentials (lmaxx) =  3
     Presently stress not available with electric field and gates

     Message from routine cell_base_init:
     DEPRECATED: use true lattice parameter, not A to a.u. conversion factor

     IMPORTANT: XC functional enforced from input :
     Exchange-correlation= BEEF-VDW
                           (   1   4  43  14   2   0   0)
     Any further DFT definition will be discarded
     Please, verify this is what you really want

     Subspace diagonalization in iterative solution of the eigenvalue problem:
     a serial algorithm will be used

     Found symmetry operation: I + ( -0.5000 -0.5000  0.0000)
     This is a supercell, fractional translations are disabled

     bravais-lattice index     =            0
     lattice parameter (alat)  =       1.8897  a.u.
     unit-cell volume          =    4911.5274 (a.u.)^3
     number of atoms/cell      =           12
     number of atomic types    =            2
     number of electrons       =       168.00
     number of Kohn-Sham states=          101
     kinetic-energy cutoff     =      55.1240  Ry
     charge density cutoff     =     551.2396  Ry
     convergence threshold     =      1.0E-05
     mixing beta               =       0.1000
     number of iterations used =           10  plain     mixing
     Exchange-correlation= BEEF-VDW
                           (   1   4  43  14   2   0   0)

     celldm(1)=   1.889726  celldm(2)=   0.000000  celldm(3)=   0.000000
     celldm(4)=   0.000000  celldm(5)=   0.000000  celldm(6)=   0.000000

     crystal axes: (cart. coord. in units of alat)
               a(1) = (   5.593236   0.000000   0.000000 )
               a(2) = (   1.778218   5.303040   0.000000 )
               a(3) = (   0.000000   0.000000  24.537596 )

     reciprocal axes: (cart. coord. in units 2 pi/alat)
               b(1) = (  0.178787 -0.059951  0.000000 )
               b(2) = (  0.000000  0.188571  0.000000 )
               b(3) = (  0.000000  0.000000  0.040754 )

     PseudoPot. # 1 for Ru read from file:
     ../pseudo/Ru.pbe-spn-rrkjus_psl.1.0.0.UPF
     MD5 check sum: fbaca725316a1a65f98761fd4ac95971
     Pseudo is Ultrasoft + core correction, Zval = 16.0
     Generated using "atomic" code by A. Dal Corso v.6.2.2
     Using radial grid of 1233 points,  6 beta functions with:
                l(1) =   0
                l(2) =   0
                l(3) =   1
                l(4) =   1
                l(5) =   2
                l(6) =   2
     Q(r) pseudized with 0 coefficients

     PseudoPot. # 2 for Hf read from file:
     ../pseudo/Hf.pbe-spn-rrkjus_psl.1.0.0.UPF
     MD5 check sum: 9605440c6f839e558204c6a924125fd0
     Pseudo is Ultrasoft + core correction, Zval = 12.0
     Generated using "atomic" code by A. Dal Corso v.6.2.2
     Using radial grid of 1271 points,  6 beta functions with:
                l(1) =   0
                l(2) =   0
                l(3) =   1
                l(4) =   1
                l(5) =   2
                l(6) =   2
     Q(r) pseudized with 0 coefficients

     atomic species   valence    mass     pseudopotential
        Ru            16.00   101.07000     Ru( 1.00)
        Hf            12.00   178.49000     Hf( 1.00)

     No symmetry found

   Cartesian axes

     site n.     atom                  positions (alat units)
         1           Ru  tau(   1) = (   0.0000000   0.0000000  10.0000000  )
         2           Ru  tau(   2) = (   3.6857273   2.6515200  10.0000000  )
         3           Hf  tau(   3) = (   2.7966182   0.0000000  10.0000000  )
         4           Hf  tau(   4) = (   0.8891091   2.6515200  10.0000000  )
         5           Ru  tau(   5) = (   5.5932364   4.0237862  12.2687979  )
         6           Ru  tau(   6) = (   1.9075092   1.3722661  12.2687979  )
         7           Hf  tau(   7) = (   2.7966182   4.0237862  12.2687979  )
         8           Hf  tau(   8) = (   4.7041274   1.3722661  12.2687979  )
         9           Ru  tau(   9) = (   3.7568831   2.7027104  14.4246782  )
        10           Ru  tau(  10) = (   0.0711555   0.0511872  14.4246699  )
        11           Hf  tau(  11) = (   0.9539751   2.6981850  14.5863432  )
        12           Hf  tau(  12) = (   2.8614878   0.0466667  14.5863462  )

     number of k points=    74  Fermi-Dirac smearing, width (Ry)=  0.0100
                       cart. coord. in units 2pi/alat
        k(    1) = (   0.0000000   0.0000000   0.0000000), wk =   0.0138889
        k(    2) = (   0.0000000   0.0157143   0.0000000), wk =   0.0277778
        k(    3) = (   0.0000000   0.0314285   0.0000000), wk =   0.0277778
        k(    4) = (   0.0000000   0.0471428   0.0000000), wk =   0.0277778
        k(    5) = (   0.0000000   0.0628570   0.0000000), wk =   0.0277778
        k(    6) = (   0.0000000   0.0785713   0.0000000), wk =   0.0277778
        k(    7) = (   0.0000000  -0.0942855   0.0000000), wk =   0.0138889
        k(    8) = (   0.0148989  -0.0049959   0.0000000), wk =   0.0277778
        k(    9) = (   0.0148989   0.0107183   0.0000000), wk =   0.0277778
        k(   10) = (   0.0148989   0.0264326   0.0000000), wk =   0.0277778
        k(   11) = (   0.0148989   0.0421468   0.0000000), wk =   0.0277778
        k(   12) = (   0.0148989   0.0578611   0.0000000), wk =   0.0277778
        k(   13) = (   0.0148989   0.0735754   0.0000000), wk =   0.0277778
        k(   14) = (   0.0148989  -0.0992815   0.0000000), wk =   0.0277778
        k(   15) = (   0.0148989  -0.0835672   0.0000000), wk =   0.0277778
        k(   16) = (   0.0148989  -0.0678530   0.0000000), wk =   0.0277778
        k(   17) = (   0.0148989  -0.0521387   0.0000000), wk =   0.0277778
        k(   18) = (   0.0148989  -0.0364244   0.0000000), wk =   0.0277778
        k(   19) = (   0.0148989  -0.0207102   0.0000000), wk =   0.0277778
        k(   20) = (   0.0297979  -0.0099918   0.0000000), wk =   0.0277778
        k(   21) = (   0.0297979   0.0057224   0.0000000), wk =   0.0277778
        k(   22) = (   0.0297979   0.0214367   0.0000000), wk =   0.0277778
        k(   23) = (   0.0297979   0.0371509   0.0000000), wk =   0.0277778
        k(   24) = (   0.0297979   0.0528652   0.0000000), wk =   0.0277778
        k(   25) = (   0.0297979   0.0685794   0.0000000), wk =   0.0277778
        k(   26) = (   0.0297979  -0.1042774   0.0000000), wk =   0.0277778
        k(   27) = (   0.0297979  -0.0885631   0.0000000), wk =   0.0277778
        k(   28) = (   0.0297979  -0.0728489   0.0000000), wk =   0.0277778
        k(   29) = (   0.0297979  -0.0571346   0.0000000), wk =   0.0277778
        k(   30) = (   0.0297979  -0.0414204   0.0000000), wk =   0.0277778
        k(   31) = (   0.0297979  -0.0257061   0.0000000), wk =   0.0277778
        k(   32) = (   0.0446968  -0.0149878   0.0000000), wk =   0.0277778
        k(   33) = (   0.0446968   0.0007265   0.0000000), wk =   0.0277778
        k(   34) = (   0.0446968   0.0164407   0.0000000), wk =   0.0277778
        k(   35) = (   0.0446968   0.0321550   0.0000000), wk =   0.0277778
        k(   36) = (   0.0446968   0.0478693   0.0000000), wk =   0.0277778
        k(   37) = (   0.0446968   0.0635835   0.0000000), wk =   0.0277778
        k(   38) = (   0.0446968  -0.1092733   0.0000000), wk =   0.0277778
        k(   39) = (   0.0446968  -0.0935591   0.0000000), wk =   0.0277778
        k(   40) = (   0.0446968  -0.0778448   0.0000000), wk =   0.0277778
        k(   41) = (   0.0446968  -0.0621305   0.0000000), wk =   0.0277778
        k(   42) = (   0.0446968  -0.0464163   0.0000000), wk =   0.0277778
        k(   43) = (   0.0446968  -0.0307020   0.0000000), wk =   0.0277778
        k(   44) = (   0.0595958  -0.0199837   0.0000000), wk =   0.0277778
        k(   45) = (   0.0595958  -0.0042694   0.0000000), wk =   0.0277778
        k(   46) = (   0.0595958   0.0114448   0.0000000), wk =   0.0277778
        k(   47) = (   0.0595958   0.0271591   0.0000000), wk =   0.0277778
        k(   48) = (   0.0595958   0.0428733   0.0000000), wk =   0.0277778
        k(   49) = (   0.0595958   0.0585876   0.0000000), wk =   0.0277778
        k(   50) = (   0.0595958  -0.1142692   0.0000000), wk =   0.0277778
        k(   51) = (   0.0595958  -0.0985550   0.0000000), wk =   0.0277778
        k(   52) = (   0.0595958  -0.0828407   0.0000000), wk =   0.0277778
        k(   53) = (   0.0595958  -0.0671265   0.0000000), wk =   0.0277778
        k(   54) = (   0.0595958  -0.0514122   0.0000000), wk =   0.0277778
        k(   55) = (   0.0595958  -0.0356979   0.0000000), wk =   0.0277778
        k(   56) = (   0.0744947  -0.0249796   0.0000000), wk =   0.0277778
        k(   57) = (   0.0744947  -0.0092654   0.0000000), wk =   0.0277778
        k(   58) = (   0.0744947   0.0064489   0.0000000), wk =   0.0277778
        k(   59) = (   0.0744947   0.0221632   0.0000000), wk =   0.0277778
        k(   60) = (   0.0744947   0.0378774   0.0000000), wk =   0.0277778
        k(   61) = (   0.0744947   0.0535917   0.0000000), wk =   0.0277778
        k(   62) = (   0.0744947  -0.1192652   0.0000000), wk =   0.0277778
        k(   63) = (   0.0744947  -0.1035509   0.0000000), wk =   0.0277778
        k(   64) = (   0.0744947  -0.0878366   0.0000000), wk =   0.0277778
        k(   65) = (   0.0744947  -0.0721224   0.0000000), wk =   0.0277778
        k(   66) = (   0.0744947  -0.0564081   0.0000000), wk =   0.0277778
        k(   67) = (   0.0744947  -0.0406939   0.0000000), wk =   0.0277778
        k(   68) = (  -0.0893937   0.0299755   0.0000000), wk =   0.0138889
        k(   69) = (  -0.0893937   0.0456898   0.0000000), wk =   0.0277778
        k(   70) = (  -0.0893937   0.0614041   0.0000000), wk =   0.0277778
        k(   71) = (  -0.0893937   0.0771183   0.0000000), wk =   0.0277778
        k(   72) = (  -0.0893937   0.0928326   0.0000000), wk =   0.0277778
        k(   73) = (  -0.0893937   0.1085468   0.0000000), wk =   0.0277778
        k(   74) = (  -0.0893937  -0.0643100   0.0000000), wk =   0.0138889

     Initial potential from superposition of free atoms

     starting charge  167.98454, renormalised to  168.00000

     negative rho (up, down):  1.446E-03 0.000E+00

     %%%%%%%%%%%%%%%%%%%%%%%%%%%%%%%%%%%%%%%%%%%%%%%%%%%%%%%%%%%%%%%%%%%%%%%%
     %                                                                      %
     % You are using vdW-DF, which was implemented by the Thonhauser group. %
     % Please cite the following two papers that made this development      %
     % possible and the two reviews that describe the various versions:     %
     %                                                                      %
     %   T. Thonhauser et al., PRL 115, 136402 (2015).                      %
     %   T. Thonhauser et al., PRB 76, 125112 (2007).                       %
     %   K. Berland et al., Rep. Prog. Phys. 78, 066501 (2015).             %
     %   D.C. Langreth et al., J. Phys.: Condens. Matter 21, 084203 (2009). %
     %                                                                      %
     %                                                                      %
     % If you are calculating the stress with vdW-DF, please also cite:     %
     %                                                                      %
     %   R. Sabatini et al., J. Phys.: Condens. Matter 24, 424209 (2012).   %
     %                                                                      %
     %%%%%%%%%%%%%%%%%%%%%%%%%%%%%%%%%%%%%%%%%%%%%%%%%%%%%%%%%%%%%%%%%%%%%%%%

     Adding external electric field

     Computed dipole along edir(3) :
        Dipole                0.0005 Ry au,          0.0013 Debye
        Dipole field          0.0000 Ry au,

        Potential amp.       -0.0001 Ry
        Total length         45.2101 bohr

     Starting wfcs are  120 randomized atomic wfcs

     Self-consistent Calculation

     iteration #  1     ecut=    55.12 Ry     beta= 0.10
     Davidson diagonalization with overlap
     ethr =  1.00E-02,  avg # of iterations =  3.0

[...]

     total energy              =   -1945.62725700 Ry
     estimated scf accuracy    <       9.64216335 Ry

[...]

     iteration #  8     ecut=    55.12 Ry     beta= 0.10
     Davidson diagonalization with overlap
     c_bands:  1 eigenvalues not converged
     ethr =  1.64E-05,  avg # of iterations = 10.3

[...]

     iteration # 14     ecut=    55.12 Ry     beta= 0.10
     Davidson diagonalization with overlap
     c_bands:  1 eigenvalues not converged
     ethr =  1.03E-08,  avg # of iterations =  6.0

[...]

     total energy              =   -1945.98236387 Ry
     estimated scf accuracy    <       0.00001132 Ry

     iteration # 15     ecut=    55.12 Ry     beta= 0.10
     Davidson diagonalization with overlap
     ethr =  6.74E-09,  avg # of iterations =  2.9

[...]

     Adding external electric field

     Computed dipole along edir(3) :
        Dipole                0.0491 Ry au,          0.1249 Debye
        Dipole field          0.0001 Ry au,

        Potential amp.       -0.0114 Ry
        Total length         45.2101 bohr

     End of self-consistent calculation

          k = 0.0000 0.0000 0.0000 ( 34039 PWs)   bands (ev):

   -70.5330 -70.5283 -70.0193 -70.0146 -70.0102 -70.0056 -60.6812 -60.6689
   -60.6275 -60.6151 -59.9537 -59.9411 -40.6107 -40.5306 -40.5085 -40.5034
   -40.5013 -40.4977 -40.0851 -40.0749 -40.0718 -40.0666 -40.0618 -40.0516
   -40.0051 -39.9733 -39.9543 -39.9467 -39.9453 -39.9384 -29.2818 -29.2572
   -29.2225 -29.2058 -29.1984 -29.1756 -29.0682 -29.0521 -29.0248 -29.0076
   -28.9205 -28.8907 -28.6128 -28.5012 -28.4811 -28.4550 -28.4196 -28.3163
    -4.6762  -3.0423  -2.5725  -2.3317  -2.2410  -2.2145  -2.0536  -1.9258
    -1.9034  -1.8974  -1.3382  -1.3267  -0.9266  -0.6447  -0.6238  -0.5179
    -0.3373  -0.2541  -0.2403  -0.2275  -0.1443  -0.0333   0.1143   0.5980
     0.7564   0.8244   0.9013   1.1999   1.4228   1.5060   1.6322   1.6325
     1.7708   2.2127   2.7608   2.8056   3.0370   3.1042   3.2761   3.4133
     3.5899   3.6766   3.9269   3.9811   4.0959   4.2397   4.2597   4.3143
     4.4496   4.8210   4.8289   4.9425   5.1166

[...]

          k = 0.0745-0.0407 0.0000 ( 33921 PWs)   bands (ev):

[...]

          k =-0.0894 0.0300 0.0000 ( 33888 PWs)   bands (ev):

[...]

          k =-0.0894-0.0643 0.0000 ( 33886 PWs)   bands (ev):

   -70.5328 -70.5284 -70.0192 -70.0146 -70.0100 -70.0056 -60.6819 -60.6692
   -60.6281 -60.6154 -59.9546 -59.9411 -40.6047 -40.5295 -40.5058 -40.4983
   -40.4975 -40.4929 -40.0788 -40.0661 -40.0622 -40.0608 -40.0579 -40.0450
   -40.0041 -39.9722 -39.9552 -39.9490 -39.9433 -39.9382 -29.2938 -29.2576
   -29.2282 -29.2237 -29.1985 -29.1942 -29.1102 -29.0714 -29.0622 -29.0274
   -28.9275 -28.8979 -28.6342 -28.5315 -28.5001 -28.4396 -28.4288 -28.3245
    -2.6605  -2.5401  -1.5885  -1.4831  -1.4131  -1.3875  -1.2614  -1.1864
    -1.0587  -0.6684  -0.6409  -0.4819  -0.4585  -0.3294  -0.3155  -0.1482
    -0.0147  -0.0115   0.1119   0.1570   0.3041   0.4702   0.5779   0.6144
     0.6196   0.6942   0.8639   0.8964   1.0080   1.1289   1.1734   1.3521
     1.3630   1.3736   1.5812   1.6784   1.6858   1.7033   1.7603   1.9952
     2.1681   2.6646   2.6900   3.3001   3.3564   3.3595   3.5085   3.5951
     3.7016   3.8758   4.2082   4.2171   4.2401

     the Fermi energy is     2.0340 ev

!    total energy              =   -1945.98235669 Ry
     estimated scf accuracy    <       0.00000924 Ry
     smearing contrib. (-TS)   =      -0.04014079 Ry
     internal energy E=F+TS    =   -1945.94221589 Ry

     The total energy is F=E-TS. E is the sum of the following terms:
     one-electron contribution =  -14352.86115807 Ry
     hartree contribution      =    7171.21876681 Ry
     xc contribution           =    -437.23927987 Ry
     ewald contribution        =    5672.93944906 Ry
     electric field correction =       0.00000618 Ry

     convergence has been achieved in  15 iterations

     negative rho (up, down):  1.149E-03 0.000E+00

     Forces acting on atoms (cartesian axes, Ry/au):

     atom    1 type  1   force =     0.00282194    0.00202765    0.02756433
     atom    2 type  1   force =     0.00281735    0.00203131    0.02756798
     atom    3 type  2   force =     0.00913339    0.00657032   -0.01617930
     atom    4 type  2   force =     0.00913523    0.00657188   -0.01618063
     atom    5 type  1   force =    -0.00492853   -0.00353711   -0.00383275
     atom    6 type  1   force =    -0.00491392   -0.00354370   -0.00383185
     atom    7 type  2   force =    -0.00677653   -0.00488188   -0.00703864
     atom    8 type  2   force =    -0.00678833   -0.00487682   -0.00703988
     atom    9 type  1   force =    -0.00046248   -0.00032681    0.00048373
     atom   10 type  1   force =    -0.00045243   -0.00033214    0.00048790
     atom   11 type  2   force =     0.00021028    0.00014885   -0.00099920
     atom   12 type  2   force =     0.00020403    0.00014846   -0.00100169

     Total force =     0.051629     Total SCF correction =     0.025449
     SCF correction compared to forces is large: reduce conv_thr to get better values

     Writing output data file ./Ru2Hf2/Ru2Hf2_beef.save/

     General routines

     Parallel routines

   This run was terminated on:  18:36: 5  25Jun2022

   JOB DONE.