     Program PWSCF v.6.6 starts on 24Jun2022 at 17:40:36

     R & G space division:  proc/nbgrp/npool/nimage =      37
     Fft bands division:     nmany     =       1
     Reading input from Ru2Ir2.in
Warning: card &CELL ignored
Warning: card / ignored

     Current dimensions of program PWSCF are:
     Max number of different atomic species (ntypx) = 10
     Max number of k-points (npk) =  40000
     Max angular momentum in pseudopotentials (lmaxx) =  3
     Presently stress not available with electric field and gates

     Message from routine cell_base_init:
     DEPRECATED: use true lattice parameter, not A to a.u. conversion factor
     file Ir.pbe-n-rrkjus_psl.0.2.3.UPF: wavefunction(s)  5D renormalized

     IMPORTANT: XC functional enforced from input :
     Exchange-correlation= BEEF-VDW
                           (   1   4  43  14   2   0   0)
     Any further DFT definition will be discarded
     Please, verify this is what you really want

     Subspace diagonalization in iterative solution of the eigenvalue problem:
     a serial algorithm will be used

     Found symmetry operation: I + ( -0.5000  0.0000  0.0000)
     This is a supercell, fractional translations are disabled

     bravais-lattice index     =            0
     lattice parameter (alat)  =       1.8897  a.u.
     unit-cell volume          =    4230.7845 (a.u.)^3
     number of atoms/cell      =           12
     number of atomic types    =            2
     number of electrons       =       150.00
     number of Kohn-Sham states=           90
     kinetic-energy cutoff     =      55.1240  Ry
     charge density cutoff     =     551.2396  Ry
     convergence threshold     =      1.0E-05
     mixing beta               =       0.1000
     number of iterations used =           10  plain     mixing
     Exchange-correlation= BEEF-VDW
                           (   1   4  43  14   2   0   0)

     celldm(1)=   1.889726  celldm(2)=   0.000000  celldm(3)=   0.000000
     celldm(4)=   0.000000  celldm(5)=   0.000000  celldm(6)=   0.000000

     crystal axes: (cart. coord. in units of alat)
               a(1) = (   5.436231   0.000000   0.000000 )
               a(2) = (  -2.718116   4.718069   0.000000 )
               a(3) = (   0.000000   0.000000  24.443433 )

     reciprocal axes: (cart. coord. in units 2 pi/alat)
               b(1) = (  0.183951  0.105976 -0.000000 )
               b(2) = (  0.000000  0.211951  0.000000 )
               b(3) = (  0.000000 -0.000000  0.040911 )

     PseudoPot. # 1 for Ru read from file:
     ../pseudo/Ru.pbe-spn-rrkjus_psl.1.0.0.UPF
     MD5 check sum: fbaca725316a1a65f98761fd4ac95971
     Pseudo is Ultrasoft + core correction, Zval = 16.0
     Generated using "atomic" code by A. Dal Corso v.6.2.2
     Using radial grid of 1233 points,  6 beta functions with:
                l(1) =   0
                l(2) =   0
                l(3) =   1
                l(4) =   1
                l(5) =   2
                l(6) =   2
     Q(r) pseudized with 0 coefficients

     PseudoPot. # 2 for Ir read from file:
     ../pseudo/Ir.pbe-n-rrkjus_psl.0.2.3.UPF
     MD5 check sum: a93e608e8ddc29ee62145620b5f41564
     Pseudo is Ultrasoft + core correction, Zval =  9.0
     Generated using "atomic" code by A. Dal Corso v.5.0.2 svn rev. 9415
     Using radial grid of 1277 points,  6 beta functions with:
                l(1) =   0
                l(2) =   0
                l(3) =   1
                l(4) =   1
                l(5) =   2
                l(6) =   2
     Q(r) pseudized with 0 coefficients

     atomic species   valence    mass     pseudopotential
        Ru            16.00   101.07000     Ru( 1.00)
        Ir             9.00   192.21700     Ir( 1.00)

     No symmetry found

   Cartesian axes

     site n.     atom                  positions (alat units)
         1           Ru  tau(   1) = (   0.0000000   0.0000000  10.0000000  )
         2           Ru  tau(   2) = (   2.7181156   0.0000000  10.0000000  )
         3           Ir  tau(   3) = (   1.3590578   2.3590344  10.0000000  )
         4           Ir  tau(   4) = (  -1.3590578   2.3590344  10.0000000  )
         5           Ru  tau(   5) = (   2.7181156   1.5659272  12.2217165  )
         6           Ru  tau(   6) = (   0.0000000   1.5659272  12.2217165  )
         7           Ir  tau(   7) = (  -1.3590578   3.9249616  12.2217165  )
         8           Ir  tau(   8) = (   1.3590578   3.9249616  12.2217165  )
         9           Ru  tau(   9) = (  -0.0000004   3.1137769  14.3740738  )
        10           Ru  tau(  10) = (   2.7181163   3.1137726  14.3740693  )
        11           Ir  tau(  11) = (   4.0771712   0.7970495  14.3578939  )
        12           Ir  tau(  12) = (   1.3590611   0.7970500  14.3578933  )

     number of k points=    74  Fermi-Dirac smearing, width (Ry)=  0.0100
                       cart. coord. in units 2pi/alat
        k(    1) = (   0.0000000   0.0000000   0.0000000), wk =   0.0138889
        k(    2) = (   0.0000000   0.0176626   0.0000000), wk =   0.0277778
        k(    3) = (   0.0000000   0.0353252   0.0000000), wk =   0.0277778
        k(    4) = (   0.0000000   0.0529878   0.0000000), wk =   0.0277778
        k(    5) = (   0.0000000   0.0706504   0.0000000), wk =   0.0277778
        k(    6) = (   0.0000000   0.0883130   0.0000000), wk =   0.0277778
        k(    7) = (   0.0000000  -0.1059756   0.0000000), wk =   0.0138889
        k(    8) = (   0.0153292   0.0088313   0.0000000), wk =   0.0277778
        k(    9) = (   0.0153292   0.0264939   0.0000000), wk =   0.0277778
        k(   10) = (   0.0153292   0.0441565   0.0000000), wk =   0.0277778
        k(   11) = (   0.0153292   0.0618191   0.0000000), wk =   0.0277778
        k(   12) = (   0.0153292   0.0794817   0.0000000), wk =   0.0277778
        k(   13) = (   0.0153292   0.0971443   0.0000000), wk =   0.0277778
        k(   14) = (   0.0153292  -0.0971443   0.0000000), wk =   0.0277778
        k(   15) = (   0.0153292  -0.0794817   0.0000000), wk =   0.0277778
        k(   16) = (   0.0153292  -0.0618191   0.0000000), wk =   0.0277778
        k(   17) = (   0.0153292  -0.0441565   0.0000000), wk =   0.0277778
        k(   18) = (   0.0153292  -0.0264939   0.0000000), wk =   0.0277778
        k(   19) = (   0.0153292  -0.0088313   0.0000000), wk =   0.0277778
        k(   20) = (   0.0306585   0.0176626   0.0000000), wk =   0.0277778
        k(   21) = (   0.0306585   0.0353252   0.0000000), wk =   0.0277778
        k(   22) = (   0.0306585   0.0529878   0.0000000), wk =   0.0277778
        k(   23) = (   0.0306585   0.0706504   0.0000000), wk =   0.0277778
        k(   24) = (   0.0306585   0.0883130   0.0000000), wk =   0.0277778
        k(   25) = (   0.0306585   0.1059756   0.0000000), wk =   0.0277778
        k(   26) = (   0.0306585  -0.0883130   0.0000000), wk =   0.0277778
        k(   27) = (   0.0306585  -0.0706504   0.0000000), wk =   0.0277778
        k(   28) = (   0.0306585  -0.0529878   0.0000000), wk =   0.0277778
        k(   29) = (   0.0306585  -0.0353252   0.0000000), wk =   0.0277778
        k(   30) = (   0.0306585  -0.0176626   0.0000000), wk =   0.0277778
        k(   31) = (   0.0306585   0.0000000   0.0000000), wk =   0.0277778
        k(   32) = (   0.0459877   0.0264939   0.0000000), wk =   0.0277778
        k(   33) = (   0.0459877   0.0441565   0.0000000), wk =   0.0277778
        k(   34) = (   0.0459877   0.0618191   0.0000000), wk =   0.0277778
        k(   35) = (   0.0459877   0.0794817   0.0000000), wk =   0.0277778
        k(   36) = (   0.0459877   0.0971443   0.0000000), wk =   0.0277778
        k(   37) = (   0.0459877   0.1148069   0.0000000), wk =   0.0277778
        k(   38) = (   0.0459877  -0.0794817   0.0000000), wk =   0.0277778
        k(   39) = (   0.0459877  -0.0618191   0.0000000), wk =   0.0277778
        k(   40) = (   0.0459877  -0.0441565   0.0000000), wk =   0.0277778
        k(   41) = (   0.0459877  -0.0264939   0.0000000), wk =   0.0277778
        k(   42) = (   0.0459877  -0.0088313   0.0000000), wk =   0.0277778
        k(   43) = (   0.0459877   0.0088313   0.0000000), wk =   0.0277778
        k(   44) = (   0.0613170   0.0353252   0.0000000), wk =   0.0277778
        k(   45) = (   0.0613170   0.0529878   0.0000000), wk =   0.0277778
        k(   46) = (   0.0613170   0.0706504   0.0000000), wk =   0.0277778
        k(   47) = (   0.0613170   0.0883130   0.0000000), wk =   0.0277778
        k(   48) = (   0.0613170   0.1059756   0.0000000), wk =   0.0277778
        k(   49) = (   0.0613170   0.1236382   0.0000000), wk =   0.0277778
        k(   50) = (   0.0613170  -0.0706504   0.0000000), wk =   0.0277778
        k(   51) = (   0.0613170  -0.0529878   0.0000000), wk =   0.0277778
        k(   52) = (   0.0613170  -0.0353252   0.0000000), wk =   0.0277778
        k(   53) = (   0.0613170  -0.0176626   0.0000000), wk =   0.0277778
        k(   54) = (   0.0613170   0.0000000   0.0000000), wk =   0.0277778
        k(   55) = (   0.0613170   0.0176626   0.0000000), wk =   0.0277778
        k(   56) = (   0.0766462   0.0441565   0.0000000), wk =   0.0277778
        k(   57) = (   0.0766462   0.0618191   0.0000000), wk =   0.0277778
        k(   58) = (   0.0766462   0.0794817   0.0000000), wk =   0.0277778
        k(   59) = (   0.0766462   0.0971443   0.0000000), wk =   0.0277778
        k(   60) = (   0.0766462   0.1148069   0.0000000), wk =   0.0277778
        k(   61) = (   0.0766462   0.1324695   0.0000000), wk =   0.0277778
        k(   62) = (   0.0766462  -0.0618191   0.0000000), wk =   0.0277778
        k(   63) = (   0.0766462  -0.0441565   0.0000000), wk =   0.0277778
        k(   64) = (   0.0766462  -0.0264939   0.0000000), wk =   0.0277778
        k(   65) = (   0.0766462  -0.0088313   0.0000000), wk =   0.0277778
        k(   66) = (   0.0766462   0.0088313   0.0000000), wk =   0.0277778
        k(   67) = (   0.0766462   0.0264939   0.0000000), wk =   0.0277778
        k(   68) = (  -0.0919755  -0.0529878   0.0000000), wk =   0.0138889
        k(   69) = (  -0.0919755  -0.0353252   0.0000000), wk =   0.0277778
        k(   70) = (  -0.0919755  -0.0176626   0.0000000), wk =   0.0277778
        k(   71) = (  -0.0919755  -0.0000000   0.0000000), wk =   0.0277778
        k(   72) = (  -0.0919755   0.0176626   0.0000000), wk =   0.0277778
        k(   73) = (  -0.0919755   0.0353252   0.0000000), wk =   0.0277778
        k(   74) = (  -0.0919755  -0.1589633   0.0000000), wk =   0.0138889

     Initial potential from superposition of free atoms

     starting charge  149.99528, renormalised to  150.00000

     negative rho (up, down):  1.400E-03 0.000E+00

     %%%%%%%%%%%%%%%%%%%%%%%%%%%%%%%%%%%%%%%%%%%%%%%%%%%%%%%%%%%%%%%%%%%%%%%%
     %                                                                      %
     % You are using vdW-DF, which was implemented by the Thonhauser group. %
     % Please cite the following two papers that made this development      %
     % possible and the two reviews that describe the various versions:     %
     %                                                                      %
     %   T. Thonhauser et al., PRL 115, 136402 (2015).                      %
     %   T. Thonhauser et al., PRB 76, 125112 (2007).                       %
     %   K. Berland et al., Rep. Prog. Phys. 78, 066501 (2015).             %
     %   D.C. Langreth et al., J. Phys.: Condens. Matter 21, 084203 (2009). %
     %                                                                      %
     %                                                                      %
     % If you are calculating the stress with vdW-DF, please also cite:     %
     %                                                                      %
     %   R. Sabatini et al., J. Phys.: Condens. Matter 24, 424209 (2012).   %
     %                                                                      %
     %%%%%%%%%%%%%%%%%%%%%%%%%%%%%%%%%%%%%%%%%%%%%%%%%%%%%%%%%%%%%%%%%%%%%%%%

     Adding external electric field

     Computed dipole along edir(3) :
        Dipole                0.0000 Ry au,          0.0000 Debye
        Dipole field          0.0000 Ry au,

        Potential amp.       -0.0000 Ry
        Total length         45.0366 bohr

     Starting wfcs are  114 randomized atomic wfcs

     Self-consistent Calculation

     iteration #  1     ecut=    55.12 Ry     beta= 0.10
     Davidson diagonalization with overlap
     ethr =  1.00E-02,  avg # of iterations =  2.0

[...]

     total energy              =   -1566.39154383 Ry
     estimated scf accuracy    <       2.93802583 Ry

[...]

     iteration #  9     ecut=    55.12 Ry     beta= 0.10
     Davidson diagonalization with overlap
     c_bands:  1 eigenvalues not converged
     c_bands:  1 eigenvalues not converged
     ethr =  2.99E-06,  avg # of iterations =  5.0

[...]

     total energy              =   -1566.66226691 Ry
     estimated scf accuracy    <       0.00027242 Ry

     iteration # 14     ecut=    55.12 Ry     beta= 0.10
     Davidson diagonalization with overlap
     ethr =  4.23E-08,  avg # of iterations =  4.0

[...]

     Adding external electric field

     Computed dipole along edir(3) :
        Dipole                0.0118 Ry au,          0.0299 Debye
        Dipole field          0.0000 Ry au,

        Potential amp.       -0.0032 Ry
        Total length         45.0366 bohr

     End of self-consistent calculation

          k = 0.0000 0.0000 0.0000 ( 29117 PWs)   bands (ev):

   -71.7429 -71.6943 -71.2670 -71.2185 -71.1929 -71.1444 -41.8874 -41.7826
   -41.7307 -41.6954 -41.6460 -41.4295 -41.4123 -41.3617 -41.2324 -41.1835
   -41.1827 -41.1538 -41.1345 -41.1050 -41.0846 -41.0383 -40.9582 -40.8915
    -6.8635  -5.1306  -5.0267  -4.8317  -4.8060  -4.6646  -4.4805  -4.3655
    -4.3156  -4.0949  -4.0475  -4.0310  -3.6274  -3.5750  -3.5033  -2.4939
    -2.3250  -2.1392  -1.7772  -1.6824  -1.6758  -1.4137  -1.3856  -1.2843
    -1.2274  -1.1284  -1.0324  -0.9356  -0.8939  -0.7635  -0.5803  -0.5646
    -0.5292  -0.1162   0.0680   0.7889   0.8318   0.8884   1.0218   1.0242
     1.0281   1.0535   1.0671   1.1529   1.7138   1.7632   2.2031   2.3715
     2.4125   2.4278   2.4670   2.4849   2.5460   2.6604   2.6663   2.8529
     2.9008   2.9577   3.2495   3.3585   3.3949   3.4308   3.4311   3.4756
     3.4974   3.5261

[...]

          k = 0.0766 0.0265 0.0000 ( 29275 PWs)   bands (ev):

[...]

          k =-0.0920-0.0530 0.0000 ( 29286 PWs)   bands (ev):

[...]

          k =-0.0920-0.1590 0.0000 ( 29286 PWs)   bands (ev):

   -71.7186 -71.7184 -71.2434 -71.2419 -71.1691 -71.1681 -41.7576 -41.7574
   -41.6736 -41.6734 -41.6539 -41.6537 -41.2111 -41.2098 -41.1982 -41.1969
   -41.1596 -41.1587 -41.1328 -41.1323 -41.1293 -41.1287 -41.0624 -41.0617
    -5.1080  -5.1079  -3.9316  -3.9314  -3.7160  -3.7159  -3.5829  -3.5828
    -3.3881  -3.3880  -3.1440  -3.1439  -2.7515  -2.7515  -2.6764  -2.6763
    -2.3432  -2.3431  -2.1622  -2.1622  -1.8559  -1.8559  -1.3886  -1.3885
    -1.1971  -1.1970  -1.0341  -1.0340  -0.9449  -0.9448  -0.8719  -0.8719
    -0.5698  -0.5696  -0.4508  -0.4506  -0.3112  -0.3109  -0.2004  -0.2003
     0.2013   0.2014   0.4765   0.4765   0.6757   0.6758   0.8865   0.8865
     1.1247   1.1252   1.2744   1.2745   1.6048   1.6050   1.7041   1.7042
     1.7588   1.7592   2.4288   2.4289   2.7537   2.7539   3.0367   3.0367
     4.2068   4.2068

     the Fermi energy is     1.7042 ev

!    total energy              =   -1566.66230206 Ry
     estimated scf accuracy    <       0.00000901 Ry
     smearing contrib. (-TS)   =      -0.06834596 Ry
     internal energy E=F+TS    =   -1566.59395611 Ry

     The total energy is F=E-TS. E is the sum of the following terms:
     one-electron contribution =  -13238.21251843 Ry
     hartree contribution      =    6651.59238641 Ry
     xc contribution           =    -374.98388713 Ry
     ewald contribution        =    5395.01006263 Ry
     electric field correction =       0.00000041 Ry

     convergence has been achieved in  14 iterations

     negative rho (up, down):  1.269E-03 0.000E+00

     Forces acting on atoms (cartesian axes, Ry/au):

     atom    1 type  1   force =    -0.00000078    0.00718986    0.01621162
     atom    2 type  1   force =    -0.00000015    0.00720628    0.01626894
     atom    3 type  2   force =    -0.00001185   -0.00931449    0.02137738
     atom    4 type  2   force =     0.00001104   -0.00931332    0.02137616
     atom    5 type  1   force =     0.00000152    0.00116728   -0.02233390
     atom    6 type  1   force =    -0.00000038    0.00097111   -0.02251819
     atom    7 type  2   force =     0.00010111   -0.00051491   -0.02054822
     atom    8 type  2   force =    -0.00010359   -0.00051028   -0.02054564
     atom    9 type  1   force =     0.00000469    0.00022706    0.00057666
     atom   10 type  1   force =    -0.00000508    0.00023401    0.00063771
     atom   11 type  2   force =     0.00000923    0.00132854    0.00474856
     atom   12 type  2   force =    -0.00000576    0.00132887    0.00474892

     Total force =     0.060176     Total SCF correction =     0.017386
     SCF correction compared to forces is large: reduce conv_thr to get better values

     Writing output data file ./Ru2Ir2/Ru2Ir2_beef.save/

     General routines

     Parallel routines

   This run was terminated on:  18:29:43  24Jun2022

   JOB DONE.