     Program PWSCF v.6.6 starts on 10Jul2022 at 23: 1: 5

     R & G space division:  proc/nbgrp/npool/nimage =      37
     Fft bands division:     nmany     =       1
     Reading input from Ru2Os2.in
Warning: card &CELL ignored
Warning: card / ignored

     Current dimensions of program PWSCF are:
     Max number of different atomic species (ntypx) = 10
     Max number of k-points (npk) =  40000
     Max angular momentum in pseudopotentials (lmaxx) =  3
     Presently stress not available with electric field and gates

     Message from routine cell_base_init:
     DEPRECATED: use true lattice parameter, not A to a.u. conversion factor

     IMPORTANT: XC functional enforced from input :
     Exchange-correlation= BEEF-VDW
                           (   1   4  43  14   2   0   0)
     Any further DFT definition will be discarded
     Please, verify this is what you really want

     Subspace diagonalization in iterative solution of the eigenvalue problem:
     a serial algorithm will be used

     Found symmetry operation: I + ( -0.5000  0.0000  0.0000)
     This is a supercell, fractional translations are disabled

     bravais-lattice index     =            0
     lattice parameter (alat)  =       1.8897  a.u.
     unit-cell volume          =    4209.7258 (a.u.)^3
     number of atoms/cell      =           12
     number of atomic types    =            2
     number of electrons       =       192.00
     number of Kohn-Sham states=          115
     kinetic-energy cutoff     =      55.1240  Ry
     charge density cutoff     =     551.2396  Ry
     convergence threshold     =      1.0E-05
     mixing beta               =       0.1000
     number of iterations used =           10  plain     mixing
     Exchange-correlation= BEEF-VDW
                           (   1   4  43  14   2   0   0)

     celldm(1)=   1.889726  celldm(2)=   0.000000  celldm(3)=   0.000000
     celldm(4)=   0.000000  celldm(5)=   0.000000  celldm(6)=   0.000000

     crystal axes: (cart. coord. in units of alat)
               a(1) = (   5.425733   0.000000   0.000000 )
               a(2) = (  -2.712867   4.705621   0.000000 )
               a(3) = (   0.000000   0.000000  24.433289 )

     reciprocal axes: (cart. coord. in units 2 pi/alat)
               b(1) = (  0.184307  0.106256 -0.000000 )
               b(2) = (  0.000000  0.212512  0.000000 )
               b(3) = (  0.000000 -0.000000  0.040928 )

     PseudoPot. # 1 for Ru read from file:
     ../pseudo/Ru.pbe-spn-rrkjus_psl.1.0.0.UPF
     MD5 check sum: fbaca725316a1a65f98761fd4ac95971
     Pseudo is Ultrasoft + core correction, Zval = 16.0
     Generated using "atomic" code by A. Dal Corso v.6.2.2
     Using radial grid of 1233 points,  6 beta functions with:
                l(1) =   0
                l(2) =   0
                l(3) =   1
                l(4) =   1
                l(5) =   2
                l(6) =   2
     Q(r) pseudized with 0 coefficients

     PseudoPot. # 2 for Os read from file:
     ../pseudo/Os.pbe-spn-rrkjus_psl.1.0.0.UPF
     MD5 check sum: 3e7416ed594f6513d36e5cb31ba709d9
     Pseudo is Ultrasoft + core correction, Zval = 16.0
     Generated using "atomic" code by A. Dal Corso v.6.2.2
     Using radial grid of 1275 points,  6 beta functions with:
                l(1) =   0
                l(2) =   0
                l(3) =   1
                l(4) =   1
                l(5) =   2
                l(6) =   2
     Q(r) pseudized with 0 coefficients

     atomic species   valence    mass     pseudopotential
        Ru            16.00   101.07000     Ru( 1.00)
        Os            16.00   190.23000     Os( 1.00)

     No symmetry found

   Cartesian axes

     site n.     atom                  positions (alat units)
         1           Ru  tau(   1) = (   0.0000000   0.0000000  10.0000000  )
         2           Ru  tau(   2) = (   2.7128667   0.0000000  10.0000000  )
         3           Os  tau(   3) = (   1.3564333   2.3528104  10.0000000  )
         4           Os  tau(   4) = (  -1.3564333   2.3528104  10.0000000  )
         5           Ru  tau(   5) = (   2.7128667   1.5640116  12.2166446  )
         6           Ru  tau(   6) = (  -0.0000000   1.5640116  12.2166446  )
         7           Os  tau(   7) = (  -1.3564333   3.9168221  12.2166446  )
         8           Os  tau(   8) = (   1.3564333   3.9168221  12.2166446  )
         9           Ru  tau(   9) = (  -0.0000005   3.1466236  14.3399804  )
        10           Ru  tau(  10) = (   2.7128660   3.1466250  14.3399803  )
        11           Os  tau(  11) = (   4.0692975   0.7587100  14.3300035  )
        12           Os  tau(  12) = (   1.3564276   0.7587075  14.3300050  )

     number of k points=    74  Fermi-Dirac smearing, width (Ry)=  0.0100
                       cart. coord. in units 2pi/alat
        k(    1) = (   0.0000000   0.0000000   0.0000000), wk =   0.0138889
        k(    2) = (   0.0000000   0.0177093   0.0000000), wk =   0.0277778
        k(    3) = (   0.0000000   0.0354186   0.0000000), wk =   0.0277778
        k(    4) = (   0.0000000   0.0531280   0.0000000), wk =   0.0277778
        k(    5) = (   0.0000000   0.0708373   0.0000000), wk =   0.0277778
        k(    6) = (   0.0000000   0.0885466   0.0000000), wk =   0.0277778
        k(    7) = (   0.0000000  -0.1062559   0.0000000), wk =   0.0138889
        k(    8) = (   0.0153589   0.0088547   0.0000000), wk =   0.0277778
        k(    9) = (   0.0153589   0.0265640   0.0000000), wk =   0.0277778
        k(   10) = (   0.0153589   0.0442733   0.0000000), wk =   0.0277778
        k(   11) = (   0.0153589   0.0619826   0.0000000), wk =   0.0277778
        k(   12) = (   0.0153589   0.0796919   0.0000000), wk =   0.0277778
        k(   13) = (   0.0153589   0.0974012   0.0000000), wk =   0.0277778
        k(   14) = (   0.0153589  -0.0974012   0.0000000), wk =   0.0277778
        k(   15) = (   0.0153589  -0.0796919   0.0000000), wk =   0.0277778
        k(   16) = (   0.0153589  -0.0619826   0.0000000), wk =   0.0277778
        k(   17) = (   0.0153589  -0.0442733   0.0000000), wk =   0.0277778
        k(   18) = (   0.0153589  -0.0265640   0.0000000), wk =   0.0277778
        k(   19) = (   0.0153589  -0.0088547   0.0000000), wk =   0.0277778
        k(   20) = (   0.0307178   0.0177093   0.0000000), wk =   0.0277778
        k(   21) = (   0.0307178   0.0354186   0.0000000), wk =   0.0277778
        k(   22) = (   0.0307178   0.0531280   0.0000000), wk =   0.0277778
        k(   23) = (   0.0307178   0.0708373   0.0000000), wk =   0.0277778
        k(   24) = (   0.0307178   0.0885466   0.0000000), wk =   0.0277778
        k(   25) = (   0.0307178   0.1062559   0.0000000), wk =   0.0277778
        k(   26) = (   0.0307178  -0.0885466   0.0000000), wk =   0.0277778
        k(   27) = (   0.0307178  -0.0708373   0.0000000), wk =   0.0277778
        k(   28) = (   0.0307178  -0.0531279   0.0000000), wk =   0.0277778
        k(   29) = (   0.0307178  -0.0354186   0.0000000), wk =   0.0277778
        k(   30) = (   0.0307178  -0.0177093   0.0000000), wk =   0.0277778
        k(   31) = (   0.0307178   0.0000000   0.0000000), wk =   0.0277778
        k(   32) = (   0.0460767   0.0265640   0.0000000), wk =   0.0277778
        k(   33) = (   0.0460767   0.0442733   0.0000000), wk =   0.0277778
        k(   34) = (   0.0460767   0.0619826   0.0000000), wk =   0.0277778
        k(   35) = (   0.0460767   0.0796919   0.0000000), wk =   0.0277778
        k(   36) = (   0.0460767   0.0974012   0.0000000), wk =   0.0277778
        k(   37) = (   0.0460767   0.1151106   0.0000000), wk =   0.0277778
        k(   38) = (   0.0460767  -0.0796919   0.0000000), wk =   0.0277778
        k(   39) = (   0.0460767  -0.0619826   0.0000000), wk =   0.0277778
        k(   40) = (   0.0460767  -0.0442733   0.0000000), wk =   0.0277778
        k(   41) = (   0.0460767  -0.0265640   0.0000000), wk =   0.0277778
        k(   42) = (   0.0460767  -0.0088547   0.0000000), wk =   0.0277778
        k(   43) = (   0.0460767   0.0088547   0.0000000), wk =   0.0277778
        k(   44) = (   0.0614356   0.0354186   0.0000000), wk =   0.0277778
        k(   45) = (   0.0614356   0.0531280   0.0000000), wk =   0.0277778
        k(   46) = (   0.0614356   0.0708373   0.0000000), wk =   0.0277778
        k(   47) = (   0.0614356   0.0885466   0.0000000), wk =   0.0277778
        k(   48) = (   0.0614356   0.1062559   0.0000000), wk =   0.0277778
        k(   49) = (   0.0614356   0.1239652   0.0000000), wk =   0.0277778
        k(   50) = (   0.0614356  -0.0708373   0.0000000), wk =   0.0277778
        k(   51) = (   0.0614356  -0.0531279   0.0000000), wk =   0.0277778
        k(   52) = (   0.0614356  -0.0354186   0.0000000), wk =   0.0277778
        k(   53) = (   0.0614356  -0.0177093   0.0000000), wk =   0.0277778
        k(   54) = (   0.0614356   0.0000000   0.0000000), wk =   0.0277778
        k(   55) = (   0.0614356   0.0177093   0.0000000), wk =   0.0277778
        k(   56) = (   0.0767945   0.0442733   0.0000000), wk =   0.0277778
        k(   57) = (   0.0767945   0.0619826   0.0000000), wk =   0.0277778
        k(   58) = (   0.0767945   0.0796919   0.0000000), wk =   0.0277778
        k(   59) = (   0.0767945   0.0974013   0.0000000), wk =   0.0277778
        k(   60) = (   0.0767945   0.1151106   0.0000000), wk =   0.0277778
        k(   61) = (   0.0767945   0.1328199   0.0000000), wk =   0.0277778
        k(   62) = (   0.0767945  -0.0619826   0.0000000), wk =   0.0277778
        k(   63) = (   0.0767945  -0.0442733   0.0000000), wk =   0.0277778
        k(   64) = (   0.0767945  -0.0265640   0.0000000), wk =   0.0277778
        k(   65) = (   0.0767945  -0.0088547   0.0000000), wk =   0.0277778
        k(   66) = (   0.0767945   0.0088547   0.0000000), wk =   0.0277778
        k(   67) = (   0.0767945   0.0265640   0.0000000), wk =   0.0277778
        k(   68) = (  -0.0921534  -0.0531280   0.0000000), wk =   0.0138889
        k(   69) = (  -0.0921534  -0.0354186   0.0000000), wk =   0.0277778
        k(   70) = (  -0.0921534  -0.0177093   0.0000000), wk =   0.0277778
        k(   71) = (  -0.0921534  -0.0000000   0.0000000), wk =   0.0277778
        k(   72) = (  -0.0921534   0.0177093   0.0000000), wk =   0.0277778
        k(   73) = (  -0.0921534   0.0354186   0.0000000), wk =   0.0277778
        k(   74) = (  -0.0921534  -0.1593839   0.0000000), wk =   0.0138889

     Initial potential from superposition of free atoms

     starting charge  191.99471, renormalised to  192.00000

     negative rho (up, down):  1.398E-03 0.000E+00

     %%%%%%%%%%%%%%%%%%%%%%%%%%%%%%%%%%%%%%%%%%%%%%%%%%%%%%%%%%%%%%%%%%%%%%%%
     %                                                                      %
     % You are using vdW-DF, which was implemented by the Thonhauser group. %
     % Please cite the following two papers that made this development      %
     % possible and the two reviews that describe the various versions:     %
     %                                                                      %
     %   T. Thonhauser et al., PRL 115, 136402 (2015).                      %
     %   T. Thonhauser et al., PRB 76, 125112 (2007).                       %
     %   K. Berland et al., Rep. Prog. Phys. 78, 066501 (2015).             %
     %   D.C. Langreth et al., J. Phys.: Condens. Matter 21, 084203 (2009). %
     %                                                                      %
     %                                                                      %
     % If you are calculating the stress with vdW-DF, please also cite:     %
     %                                                                      %
     %   R. Sabatini et al., J. Phys.: Condens. Matter 24, 424209 (2012).   %
     %                                                                      %
     %%%%%%%%%%%%%%%%%%%%%%%%%%%%%%%%%%%%%%%%%%%%%%%%%%%%%%%%%%%%%%%%%%%%%%%%

     Adding external electric field

     Computed dipole along edir(3) :
        Dipole                0.0000 Ry au,          0.0000 Debye
        Dipole field          0.0000 Ry au,

        Potential amp.       -0.0000 Ry
        Total length         45.0179 bohr

     Starting wfcs are  120 randomized atomic wfcs

     Self-consistent Calculation

     iteration #  1     ecut=    55.12 Ry     beta= 0.10
     Davidson diagonalization with overlap
     ethr =  1.00E-02,  avg # of iterations =  3.1

[...]

     total energy              =   -2391.59191007 Ry
     estimated scf accuracy    <       4.46531056 Ry

[...]

     total energy              =   -2391.93884870 Ry
     estimated scf accuracy    <       0.00001737 Ry

     iteration # 14     ecut=    55.12 Ry     beta= 0.10
     Davidson diagonalization with overlap
     ethr =  9.05E-09,  avg # of iterations =  2.0

[...]

     Adding external electric field

     Computed dipole along edir(3) :
        Dipole                0.0272 Ry au,          0.0691 Debye
        Dipole field          0.0001 Ry au,

        Potential amp.       -0.0073 Ry
        Total length         45.0179 bohr

     End of self-consistent calculation

          k = 0.0000 0.0000 0.0000 ( 28965 PWs)   bands (ev):

   -84.3814 -84.3503 -83.8930 -83.8619 -83.8067 -83.7757 -70.7281 -70.6780
   -70.2378 -70.1879 -70.1624 -70.1127 -43.9246 -43.7964 -43.7245 -43.6800
   -43.6054 -43.4460 -43.3696 -43.3557 -43.1982 -43.1528 -43.1173 -43.0936
   -43.0912 -43.0358 -43.0211 -42.9771 -42.8959 -42.8113 -40.8497 -40.7061
   -40.6749 -40.6548 -40.6361 -40.3973 -40.3749 -40.2922 -40.1869 -40.1584
   -40.1407 -40.1033 -40.1020 -40.0771 -40.0497 -40.0106 -39.9161 -39.8337
    -5.8541  -4.0642  -3.9630  -3.8071  -3.7583  -3.6156  -3.4342  -3.2232
    -3.2208  -2.9640  -2.9597  -2.9077  -2.4892  -2.4669  -2.3635  -1.2603
    -1.1406  -1.0217  -0.3596  -0.3385  -0.3273  -0.1336  -0.1270  -0.0984
     0.0964   0.2506   0.2944   0.2945   0.3238   0.3344   0.7579   0.7796
     0.9123   1.0399   1.1021   2.0249   2.2089   2.2331   2.2713   2.3496
     2.3818   2.4758   2.4777   2.4778   3.1593   3.2385   3.4087   3.6676
     3.8149   3.8269   3.9079   4.0980   4.2428   4.2675   4.2745   4.2990
     4.3583   4.5394   4.5633   4.6985   4.7497   4.7822   4.8732   5.0620
     5.1770   5.2938   5.4374

[...]

          k = 0.0768 0.0266 0.0000 ( 29125 PWs)   bands (ev):

[...]

          k =-0.0922-0.0531 0.0000 ( 29104 PWs)   bands (ev):

[...]

          k =-0.0922-0.1594 0.0000 ( 29104 PWs)   bands (ev):

   -84.3659 -84.3659 -83.8775 -83.8775 -83.7912 -83.7912 -70.7033 -70.7032
   -70.2130 -70.2129 -70.1379 -70.1375 -43.7525 -43.7525 -43.6505 -43.6505
   -43.6288 -43.6287 -43.1757 -43.1757 -43.1456 -43.1456 -43.1199 -43.1199
   -43.0847 -43.0847 -43.0473 -43.0473 -43.0035 -43.0035 -40.6992 -40.6991
   -40.6626 -40.6625 -40.6315 -40.6314 -40.1858 -40.1857 -40.1544 -40.1543
   -40.1278 -40.1276 -40.1024 -40.1020 -40.0707 -40.0702 -40.0334 -40.0330
    -4.0463  -4.0463  -2.8366  -2.8365  -2.6148  -2.6148  -2.4661  -2.4660
    -2.2435  -2.2435  -1.9766  -1.9766  -1.5912  -1.5911  -1.4833  -1.4833
    -1.0870  -1.0870  -1.0069  -1.0069  -0.5938  -0.5937  -0.0935  -0.0934
     0.1590   0.1591   0.2905   0.2906   0.4193   0.4193   0.4955   0.4956
     0.6993   0.6994   0.7294   0.7294   0.7905   0.7906   0.9113   0.9113
     1.5343   1.5344   1.8145   1.8146   1.9972   1.9972   2.2648   2.2649
     2.5234   2.5235   2.6812   2.6813   2.9066   2.9067   3.1442   3.1442
     3.2385   3.2385   3.9018   3.9019   4.3776   4.3776   4.6821   4.6821
     5.5324   5.5325   6.8230

     the Fermi energy is     2.6271 ev

!    total energy              =   -2391.93884520 Ry
     estimated scf accuracy    <       0.00000684 Ry
     smearing contrib. (-TS)   =      -0.05856271 Ry
     internal energy E=F+TS    =   -2391.88028249 Ry

     The total energy is F=E-TS. E is the sum of the following terms:
     one-electron contribution =  -21936.70332932 Ry
     hartree contribution      =   10959.65977765 Ry
     xc contribution           =    -415.90220112 Ry
     ewald contribution        =    9001.06546810 Ry
     electric field correction =       0.00000220 Ry

     convergence has been achieved in  14 iterations

     negative rho (up, down):  1.192E-03 0.000E+00

     Forces acting on atoms (cartesian axes, Ry/au):

     atom    1 type  1   force =    -0.00000006   -0.00711684    0.01879095
     atom    2 type  1   force =     0.00000096   -0.00712358    0.01882296
     atom    3 type  2   force =    -0.00000586    0.00724087    0.02816583
     atom    4 type  2   force =     0.00000626    0.00723961    0.02816700
     atom    5 type  1   force =     0.00000002    0.00113556   -0.02457840
     atom    6 type  1   force =    -0.00000109    0.00111406   -0.02460891
     atom    7 type  2   force =    -0.00002486   -0.00136406   -0.02720822
     atom    8 type  2   force =     0.00002439   -0.00136298   -0.02720867
     atom    9 type  1   force =    -0.00000165    0.00015268    0.00386150
     atom   10 type  1   force =     0.00000048    0.00016031    0.00386370
     atom   11 type  2   force =     0.00000632   -0.00003715    0.00096624
     atom   12 type  2   force =    -0.00000490   -0.00003848    0.00096602

     Total force =     0.072309     Total SCF correction =     0.014042
     SCF correction compared to forces is large: reduce conv_thr to get better values

     Writing output data file ./Ru2Os2/Ru2Os2_beef.save/

     General routines

     Parallel routines

   This run was terminated on:   0: 0:31  11Jul2022

   JOB DONE.