     Program PWSCF v.6.6 starts on 11Jul2022 at  0: 0:35

     R & G space division:  proc/nbgrp/npool/nimage =      37
     Fft bands division:     nmany     =       1
     Reading input from Ru2Rh2.in
Warning: card &CELL ignored
Warning: card / ignored

     Current dimensions of program PWSCF are:
     Max number of different atomic species (ntypx) = 10
     Max number of k-points (npk) =  40000
     Max angular momentum in pseudopotentials (lmaxx) =  3
     Presently stress not available with electric field and gates

     Message from routine cell_base_init:
     DEPRECATED: use true lattice parameter, not A to a.u. conversion factor
     file Rh.pbe-spn-rrkjus_psl.1.0.0.UPF: wavefunction(s)  4S 5S renormalized

     IMPORTANT: XC functional enforced from input :
     Exchange-correlation= BEEF-VDW
                           (   1   4  43  14   2   0   0)
     Any further DFT definition will be discarded
     Please, verify this is what you really want

     Subspace diagonalization in iterative solution of the eigenvalue problem:
     a serial algorithm will be used

     Found symmetry operation: I + ( -0.5000  0.0000  0.0000)
     This is a supercell, fractional translations are disabled

     bravais-lattice index     =            0
     lattice parameter (alat)  =       1.8897  a.u.
     unit-cell volume          =    4200.0015 (a.u.)^3
     number of atoms/cell      =           12
     number of atomic types    =            2
     number of electrons       =       198.00
     number of Kohn-Sham states=          119
     kinetic-energy cutoff     =      55.1240  Ry
     charge density cutoff     =     551.2396  Ry
     convergence threshold     =      1.0E-05
     mixing beta               =       0.1000
     number of iterations used =           10  plain     mixing
     Exchange-correlation= BEEF-VDW
                           (   1   4  43  14   2   0   0)

     celldm(1)=   1.889726  celldm(2)=   0.000000  celldm(3)=   0.000000
     celldm(4)=   0.000000  celldm(5)=   0.000000  celldm(6)=   0.000000

     crystal axes: (cart. coord. in units of alat)
               a(1) = (   5.398175   0.000000   0.000000 )
               a(2) = (  -2.699088   4.719677   0.000000 )
               a(3) = (   0.000000   0.000000  24.428325 )

     reciprocal axes: (cart. coord. in units 2 pi/alat)
               b(1) = (  0.185248  0.105939 -0.000000 )
               b(2) = (  0.000000  0.211879  0.000000 )
               b(3) = (  0.000000 -0.000000  0.040936 )

     PseudoPot. # 1 for Ru read from file:
     ../pseudo/Ru.pbe-spn-rrkjus_psl.1.0.0.UPF
     MD5 check sum: fbaca725316a1a65f98761fd4ac95971
     Pseudo is Ultrasoft + core correction, Zval = 16.0
     Generated using "atomic" code by A. Dal Corso v.6.2.2
     Using radial grid of 1233 points,  6 beta functions with:
                l(1) =   0
                l(2) =   0
                l(3) =   1
                l(4) =   1
                l(5) =   2
                l(6) =   2
     Q(r) pseudized with 0 coefficients

     PseudoPot. # 2 for Rh read from file:
     ../pseudo/Rh.pbe-spn-rrkjus_psl.1.0.0.UPF
     MD5 check sum: 912a852783f0c9b7bd5e9eb06cc0cc10
     Pseudo is Ultrasoft + core correction, Zval = 17.0
     Generated using "atomic" code by A. Dal Corso v.6.3
     Using radial grid of 1233 points,  6 beta functions with:
                l(1) =   0
                l(2) =   0
                l(3) =   1
                l(4) =   1
                l(5) =   2
                l(6) =   2
     Q(r) pseudized with 0 coefficients

     atomic species   valence    mass     pseudopotential
        Ru            16.00   101.07000     Ru( 1.00)
        Rh            17.00   102.90550     Rh( 1.00)

     No symmetry found

   Cartesian axes

     site n.     atom                  positions (alat units)
         1           Ru  tau(   1) = (   0.0000000   0.0000000  10.0000000  )
         2           Ru  tau(   2) = (   2.6990876   0.0000000  10.0000000  )
         3           Rh  tau(   3) = (   1.3495438   2.3598384  10.0000000  )
         4           Rh  tau(   4) = (  -1.3495438   2.3598384  10.0000000  )
         5           Ru  tau(   5) = (   2.6990876   1.5435535  12.2141626  )
         6           Ru  tau(   6) = (   0.0000000   1.5435535  12.2141626  )
         7           Rh  tau(   7) = (  -1.3495438   3.9033919  12.2141626  )
         8           Rh  tau(   8) = (   1.3495438   3.9033919  12.2141626  )
         9           Ru  tau(   9) = (   0.0000006   3.0630830  14.3440244  )
        10           Ru  tau(  10) = (   2.6990873   3.0630970  14.3440869  )
        11           Rh  tau(  11) = (   4.0486304   0.7650535  14.3565318  )
        12           Rh  tau(  12) = (   1.3495453   0.7650535  14.3565308  )

     number of k points=    74  Fermi-Dirac smearing, width (Ry)=  0.0100
                       cart. coord. in units 2pi/alat
        k(    1) = (   0.0000000   0.0000000   0.0000000), wk =   0.0138889
        k(    2) = (   0.0000000   0.0176566   0.0000000), wk =   0.0277778
        k(    3) = (   0.0000000   0.0353132   0.0000000), wk =   0.0277778
        k(    4) = (   0.0000000   0.0529697   0.0000000), wk =   0.0277778
        k(    5) = (   0.0000000   0.0706263   0.0000000), wk =   0.0277778
        k(    6) = (   0.0000000   0.0882829   0.0000000), wk =   0.0277778
        k(    7) = (   0.0000000  -0.1059395   0.0000000), wk =   0.0138889
        k(    8) = (   0.0154373   0.0088283   0.0000000), wk =   0.0277778
        k(    9) = (   0.0154373   0.0264849   0.0000000), wk =   0.0277778
        k(   10) = (   0.0154373   0.0441414   0.0000000), wk =   0.0277778
        k(   11) = (   0.0154373   0.0617980   0.0000000), wk =   0.0277778
        k(   12) = (   0.0154373   0.0794546   0.0000000), wk =   0.0277778
        k(   13) = (   0.0154373   0.0971112   0.0000000), wk =   0.0277778
        k(   14) = (   0.0154373  -0.0971112   0.0000000), wk =   0.0277778
        k(   15) = (   0.0154373  -0.0794546   0.0000000), wk =   0.0277778
        k(   16) = (   0.0154373  -0.0617980   0.0000000), wk =   0.0277778
        k(   17) = (   0.0154373  -0.0441414   0.0000000), wk =   0.0277778
        k(   18) = (   0.0154373  -0.0264849   0.0000000), wk =   0.0277778
        k(   19) = (   0.0154373  -0.0088283   0.0000000), wk =   0.0277778
        k(   20) = (   0.0308746   0.0176566   0.0000000), wk =   0.0277778
        k(   21) = (   0.0308746   0.0353132   0.0000000), wk =   0.0277778
        k(   22) = (   0.0308746   0.0529697   0.0000000), wk =   0.0277778
        k(   23) = (   0.0308746   0.0706263   0.0000000), wk =   0.0277778
        k(   24) = (   0.0308746   0.0882829   0.0000000), wk =   0.0277778
        k(   25) = (   0.0308746   0.1059395   0.0000000), wk =   0.0277778
        k(   26) = (   0.0308746  -0.0882829   0.0000000), wk =   0.0277778
        k(   27) = (   0.0308746  -0.0706263   0.0000000), wk =   0.0277778
        k(   28) = (   0.0308746  -0.0529697   0.0000000), wk =   0.0277778
        k(   29) = (   0.0308746  -0.0353131   0.0000000), wk =   0.0277778
        k(   30) = (   0.0308746  -0.0176566   0.0000000), wk =   0.0277778
        k(   31) = (   0.0308746   0.0000000   0.0000000), wk =   0.0277778
        k(   32) = (   0.0463119   0.0264849   0.0000000), wk =   0.0277778
        k(   33) = (   0.0463119   0.0441414   0.0000000), wk =   0.0277778
        k(   34) = (   0.0463119   0.0617980   0.0000000), wk =   0.0277778
        k(   35) = (   0.0463119   0.0794546   0.0000000), wk =   0.0277778
        k(   36) = (   0.0463119   0.0971112   0.0000000), wk =   0.0277778
        k(   37) = (   0.0463119   0.1147677   0.0000000), wk =   0.0277778
        k(   38) = (   0.0463119  -0.0794546   0.0000000), wk =   0.0277778
        k(   39) = (   0.0463119  -0.0617980   0.0000000), wk =   0.0277778
        k(   40) = (   0.0463119  -0.0441414   0.0000000), wk =   0.0277778
        k(   41) = (   0.0463119  -0.0264849   0.0000000), wk =   0.0277778
        k(   42) = (   0.0463119  -0.0088283   0.0000000), wk =   0.0277778
        k(   43) = (   0.0463119   0.0088283   0.0000000), wk =   0.0277778
        k(   44) = (   0.0617493   0.0353132   0.0000000), wk =   0.0277778
        k(   45) = (   0.0617493   0.0529697   0.0000000), wk =   0.0277778
        k(   46) = (   0.0617493   0.0706263   0.0000000), wk =   0.0277778
        k(   47) = (   0.0617493   0.0882829   0.0000000), wk =   0.0277778
        k(   48) = (   0.0617493   0.1059395   0.0000000), wk =   0.0277778
        k(   49) = (   0.0617493   0.1235960   0.0000000), wk =   0.0277778
        k(   50) = (   0.0617493  -0.0706263   0.0000000), wk =   0.0277778
        k(   51) = (   0.0617493  -0.0529697   0.0000000), wk =   0.0277778
        k(   52) = (   0.0617493  -0.0353131   0.0000000), wk =   0.0277778
        k(   53) = (   0.0617493  -0.0176566   0.0000000), wk =   0.0277778
        k(   54) = (   0.0617493   0.0000000   0.0000000), wk =   0.0277778
        k(   55) = (   0.0617493   0.0176566   0.0000000), wk =   0.0277778
        k(   56) = (   0.0771866   0.0441414   0.0000000), wk =   0.0277778
        k(   57) = (   0.0771866   0.0617980   0.0000000), wk =   0.0277778
        k(   58) = (   0.0771866   0.0794546   0.0000000), wk =   0.0277778
        k(   59) = (   0.0771866   0.0971112   0.0000000), wk =   0.0277778
        k(   60) = (   0.0771866   0.1147677   0.0000000), wk =   0.0277778
        k(   61) = (   0.0771866   0.1324243   0.0000000), wk =   0.0277778
        k(   62) = (   0.0771866  -0.0617980   0.0000000), wk =   0.0277778
        k(   63) = (   0.0771866  -0.0441414   0.0000000), wk =   0.0277778
        k(   64) = (   0.0771866  -0.0264849   0.0000000), wk =   0.0277778
        k(   65) = (   0.0771866  -0.0088283   0.0000000), wk =   0.0277778
        k(   66) = (   0.0771866   0.0088283   0.0000000), wk =   0.0277778
        k(   67) = (   0.0771866   0.0264849   0.0000000), wk =   0.0277778
        k(   68) = (  -0.0926239  -0.0529697   0.0000000), wk =   0.0138889
        k(   69) = (  -0.0926239  -0.0353132   0.0000000), wk =   0.0277778
        k(   70) = (  -0.0926239  -0.0176566   0.0000000), wk =   0.0277778
        k(   71) = (  -0.0926239  -0.0000000   0.0000000), wk =   0.0277778
        k(   72) = (  -0.0926239   0.0176566   0.0000000), wk =   0.0277778
        k(   73) = (  -0.0926239   0.0353131   0.0000000), wk =   0.0277778
        k(   74) = (  -0.0926239  -0.1589092   0.0000000), wk =   0.0138889

     Initial potential from superposition of free atoms

     starting charge  197.99323, renormalised to  198.00000

     negative rho (up, down):  1.721E-03 0.000E+00

     %%%%%%%%%%%%%%%%%%%%%%%%%%%%%%%%%%%%%%%%%%%%%%%%%%%%%%%%%%%%%%%%%%%%%%%%
     %                                                                      %
     % You are using vdW-DF, which was implemented by the Thonhauser group. %
     % Please cite the following two papers that made this development      %
     % possible and the two reviews that describe the various versions:     %
     %                                                                      %
     %   T. Thonhauser et al., PRL 115, 136402 (2015).                      %
     %   T. Thonhauser et al., PRB 76, 125112 (2007).                       %
     %   K. Berland et al., Rep. Prog. Phys. 78, 066501 (2015).             %
     %   D.C. Langreth et al., J. Phys.: Condens. Matter 21, 084203 (2009). %
     %                                                                      %
     %                                                                      %
     % If you are calculating the stress with vdW-DF, please also cite:     %
     %                                                                      %
     %   R. Sabatini et al., J. Phys.: Condens. Matter 24, 424209 (2012).   %
     %                                                                      %
     %%%%%%%%%%%%%%%%%%%%%%%%%%%%%%%%%%%%%%%%%%%%%%%%%%%%%%%%%%%%%%%%%%%%%%%%

     Adding external electric field

     Computed dipole along edir(3) :
        Dipole               -0.0000 Ry au,         -0.0000 Debye
        Dipole field         -0.0000 Ry au,

        Potential amp.        0.0000 Ry
        Total length         45.0088 bohr

     Starting wfcs are  120 randomized atomic wfcs

     Self-consistent Calculation

     iteration #  1     ecut=    55.12 Ry     beta= 0.10
     Davidson diagonalization with overlap
     ethr =  1.00E-02,  avg # of iterations =  5.2

[...]

     total energy              =   -2552.90432548 Ry
     estimated scf accuracy    <       2.60875025 Ry

[...]

     iteration #  9     ecut=    55.12 Ry     beta= 0.10
     Davidson diagonalization with overlap
     c_bands:  1 eigenvalues not converged
     ethr =  3.13E-06,  avg # of iterations =  6.2

[...]

     iteration # 10     ecut=    55.12 Ry     beta= 0.10
     Davidson diagonalization with overlap
     c_bands:  1 eigenvalues not converged
     ethr =  5.09E-07,  avg # of iterations =  3.0

[...]

     total energy              =   -2552.99836831 Ry
     estimated scf accuracy    <       0.00003238 Ry

     iteration # 14     ecut=    55.12 Ry     beta= 0.10
     Davidson diagonalization with overlap
     ethr =  1.64E-08,  avg # of iterations =  2.3

[...]

     Adding external electric field

     Computed dipole along edir(3) :
        Dipole                0.0085 Ry au,          0.0217 Debye
        Dipole field          0.0000 Ry au,

        Potential amp.       -0.0023 Ry
        Total length         45.0088 bohr

     End of self-consistent calculation

          k = 0.0000 0.0000 0.0000 ( 28925 PWs)   bands (ev):

   -76.8960 -76.8606 -76.4631 -76.4277 -76.3646 -76.3294 -71.0874 -71.0350
   -70.6168 -70.5641 -70.5280 -70.4753 -44.9225 -44.7901 -44.7757 -44.7466
   -44.7265 -44.5493 -44.5146 -44.4094 -44.3783 -44.3292 -44.2947 -44.2462
   -44.2460 -44.2082 -44.1424 -44.1350 -44.0964 -44.0400 -41.2250 -41.1200
   -41.0751 -40.9851 -40.9486 -40.8089 -40.7372 -40.7371 -40.5408 -40.5131
   -40.5027 -40.4647 -40.4496 -40.4099 -40.3991 -40.3526 -40.3173 -40.2452
    -4.6479  -3.4956  -3.4693  -3.4474  -3.3739  -3.1315  -3.1275  -3.1122
    -3.1060  -2.8855  -2.8678  -2.8655  -2.4541  -2.4459  -2.4229  -1.3764
    -1.3208  -1.2953  -0.8816  -0.7457  -0.7249  -0.5562  -0.5142  -0.4935
    -0.3040  -0.2014  -0.1860  -0.1628  -0.1130  -0.0846   0.1120   0.2071
     0.5038   0.6956   0.9410   1.3000   1.3656   1.4966   1.5419   1.5725
     1.6529   1.6892   1.8475   1.9985   2.1789   2.3771   2.4961   2.5816
     2.7967   2.8575   2.9357   2.9449   3.0642   3.0833   3.1280   3.2268
     3.3355   3.3427   3.4441   3.4816   3.6379   3.7308   3.8722   4.0045
     4.4255   4.4508   4.4566   6.3315   6.3993   6.4104   6.5383

[...]

          k = 0.0772 0.0265 0.0000 ( 29057 PWs)   bands (ev):

[...]

          k =-0.0926-0.0530 0.0000 ( 29042 PWs)   bands (ev):

[...]

          k =-0.0926-0.1589 0.0000 ( 29042 PWs)   bands (ev):

   -76.8783 -76.8783 -76.4454 -76.4454 -76.3470 -76.3470 -71.0614 -71.0614
   -70.5908 -70.5905 -70.5022 -70.5015 -44.7669 -44.7669 -44.7452 -44.7452
   -44.7342 -44.7342 -44.3489 -44.3489 -44.3274 -44.3274 -44.2637 -44.2637
   -44.2295 -44.2295 -44.2237 -44.2236 -44.1153 -44.1153 -41.1016 -41.1016
   -40.9903 -40.9903 -40.9732 -40.9732 -40.5710 -40.5706 -40.5298 -40.5294
   -40.5002 -40.4997 -40.4870 -40.4869 -40.4368 -40.4362 -40.3774 -40.3769
    -3.1501  -3.1501  -2.5694  -2.5694  -2.5384  -2.5384  -2.2799  -2.2799
    -2.1149  -2.1149  -2.0277  -2.0276  -1.6571  -1.6571  -1.5971  -1.5970
    -1.2339  -1.2338  -1.0910  -1.0910  -0.8932  -0.8932  -0.4764  -0.4764
    -0.1983  -0.1983  -0.1513  -0.1513   0.0227   0.0227   0.1359   0.1359
     0.1957   0.1958   0.3387   0.3388   0.4457   0.4458   0.5296   0.5298
     0.8403   0.8403   1.1296   1.1296   1.3680   1.3681   1.4991   1.4992
     1.6711   1.6712   1.7985   1.7986   2.0789   2.0790   2.2045   2.2046
     2.4823   2.4823   2.8004   2.8005   3.1219   3.1220   3.3482   3.3483
     4.9569   4.9569   5.8315   5.8315   6.6074   6.6075   7.0843

     the Fermi energy is     2.2278 ev

!    total energy              =   -2552.99836754 Ry
     estimated scf accuracy    <       0.00000646 Ry
     smearing contrib. (-TS)   =      -0.07788900 Ry
     internal energy E=F+TS    =   -2552.92047853 Ry

     The total energy is F=E-TS. E is the sum of the following terms:
     one-electron contribution =  -23511.22378036 Ry
     hartree contribution      =   11757.49072426 Ry
     xc contribution           =    -364.25485161 Ry
     ewald contribution        =    9565.06742896 Ry
     electric field correction =       0.00000022 Ry

     convergence has been achieved in  14 iterations

     negative rho (up, down):  1.678E-03 0.000E+00

     Forces acting on atoms (cartesian axes, Ry/au):

     atom    1 type  1   force =    -0.00000209    0.01014005    0.01938003
     atom    2 type  1   force =     0.00000239    0.01013488    0.01935807
     atom    3 type  2   force =     0.00000327   -0.01306296    0.01611186
     atom    4 type  2   force =    -0.00000260   -0.01306606    0.01611233
     atom    5 type  1   force =     0.00000143   -0.00054342   -0.01904847
     atom    6 type  1   force =    -0.00000128   -0.00045963   -0.01896983
     atom    7 type  2   force =     0.00008101    0.00175614   -0.01585379
     atom    8 type  2   force =    -0.00008195    0.00175779   -0.01585473
     atom    9 type  1   force =    -0.00000104    0.00127759    0.00053778
     atom   10 type  1   force =     0.00000099    0.00125469    0.00048130
     atom   11 type  2   force =    -0.00000010    0.00040612   -0.00112838
     atom   12 type  2   force =    -0.00000001    0.00040481   -0.00112617

     Total force =     0.055273     Total SCF correction =     0.014299
     SCF correction compared to forces is large: reduce conv_thr to get better values

     Writing output data file ./Ru2Rh2/Ru2Rh2_beef.save/

     General routines

     Parallel routines

   This run was terminated on:   1: 2:27  11Jul2022

   JOB DONE.