     Program PWSCF v.6.6 starts on 24Jun2022 at 20:43: 0

     R & G space division:  proc/nbgrp/npool/nimage =      37
     Fft bands division:     nmany     =       1
     Reading input from Ru2Re2.in
Warning: card &CELL ignored
Warning: card / ignored

     Current dimensions of program PWSCF are:
     Max number of different atomic species (ntypx) = 10
     Max number of k-points (npk) =  40000
     Max angular momentum in pseudopotentials (lmaxx) =  3
     Presently stress not available with electric field and gates

     Message from routine cell_base_init:
     DEPRECATED: use true lattice parameter, not A to a.u. conversion factor

     IMPORTANT: XC functional enforced from input :
     Exchange-correlation= BEEF-VDW
                           (   1   4  43  14   2   0   0)
     Any further DFT definition will be discarded
     Please, verify this is what you really want

     Subspace diagonalization in iterative solution of the eigenvalue problem:
     a serial algorithm will be used

     Found symmetry operation: I + (  0.5000  0.0000  0.0000)
     This is a supercell, fractional translations are disabled

     bravais-lattice index     =            0
     lattice parameter (alat)  =       1.8897  a.u.
     unit-cell volume          =    4264.6021 (a.u.)^3
     number of atoms/cell      =           12
     number of atomic types    =            2
     number of electrons       =       186.00
     number of Kohn-Sham states=          112
     kinetic-energy cutoff     =      55.1240  Ry
     charge density cutoff     =     551.2396  Ry
     convergence threshold     =      1.0E-05
     mixing beta               =       0.1000
     number of iterations used =           10  plain     mixing
     Exchange-correlation= BEEF-VDW
                           (   1   4  43  14   2   0   0)

     celldm(1)=   1.889726  celldm(2)=   0.000000  celldm(3)=   0.000000
     celldm(4)=   0.000000  celldm(5)=   0.000000  celldm(6)=   0.000000

     crystal axes: (cart. coord. in units of alat)
               a(1) = (   5.461973   0.000000   0.000000 )
               a(2) = (  -2.730986   4.730222   0.000000 )
               a(3) = (   0.000000   0.000000  24.459689 )

     reciprocal axes: (cart. coord. in units 2 pi/alat)
               b(1) = (  0.183084  0.105703 -0.000000 )
               b(2) = (  0.000000  0.211407  0.000000 )
               b(3) = (  0.000000 -0.000000  0.040884 )

     PseudoPot. # 1 for Ru read from file:
     ../pseudo/Ru.pbe-spn-rrkjus_psl.1.0.0.UPF
     MD5 check sum: fbaca725316a1a65f98761fd4ac95971
     Pseudo is Ultrasoft + core correction, Zval = 16.0
     Generated using "atomic" code by A. Dal Corso v.6.2.2
     Using radial grid of 1233 points,  6 beta functions with:
                l(1) =   0
                l(2) =   0
                l(3) =   1
                l(4) =   1
                l(5) =   2
                l(6) =   2
     Q(r) pseudized with 0 coefficients

     PseudoPot. # 2 for Re read from file:
     ../pseudo/Re.pbe-spn-rrkjus_psl.1.0.0.UPF
     MD5 check sum: 1282f1ec51ad523723a04c61ae80a9e6
     Pseudo is Ultrasoft + core correction, Zval = 15.0
     Generated using "atomic" code by A. Dal Corso v.6.2.2
     Using radial grid of 1275 points,  6 beta functions with:
                l(1) =   0
                l(2) =   0
                l(3) =   1
                l(4) =   1
                l(5) =   2
                l(6) =   2
     Q(r) pseudized with 0 coefficients

     atomic species   valence    mass     pseudopotential
        Ru            16.00   101.07000     Ru( 1.00)
        Re            15.00   186.20700     Re( 1.00)

     No symmetry found

   Cartesian axes

     site n.     atom                  positions (alat units)
         1           Ru  tau(   1) = (   0.0000000   0.0000000  10.0000000  )
         2           Ru  tau(   2) = (   2.7309863   0.0000000  10.0000000  )
         3           Re  tau(   3) = (   1.3654931   2.3651111  10.0000000  )
         4           Re  tau(   4) = (   4.0964794   2.3651111  10.0000000  )
         5           Ru  tau(   5) = (   2.7309863   1.5767306  12.2298445  )
         6           Ru  tau(   6) = (  -0.0000000   1.5767306  12.2298445  )
         7           Re  tau(   7) = (  -1.3654931   3.9418417  12.2298445  )
         8           Re  tau(   8) = (   1.3654931   3.9418417  12.2298445  )
         9           Ru  tau(   9) = (  -0.0000047   3.1721029  14.3849050  )
        10           Ru  tau(  10) = (   2.7309851   3.1721021  14.3849093  )
        11           Re  tau(  11) = (   4.0964783   0.7854166  14.3349865  )
        12           Re  tau(  12) = (   1.3654957   0.7854208  14.3349877  )

     number of k points=    74  Fermi-Dirac smearing, width (Ry)=  0.0100
                       cart. coord. in units 2pi/alat
        k(    1) = (   0.0000000   0.0000000   0.0000000), wk =   0.0138889
        k(    2) = (   0.0000000   0.0176172   0.0000000), wk =   0.0277778
        k(    3) = (   0.0000000   0.0352344   0.0000000), wk =   0.0277778
        k(    4) = (   0.0000000   0.0528516   0.0000000), wk =   0.0277778
        k(    5) = (   0.0000000   0.0704689   0.0000000), wk =   0.0277778
        k(    6) = (   0.0000000   0.0880861   0.0000000), wk =   0.0277778
        k(    7) = (   0.0000000  -0.1057033   0.0000000), wk =   0.0138889
        k(    8) = (   0.0152570   0.0088086   0.0000000), wk =   0.0277778
        k(    9) = (   0.0152570   0.0264258   0.0000000), wk =   0.0277778
        k(   10) = (   0.0152570   0.0440430   0.0000000), wk =   0.0277778
        k(   11) = (   0.0152570   0.0616602   0.0000000), wk =   0.0277778
        k(   12) = (   0.0152570   0.0792775   0.0000000), wk =   0.0277778
        k(   13) = (   0.0152570   0.0968947   0.0000000), wk =   0.0277778
        k(   14) = (   0.0152570  -0.0968947   0.0000000), wk =   0.0277778
        k(   15) = (   0.0152570  -0.0792775   0.0000000), wk =   0.0277778
        k(   16) = (   0.0152570  -0.0616603   0.0000000), wk =   0.0277778
        k(   17) = (   0.0152570  -0.0440430   0.0000000), wk =   0.0277778
        k(   18) = (   0.0152570  -0.0264258   0.0000000), wk =   0.0277778
        k(   19) = (   0.0152570  -0.0088086   0.0000000), wk =   0.0277778
        k(   20) = (   0.0305140   0.0176172   0.0000000), wk =   0.0277778
        k(   21) = (   0.0305140   0.0352344   0.0000000), wk =   0.0277778
        k(   22) = (   0.0305140   0.0528516   0.0000000), wk =   0.0277778
        k(   23) = (   0.0305140   0.0704689   0.0000000), wk =   0.0277778
        k(   24) = (   0.0305140   0.0880861   0.0000000), wk =   0.0277778
        k(   25) = (   0.0305140   0.1057033   0.0000000), wk =   0.0277778
        k(   26) = (   0.0305140  -0.0880861   0.0000000), wk =   0.0277778
        k(   27) = (   0.0305140  -0.0704689   0.0000000), wk =   0.0277778
        k(   28) = (   0.0305140  -0.0528516   0.0000000), wk =   0.0277778
        k(   29) = (   0.0305140  -0.0352344   0.0000000), wk =   0.0277778
        k(   30) = (   0.0305140  -0.0176172   0.0000000), wk =   0.0277778
        k(   31) = (   0.0305140  -0.0000000   0.0000000), wk =   0.0277778
        k(   32) = (   0.0457710   0.0264258   0.0000000), wk =   0.0277778
        k(   33) = (   0.0457710   0.0440430   0.0000000), wk =   0.0277778
        k(   34) = (   0.0457710   0.0616602   0.0000000), wk =   0.0277778
        k(   35) = (   0.0457710   0.0792775   0.0000000), wk =   0.0277778
        k(   36) = (   0.0457710   0.0968947   0.0000000), wk =   0.0277778
        k(   37) = (   0.0457710   0.1145119   0.0000000), wk =   0.0277778
        k(   38) = (   0.0457710  -0.0792775   0.0000000), wk =   0.0277778
        k(   39) = (   0.0457710  -0.0616603   0.0000000), wk =   0.0277778
        k(   40) = (   0.0457710  -0.0440430   0.0000000), wk =   0.0277778
        k(   41) = (   0.0457710  -0.0264258   0.0000000), wk =   0.0277778
        k(   42) = (   0.0457710  -0.0088086   0.0000000), wk =   0.0277778
        k(   43) = (   0.0457710   0.0088086   0.0000000), wk =   0.0277778
        k(   44) = (   0.0610280   0.0352344   0.0000000), wk =   0.0277778
        k(   45) = (   0.0610280   0.0528516   0.0000000), wk =   0.0277778
        k(   46) = (   0.0610280   0.0704688   0.0000000), wk =   0.0277778
        k(   47) = (   0.0610280   0.0880861   0.0000000), wk =   0.0277778
        k(   48) = (   0.0610280   0.1057033   0.0000000), wk =   0.0277778
        k(   49) = (   0.0610280   0.1233205   0.0000000), wk =   0.0277778
        k(   50) = (   0.0610280  -0.0704689   0.0000000), wk =   0.0277778
        k(   51) = (   0.0610280  -0.0528516   0.0000000), wk =   0.0277778
        k(   52) = (   0.0610280  -0.0352344   0.0000000), wk =   0.0277778
        k(   53) = (   0.0610280  -0.0176172   0.0000000), wk =   0.0277778
        k(   54) = (   0.0610280  -0.0000000   0.0000000), wk =   0.0277778
        k(   55) = (   0.0610280   0.0176172   0.0000000), wk =   0.0277778
        k(   56) = (   0.0762850   0.0440430   0.0000000), wk =   0.0277778
        k(   57) = (   0.0762850   0.0616602   0.0000000), wk =   0.0277778
        k(   58) = (   0.0762850   0.0792775   0.0000000), wk =   0.0277778
        k(   59) = (   0.0762850   0.0968947   0.0000000), wk =   0.0277778
        k(   60) = (   0.0762850   0.1145119   0.0000000), wk =   0.0277778
        k(   61) = (   0.0762850   0.1321291   0.0000000), wk =   0.0277778
        k(   62) = (   0.0762850  -0.0616603   0.0000000), wk =   0.0277778
        k(   63) = (   0.0762850  -0.0440430   0.0000000), wk =   0.0277778
        k(   64) = (   0.0762850  -0.0264258   0.0000000), wk =   0.0277778
        k(   65) = (   0.0762850  -0.0088086   0.0000000), wk =   0.0277778
        k(   66) = (   0.0762850   0.0088086   0.0000000), wk =   0.0277778
        k(   67) = (   0.0762850   0.0264258   0.0000000), wk =   0.0277778
        k(   68) = (  -0.0915420  -0.0528516   0.0000000), wk =   0.0138889
        k(   69) = (  -0.0915420  -0.0352344   0.0000000), wk =   0.0277778
        k(   70) = (  -0.0915420  -0.0176172   0.0000000), wk =   0.0277778
        k(   71) = (  -0.0915420   0.0000000   0.0000000), wk =   0.0277778
        k(   72) = (  -0.0915420   0.0176172   0.0000000), wk =   0.0277778
        k(   73) = (  -0.0915420   0.0352344   0.0000000), wk =   0.0277778
        k(   74) = (  -0.0915420  -0.1585549   0.0000000), wk =   0.0138889

     Initial potential from superposition of free atoms

     starting charge  185.99438, renormalised to  186.00000

     negative rho (up, down):  1.380E-03 0.000E+00

     %%%%%%%%%%%%%%%%%%%%%%%%%%%%%%%%%%%%%%%%%%%%%%%%%%%%%%%%%%%%%%%%%%%%%%%%
     %                                                                      %
     % You are using vdW-DF, which was implemented by the Thonhauser group. %
     % Please cite the following two papers that made this development      %
     % possible and the two reviews that describe the various versions:     %
     %                                                                      %
     %   T. Thonhauser et al., PRL 115, 136402 (2015).                      %
     %   T. Thonhauser et al., PRB 76, 125112 (2007).                       %
     %   K. Berland et al., Rep. Prog. Phys. 78, 066501 (2015).             %
     %   D.C. Langreth et al., J. Phys.: Condens. Matter 21, 084203 (2009). %
     %                                                                      %
     %                                                                      %
     % If you are calculating the stress with vdW-DF, please also cite:     %
     %                                                                      %
     %   R. Sabatini et al., J. Phys.: Condens. Matter 24, 424209 (2012).   %
     %                                                                      %
     %%%%%%%%%%%%%%%%%%%%%%%%%%%%%%%%%%%%%%%%%%%%%%%%%%%%%%%%%%%%%%%%%%%%%%%%

     Adding external electric field

     Computed dipole along edir(3) :
        Dipole                0.0000 Ry au,          0.0001 Debye
        Dipole field          0.0000 Ry au,

        Potential amp.       -0.0000 Ry
        Total length         45.0666 bohr

     Starting wfcs are  120 randomized atomic wfcs

     Self-consistent Calculation

     iteration #  1     ecut=    55.12 Ry     beta= 0.10
     Davidson diagonalization with overlap
     ethr =  1.00E-02,  avg # of iterations =  2.4

[...]

     total energy              =   -2263.54650883 Ry
     estimated scf accuracy    <       6.47231240 Ry

[...]

     iteration #  9     ecut=    55.12 Ry     beta= 0.10
     Davidson diagonalization with overlap
     c_bands:  1 eigenvalues not converged
     ethr =  1.84E-06,  avg # of iterations =  7.0

[...]

     total energy              =   -2264.06111807 Ry
     estimated scf accuracy    <       0.00001170 Ry

     iteration # 14     ecut=    55.12 Ry     beta= 0.10
     Davidson diagonalization with overlap
     ethr =  6.29E-09,  avg # of iterations =  4.2

[...]

     Adding external electric field

     Computed dipole along edir(3) :
        Dipole                0.0397 Ry au,          0.1008 Debye
        Dipole field          0.0001 Ry au,

        Potential amp.       -0.0105 Ry
        Total length         45.0666 bohr

     End of self-consistent calculation

          k = 0.0000 0.0000 0.0000 ( 29425 PWs)   bands (ev):

   -78.2254 -78.1839 -77.9265 -77.9111 -77.8860 -77.8702 -70.6577 -70.6116
   -70.1532 -70.1141 -70.1073 -70.0684 -40.9324 -40.8779 -40.7908 -40.7826
   -40.7057 -40.4698 -40.4535 -40.3718 -40.3588 -40.3254 -40.2596 -40.2331
   -40.1398 -40.0951 -40.0884 -40.0375 -39.9361 -39.9037 -39.8803 -39.8574
   -39.8285 -39.7959 -39.6921 -39.6902 -39.6866 -39.6551 -39.6333 -39.5591
   -39.5236 -39.5156 -39.4770 -39.4065 -39.3946 -39.3693 -39.2028 -39.1905
    -5.6690  -3.8523  -3.7224  -3.5429  -3.5326  -3.4106  -3.2229  -2.9853
    -2.8979  -2.6798  -2.6752  -2.6506  -2.2963  -2.1965  -2.1345  -0.9628
    -0.9200  -0.8555  -0.0851  -0.0550  -0.0314   0.1561   0.1851   0.2810
     0.3939   0.4930   0.5085   0.7129   0.7484   0.7942   1.0623   1.1101
     1.1799   1.2900   1.3315   2.0283   2.3897   2.3929   2.4288   2.6200
     2.6661   2.8751   2.9291   2.9540   3.3758   3.5683   3.7336   3.9642
     4.0486   4.2027   4.4434   4.4506   4.4915   4.5953   4.7158   4.7381
     4.8306   4.9657   5.0762   5.0986   5.1616   5.3306   5.6353   5.7369

[...]

          k = 0.0763 0.0264 0.0000 ( 29505 PWs)   bands (ev):

[...]

          k =-0.0915-0.0529 0.0000 ( 29534 PWs)   bands (ev):

[...]

          k =-0.0915-0.1586 0.0000 ( 29534 PWs)   bands (ev):

   -78.2047 -78.2047 -77.9063 -77.9063 -77.8907 -77.8907 -70.6349 -70.6348
   -70.1304 -70.1304 -70.0915 -70.0914 -40.7634 -40.7633 -40.7133 -40.7132
   -40.6254 -40.6254 -40.3383 -40.3383 -40.2050 -40.2049 -40.1877 -40.1877
   -40.0880 -40.0879 -40.0600 -40.0600 -40.0457 -40.0457 -39.9471 -39.9471
   -39.8140 -39.8140 -39.7262 -39.7262 -39.6347 -39.6347 -39.5859 -39.5859
   -39.5438 -39.5438 -39.4821 -39.4821 -39.4523 -39.4523 -39.4030 -39.4030
    -3.8360  -3.8360  -2.5936  -2.5936  -2.3648  -2.3648  -2.2725  -2.2725
    -1.9801  -1.9800  -1.6923  -1.6923  -1.3144  -1.3144  -1.2110  -1.2110
    -0.8382  -0.8382  -0.7035  -0.7035  -0.3202  -0.3202   0.1794   0.1794
     0.4736   0.4736   0.5506   0.5506   0.6639   0.6639   0.7763   0.7763
     0.9078   0.9078   0.9970   0.9971   1.0513   1.0513   1.1474   1.1474
     1.8376   1.8376   2.1456   2.1456   2.5071   2.5071   2.6633   2.6633
     2.9709   2.9710   3.1309   3.1309   3.2025   3.2025   3.5824   3.5824
     3.7835   3.7835   4.2687   4.2687   4.9460   4.9460   5.3470   5.3470

     the Fermi energy is     2.5804 ev

!    total energy              =   -2264.06111486 Ry
     estimated scf accuracy    <       0.00000748 Ry
     smearing contrib. (-TS)   =      -0.07121532 Ry
     internal energy E=F+TS    =   -2263.98989954 Ry

     The total energy is F=E-TS. E is the sum of the following terms:
     one-electron contribution =  -20287.71992883 Ry
     hartree contribution      =   10135.86055527 Ry
     xc contribution           =    -425.66732407 Ry
     ewald contribution        =    8313.53679345 Ry
     electric field correction =       0.00000464 Ry

     convergence has been achieved in  14 iterations

     negative rho (up, down):  1.181E-03 0.000E+00

     Forces acting on atoms (cartesian axes, Ry/au):

     atom    1 type  1   force =    -0.00000237   -0.00733844    0.01423068
     atom    2 type  1   force =     0.00000108   -0.00734141    0.01423366
     atom    3 type  2   force =    -0.00000157    0.00665116    0.02996629
     atom    4 type  2   force =     0.00000218    0.00664905    0.02996574
     atom    5 type  1   force =    -0.00000035   -0.00061102   -0.02027708
     atom    6 type  1   force =     0.00000050   -0.00061404   -0.02028097
     atom    7 type  2   force =    -0.00000336   -0.00015584   -0.01921056
     atom    8 type  2   force =     0.00000279   -0.00015674   -0.01921156
     atom    9 type  1   force =     0.00000237    0.00153771   -0.00158297
     atom   10 type  1   force =    -0.00000051    0.00154279   -0.00158678
     atom   11 type  2   force =     0.00000285   -0.00008145   -0.00312303
     atom   12 type  2   force =    -0.00000361   -0.00008175   -0.00312341

     Total force =     0.063150     Total SCF correction =     0.025553
     SCF correction compared to forces is large: reduce conv_thr to get better values

     Writing output data file ./Ru2Re2/Ru2Re2_beef.save/

     General routines

     Parallel routines

   This run was terminated on:  21:38:40  24Jun2022

   JOB DONE.