     Program PWSCF v.6.6 starts on 25Jun2022 at 18:36: 8

     R & G space division:  proc/nbgrp/npool/nimage =      37
     Fft bands division:     nmany     =       1
     Reading input from Ru2Ta2.in
Warning: card &CELL ignored
Warning: card / ignored

     Current dimensions of program PWSCF are:
     Max number of different atomic species (ntypx) = 10
     Max number of k-points (npk) =  40000
     Max angular momentum in pseudopotentials (lmaxx) =  3
     Presently stress not available with electric field and gates

     Message from routine cell_base_init:
     DEPRECATED: use true lattice parameter, not A to a.u. conversion factor
     file Ta.pbe-spfn-rrkjus_psl.1.0.0.UPF: wavefunction(s)  5S 5P renormalized

     IMPORTANT: XC functional enforced from input :
     Exchange-correlation= BEEF-VDW
                           (   1   4  43  14   2   0   0)
     Any further DFT definition will be discarded
     Please, verify this is what you really want

     Subspace diagonalization in iterative solution of the eigenvalue problem:
     a serial algorithm will be used

     Found symmetry operation: I + ( -0.5000 -0.5000  0.0000)
     This is a supercell, fractional translations are disabled

     bravais-lattice index     =            0
     lattice parameter (alat)  =       1.8897  a.u.
     unit-cell volume          =    4658.1264 (a.u.)^3
     number of atoms/cell      =           12
     number of atomic types    =            2
     number of electrons       =       258.00
     number of Kohn-Sham states=          155
     kinetic-energy cutoff     =      55.1240  Ry
     charge density cutoff     =     551.2396  Ry
     convergence threshold     =      1.0E-05
     mixing beta               =       0.1000
     number of iterations used =           10  plain     mixing
     Exchange-correlation= BEEF-VDW
                           (   1   4  43  14   2   0   0)

     celldm(1)=   1.889726  celldm(2)=   0.000000  celldm(3)=   0.000000
     celldm(4)=   0.000000  celldm(5)=   0.000000  celldm(6)=   0.000000

     crystal axes: (cart. coord. in units of alat)
               a(1) = (   5.518912   0.000000   0.000000 )
               a(2) = (   2.129220   5.091641   0.000000 )
               a(3) = (   0.000000   0.000000  24.564250 )

     reciprocal axes: (cart. coord. in units 2 pi/alat)
               b(1) = (  0.181195 -0.075772  0.000000 )
               b(2) = (  0.000000  0.196400  0.000000 )
               b(3) = (  0.000000  0.000000  0.040710 )

     PseudoPot. # 1 for Ru read from file:
     ../pseudo/Ru.pbe-spn-rrkjus_psl.1.0.0.UPF
     MD5 check sum: fbaca725316a1a65f98761fd4ac95971
     Pseudo is Ultrasoft + core correction, Zval = 16.0
     Generated using "atomic" code by A. Dal Corso v.6.2.2
     Using radial grid of 1233 points,  6 beta functions with:
                l(1) =   0
                l(2) =   0
                l(3) =   1
                l(4) =   1
                l(5) =   2
                l(6) =   2
     Q(r) pseudized with 0 coefficients

     PseudoPot. # 2 for Ta read from file:
     ../pseudo/Ta.pbe-spfn-rrkjus_psl.1.0.0.UPF
     MD5 check sum: 39d7d349fe394e56adf8454eb9315fbb
     Pseudo is Ultrasoft + core correction, Zval = 27.0
     Generated using "atomic" code by A. Dal Corso v.6.3
     Using radial grid of 1273 points,  8 beta functions with:
                l(1) =   0
                l(2) =   0
                l(3) =   1
                l(4) =   1
                l(5) =   2
                l(6) =   2
                l(7) =   3
                l(8) =   3
     Q(r) pseudized with 0 coefficients

     atomic species   valence    mass     pseudopotential
        Ru            16.00   101.07000     Ru( 1.00)
        Ta            27.00   180.94788     Ta( 1.00)

     No symmetry found

   Cartesian axes

     site n.     atom                  positions (alat units)
         1           Ru  tau(   1) = (   0.0000000   0.0000000  10.0000000  )
         2           Ru  tau(   2) = (   3.8240662   2.5458207  10.0000000  )
         3           Ta  tau(   3) = (   2.7594561   0.0000000  10.0000000  )
         4           Ta  tau(   4) = (   1.0646101   2.5458207  10.0000000  )
         5           Ru  tau(   5) = (   5.5189121   3.6741416  12.2821251  )
         6           Ru  tau(   6) = (   1.6948459   1.1283209  12.2821251  )
         7           Ta  tau(   7) = (   2.7594561   3.6741416  12.2821251  )
         8           Ta  tau(   8) = (   4.4543020   1.1283209  12.2821251  )
         9           Ru  tau(   9) = (   3.6267156   2.4144356  14.3738670  )
        10           Ru  tau(  10) = (   7.4507824   4.9602589  14.3738656  )
        11           Ta  tau(  11) = (   6.3816326   2.4114143  14.5475929  )
        12           Ta  tau(  12) = (   4.6867883   4.9572371  14.5475933  )

     number of k points=    74  Fermi-Dirac smearing, width (Ry)=  0.0100
                       cart. coord. in units 2pi/alat
        k(    1) = (   0.0000000   0.0000000   0.0000000), wk =   0.0138889
        k(    2) = (   0.0000000   0.0163667   0.0000000), wk =   0.0277778
        k(    3) = (   0.0000000   0.0327334   0.0000000), wk =   0.0277778
        k(    4) = (   0.0000000   0.0491001   0.0000000), wk =   0.0277778
        k(    5) = (   0.0000000   0.0654668   0.0000000), wk =   0.0277778
        k(    6) = (   0.0000000   0.0818335   0.0000000), wk =   0.0277778
        k(    7) = (   0.0000000  -0.0982002   0.0000000), wk =   0.0138889
        k(    8) = (   0.0150996  -0.0063143   0.0000000), wk =   0.0277778
        k(    9) = (   0.0150996   0.0100524   0.0000000), wk =   0.0277778
        k(   10) = (   0.0150996   0.0264190   0.0000000), wk =   0.0277778
        k(   11) = (   0.0150996   0.0427857   0.0000000), wk =   0.0277778
        k(   12) = (   0.0150996   0.0591524   0.0000000), wk =   0.0277778
        k(   13) = (   0.0150996   0.0755191   0.0000000), wk =   0.0277778
        k(   14) = (   0.0150996  -0.1045145   0.0000000), wk =   0.0277778
        k(   15) = (   0.0150996  -0.0881478   0.0000000), wk =   0.0277778
        k(   16) = (   0.0150996  -0.0717811   0.0000000), wk =   0.0277778
        k(   17) = (   0.0150996  -0.0554144   0.0000000), wk =   0.0277778
        k(   18) = (   0.0150996  -0.0390477   0.0000000), wk =   0.0277778
        k(   19) = (   0.0150996  -0.0226810   0.0000000), wk =   0.0277778
        k(   20) = (   0.0301992  -0.0126287   0.0000000), wk =   0.0277778
        k(   21) = (   0.0301992   0.0037380   0.0000000), wk =   0.0277778
        k(   22) = (   0.0301992   0.0201047   0.0000000), wk =   0.0277778
        k(   23) = (   0.0301992   0.0364714   0.0000000), wk =   0.0277778
        k(   24) = (   0.0301992   0.0528381   0.0000000), wk =   0.0277778
        k(   25) = (   0.0301992   0.0692048   0.0000000), wk =   0.0277778
        k(   26) = (   0.0301992  -0.1108289   0.0000000), wk =   0.0277778
        k(   27) = (   0.0301992  -0.0944622   0.0000000), wk =   0.0277778
        k(   28) = (   0.0301992  -0.0780955   0.0000000), wk =   0.0277778
        k(   29) = (   0.0301992  -0.0617288   0.0000000), wk =   0.0277778
        k(   30) = (   0.0301992  -0.0453621   0.0000000), wk =   0.0277778
        k(   31) = (   0.0301992  -0.0289954   0.0000000), wk =   0.0277778
        k(   32) = (   0.0452988  -0.0189430   0.0000000), wk =   0.0277778
        k(   33) = (   0.0452988  -0.0025763   0.0000000), wk =   0.0277778
        k(   34) = (   0.0452988   0.0137904   0.0000000), wk =   0.0277778
        k(   35) = (   0.0452988   0.0301571   0.0000000), wk =   0.0277778
        k(   36) = (   0.0452988   0.0465238   0.0000000), wk =   0.0277778
        k(   37) = (   0.0452988   0.0628904   0.0000000), wk =   0.0277778
        k(   38) = (   0.0452988  -0.1171432   0.0000000), wk =   0.0277778
        k(   39) = (   0.0452988  -0.1007765   0.0000000), wk =   0.0277778
        k(   40) = (   0.0452988  -0.0844098   0.0000000), wk =   0.0277778
        k(   41) = (   0.0452988  -0.0680431   0.0000000), wk =   0.0277778
        k(   42) = (   0.0452988  -0.0516764   0.0000000), wk =   0.0277778
        k(   43) = (   0.0452988  -0.0353097   0.0000000), wk =   0.0277778
        k(   44) = (   0.0603984  -0.0252574   0.0000000), wk =   0.0277778
        k(   45) = (   0.0603984  -0.0088907   0.0000000), wk =   0.0277778
        k(   46) = (   0.0603984   0.0074760   0.0000000), wk =   0.0277778
        k(   47) = (   0.0603984   0.0238427   0.0000000), wk =   0.0277778
        k(   48) = (   0.0603984   0.0402094   0.0000000), wk =   0.0277778
        k(   49) = (   0.0603984   0.0565761   0.0000000), wk =   0.0277778
        k(   50) = (   0.0603984  -0.1234575   0.0000000), wk =   0.0277778
        k(   51) = (   0.0603984  -0.1070908   0.0000000), wk =   0.0277778
        k(   52) = (   0.0603984  -0.0907241   0.0000000), wk =   0.0277778
        k(   53) = (   0.0603984  -0.0743574   0.0000000), wk =   0.0277778
        k(   54) = (   0.0603984  -0.0579908   0.0000000), wk =   0.0277778
        k(   55) = (   0.0603984  -0.0416241   0.0000000), wk =   0.0277778
        k(   56) = (   0.0754980  -0.0315717   0.0000000), wk =   0.0277778
        k(   57) = (   0.0754980  -0.0152050   0.0000000), wk =   0.0277778
        k(   58) = (   0.0754980   0.0011617   0.0000000), wk =   0.0277778
        k(   59) = (   0.0754980   0.0175284   0.0000000), wk =   0.0277778
        k(   60) = (   0.0754980   0.0338951   0.0000000), wk =   0.0277778
        k(   61) = (   0.0754980   0.0502618   0.0000000), wk =   0.0277778
        k(   62) = (   0.0754980  -0.1297719   0.0000000), wk =   0.0277778
        k(   63) = (   0.0754980  -0.1134052   0.0000000), wk =   0.0277778
        k(   64) = (   0.0754980  -0.0970385   0.0000000), wk =   0.0277778
        k(   65) = (   0.0754980  -0.0806718   0.0000000), wk =   0.0277778
        k(   66) = (   0.0754980  -0.0643051   0.0000000), wk =   0.0277778
        k(   67) = (   0.0754980  -0.0479384   0.0000000), wk =   0.0277778
        k(   68) = (  -0.0905976   0.0378860   0.0000000), wk =   0.0138889
        k(   69) = (  -0.0905976   0.0542527   0.0000000), wk =   0.0277778
        k(   70) = (  -0.0905976   0.0706194   0.0000000), wk =   0.0277778
        k(   71) = (  -0.0905976   0.0869861   0.0000000), wk =   0.0277778
        k(   72) = (  -0.0905976   0.1033528   0.0000000), wk =   0.0277778
        k(   73) = (  -0.0905976   0.1197195   0.0000000), wk =   0.0277778
        k(   74) = (  -0.0905976  -0.0603141   0.0000000), wk =   0.0138889

     Initial potential from superposition of free atoms

     starting charge  257.99111, renormalised to  258.00000

     negative rho (up, down):  1.347E-03 0.000E+00

     %%%%%%%%%%%%%%%%%%%%%%%%%%%%%%%%%%%%%%%%%%%%%%%%%%%%%%%%%%%%%%%%%%%%%%%%
     %                                                                      %
     % You are using vdW-DF, which was implemented by the Thonhauser group. %
     % Please cite the following two papers that made this development      %
     % possible and the two reviews that describe the various versions:     %
     %                                                                      %
     %   T. Thonhauser et al., PRL 115, 136402 (2015).                      %
     %   T. Thonhauser et al., PRB 76, 125112 (2007).                       %
     %   K. Berland et al., Rep. Prog. Phys. 78, 066501 (2015).             %
     %   D.C. Langreth et al., J. Phys.: Condens. Matter 21, 084203 (2009). %
     %                                                                      %
     %                                                                      %
     % If you are calculating the stress with vdW-DF, please also cite:     %
     %                                                                      %
     %   R. Sabatini et al., J. Phys.: Condens. Matter 24, 424209 (2012).   %
     %                                                                      %
     %%%%%%%%%%%%%%%%%%%%%%%%%%%%%%%%%%%%%%%%%%%%%%%%%%%%%%%%%%%%%%%%%%%%%%%%

     Adding external electric field

     Computed dipole along edir(3) :
        Dipole               -0.0001 Ry au,         -0.0001 Debye
        Dipole field         -0.0000 Ry au,

        Potential amp.        0.0000 Ry
        Total length         45.2592 bohr

     Starting wfcs are  162 randomized atomic wfcs

     Self-consistent Calculation

     iteration #  1     ecut=    55.12 Ry     beta= 0.10
     Davidson diagonalization with overlap
     ethr =  1.00E-02,  avg # of iterations =  2.9

[...]

     total energy              =   -5279.91163696 Ry
     estimated scf accuracy    <      10.17331432 Ry

[...]

     iteration #  7     ecut=    55.12 Ry     beta= 0.10
     Davidson diagonalization with overlap
     c_bands:  1 eigenvalues not converged
     c_bands:  1 eigenvalues not converged
     ethr =  2.51E-05,  avg # of iterations =  7.3

[...]

     iteration #  9     ecut=    55.12 Ry     beta= 0.10
     Davidson diagonalization with overlap
     c_bands:  1 eigenvalues not converged
     c_bands:  1 eigenvalues not converged
     c_bands:  1 eigenvalues not converged
     ethr =  4.57E-06,  avg # of iterations =  5.1

[...]

     total energy              =   -5280.52604549 Ry
     estimated scf accuracy    <       0.00001233 Ry

     iteration # 15     ecut=    55.12 Ry     beta= 0.10
     Davidson diagonalization with overlap
     ethr =  4.78E-09,  avg # of iterations =  2.0

[...]

     Adding external electric field

     Computed dipole along edir(3) :
        Dipole                0.0645 Ry au,          0.1640 Debye
        Dipole field          0.0002 Ry au,

        Potential amp.       -0.0158 Ry
        Total length         45.2592 bohr

     End of self-consistent calculation

          k = 0.0000 0.0000 0.0000 ( 32245 PWs)   bands (ev):

   -70.2929 -70.2809 -69.8065 -69.7941 -69.6338 -69.6222 -66.2222 -66.2036
   -66.1400 -66.1213 -66.0755 -66.0572 -40.3998 -40.2687 -40.2548 -40.2529
   -40.2376 -40.2356 -39.8734 -39.8329 -39.8114 -39.7680 -39.7505 -39.7096
   -39.7001 -39.6788 -39.6678 -39.5473 -39.5315 -39.5105 -32.6222 -32.5935
   -32.5543 -32.5441 -32.5271 -32.5121 -32.4653 -32.4374 -32.3923 -32.3608
   -32.3271 -32.3093 -32.3041 -32.2482 -32.2035 -32.1732 -32.1488 -32.0875
   -17.9260 -17.9235 -17.9230 -17.9224 -17.9027 -17.8891 -17.8817 -17.8707
   -17.8670 -17.8663 -17.8377 -17.8346 -17.8338 -17.8331 -17.8311 -17.8290
   -17.8225 -17.8140 -17.8133 -17.8087 -17.8026 -17.7911 -17.7888 -17.7868
   -17.7556 -17.7537 -17.7387 -17.7379 -17.7266 -17.7219 -17.7051 -17.7047
   -17.7014 -17.6939 -17.6939 -17.6889 -17.6881 -17.6878 -17.6794 -17.6772
   -17.6693 -17.6680  -4.7424  -2.9609  -2.6974  -2.4968  -2.3370  -2.3242
    -2.2367  -2.0980  -1.9271  -1.8858  -1.3808  -1.1666  -1.1112  -0.7792
    -0.7784  -0.4084  -0.3416  -0.2192  -0.1886   0.0993   0.1459   0.1712
     0.7070   0.8111   1.0447   1.0860   1.1773   1.5214   1.7646   1.8982
     2.0994   2.1061   2.1476   2.4786   3.1149   3.2668   3.3082   3.4054
     3.5853   3.6350   3.6916   3.7094   3.9131   3.9575   4.1569   4.3308
     4.3416   4.3895   4.4262   4.5134   4.5670   4.9275   5.0569   5.1907
     5.2918   5.4007   5.4185   5.7632   5.7655   6.1831   6.1875   6.7465
     6.7877   6.9985   7.1170

[...]

          k = 0.0755-0.0479 0.0000 ( 32183 PWs)   bands (ev):

[...]

          k =-0.0906 0.0379 0.0000 ( 32184 PWs)   bands (ev):

[...]

          k =-0.0906-0.0603 0.0000 ( 32226 PWs)   bands (ev):

   -70.2923 -70.2810 -69.8059 -69.7941 -69.6331 -69.6222 -66.2232 -66.2038
   -66.1410 -66.1217 -66.0768 -66.0568 -40.3906 -40.2681 -40.2493 -40.2389
   -40.2360 -40.2253 -39.8639 -39.8174 -39.8038 -39.7671 -39.7537 -39.7082
   -39.6831 -39.6702 -39.6576 -39.5467 -39.5321 -39.5089 -32.6456 -32.5922
   -32.5838 -32.5502 -32.5435 -32.5145 -32.4870 -32.4656 -32.4366 -32.3822
   -32.3629 -32.3532 -32.2883 -32.2275 -32.2235 -32.1783 -32.1548 -32.0934
   -17.9263 -17.9239 -17.9236 -17.9227 -17.9029 -17.8893 -17.8816 -17.8710
   -17.8671 -17.8664 -17.8381 -17.8348 -17.8347 -17.8335 -17.8325 -17.8304
   -17.8228 -17.8155 -17.8131 -17.8090 -17.8026 -17.7916 -17.7889 -17.7869
   -17.7572 -17.7551 -17.7404 -17.7378 -17.7277 -17.7236 -17.7065 -17.7048
   -17.7013 -17.6944 -17.6942 -17.6891 -17.6886 -17.6884 -17.6795 -17.6781
   -17.6695 -17.6681  -2.8450  -2.7038  -1.5989  -1.5496  -1.4740  -1.3444
    -1.3241  -1.2626  -1.1110  -0.8024  -0.6456  -0.4238  -0.2835  -0.2709
    -0.2300  -0.1984  -0.1552   0.1288   0.1576   0.4798   0.5863   0.6703
     0.6724   0.8962   0.9019   1.0894   1.1621   1.2420   1.3078   1.4047
     1.4208   1.6204   1.7326   1.7433   1.7653   1.7985   1.9524   2.0330
     2.0684   2.3487   2.4784   2.5086   2.8354   2.8609   3.0821   3.2607
     3.2657   3.5308   3.7974   3.8489   4.1060   4.1593   4.1713   4.3669
     4.5688   4.8335   4.8546   5.1029   5.2299   5.3159   5.4957   5.5565
     6.0779   6.2779   6.9007

     the Fermi energy is     2.9004 ev

!    total energy              =   -5280.52604441 Ry
     estimated scf accuracy    <       0.00000302 Ry
     smearing contrib. (-TS)   =      -0.04580378 Ry
     internal energy E=F+TS    =   -5280.48024063 Ry

     The total energy is F=E-TS. E is the sum of the following terms:
     one-electron contribution =  -38032.11263251 Ry
     hartree contribution      =   19117.02368144 Ry
     xc contribution           =    -593.87264732 Ry
     ewald contribution        =   14228.48134653 Ry
     electric field correction =       0.00001123 Ry

     convergence has been achieved in  15 iterations

     negative rho (up, down):  1.210E-03 0.000E+00

     Forces acting on atoms (cartesian axes, Ry/au):

     atom    1 type  1   force =    -0.00098327   -0.00065389    0.04634321
     atom    2 type  1   force =    -0.00098356   -0.00065507    0.04635324
     atom    3 type  2   force =    -0.01663123   -0.01108848   -0.00916178
     atom    4 type  2   force =    -0.01664402   -0.01106347   -0.00916200
     atom    5 type  1   force =     0.00598778    0.00398645   -0.00269740
     atom    6 type  1   force =     0.00596961    0.00397441   -0.00270245
     atom    7 type  2   force =     0.01160598    0.00759521   -0.03300965
     atom    8 type  2   force =     0.01148405    0.00777683   -0.03301065
     atom    9 type  1   force =     0.00013613    0.00009066    0.00039348
     atom   10 type  1   force =     0.00013981    0.00009268    0.00039693
     atom   11 type  2   force =    -0.00005079   -0.00000954   -0.00187203
     atom   12 type  2   force =    -0.00003049   -0.00004579   -0.00187089

     Total force =     0.089192     Total SCF correction =     0.011185
     SCF correction compared to forces is large: reduce conv_thr to get better values

     Writing output data file ./Ru2Ta2/Ru2Ta2_beef.save/

     General routines

     Parallel routines

   This run was terminated on:  20:55:42  25Jun2022

   JOB DONE.