     Program PWSCF v.6.6 starts on 11Jul2022 at  1: 2:31

     R & G space division:  proc/nbgrp/npool/nimage =      37
     Fft bands division:     nmany     =       1
     Reading input from Ru2Y2.in
Warning: card &CELL ignored
Warning: card / ignored

     Current dimensions of program PWSCF are:
     Max number of different atomic species (ntypx) = 10
     Max number of k-points (npk) =  40000
     Max angular momentum in pseudopotentials (lmaxx) =  3
     Presently stress not available with electric field and gates

     Message from routine cell_base_init:
     DEPRECATED: use true lattice parameter, not A to a.u. conversion factor
     file Y.pbe-spn-rrkjus_psl.1.0.0.UPF: wavefunction(s)  4S renormalized

     IMPORTANT: XC functional enforced from input :
     Exchange-correlation= BEEF-VDW
                           (   1   4  43  14   2   0   0)
     Any further DFT definition will be discarded
     Please, verify this is what you really want

     Subspace diagonalization in iterative solution of the eigenvalue problem:
     a serial algorithm will be used

     Found symmetry operation: I + ( -0.5000  0.5000  0.0000)
     This is a supercell, fractional translations are disabled

     bravais-lattice index     =            0
     lattice parameter (alat)  =       1.8897  a.u.
     unit-cell volume          =    5532.4692 (a.u.)^3
     number of atoms/cell      =           12
     number of atomic types    =            2
     number of electrons       =       162.00
     number of Kohn-Sham states=           97
     kinetic-energy cutoff     =      55.1240  Ry
     charge density cutoff     =     551.2396  Ry
     convergence threshold     =      1.0E-05
     mixing beta               =       0.1000
     number of iterations used =           10  plain     mixing
     Exchange-correlation= BEEF-VDW
                           (   1   4  43  14   2   0   0)

     celldm(1)=   1.889726  celldm(2)=   0.000000  celldm(3)=   0.000000
     celldm(4)=   0.000000  celldm(5)=   0.000000  celldm(6)=   0.000000

     crystal axes: (cart. coord. in units of alat)
               a(1) = (   5.916807   0.000000   0.000000 )
               a(2) = (   1.966437   5.580478   0.000000 )
               a(3) = (   0.000000   0.000000  24.829255 )

     reciprocal axes: (cart. coord. in units 2 pi/alat)
               b(1) = (  0.169010 -0.059555  0.000000 )
               b(2) = (  0.000000  0.179196  0.000000 )
               b(3) = (  0.000000  0.000000  0.040275 )

     PseudoPot. # 1 for Ru read from file:
     ../pseudo/Ru.pbe-spn-rrkjus_psl.1.0.0.UPF
     MD5 check sum: fbaca725316a1a65f98761fd4ac95971
     Pseudo is Ultrasoft + core correction, Zval = 16.0
     Generated using "atomic" code by A. Dal Corso v.6.2.2
     Using radial grid of 1233 points,  6 beta functions with:
                l(1) =   0
                l(2) =   0
                l(3) =   1
                l(4) =   1
                l(5) =   2
                l(6) =   2
     Q(r) pseudized with 0 coefficients

     PseudoPot. # 2 for Y  read from file:
     ../pseudo/Y.pbe-spn-rrkjus_psl.1.0.0.UPF
     MD5 check sum: 5fe32e6a006803c2ec2edff47948a3c8
     Pseudo is Ultrasoft + core correction, Zval = 11.0
     Generated using "atomic" code by A. Dal Corso v.6.2.2
     Using radial grid of 1223 points,  6 beta functions with:
                l(1) =   0
                l(2) =   0
                l(3) =   1
                l(4) =   1
                l(5) =   2
                l(6) =   2
     Q(r) pseudized with 0 coefficients

     atomic species   valence    mass     pseudopotential
        Ru            16.00   101.07000     Ru( 1.00)
        Y             11.00    88.90584     Y ( 1.00)

     No symmetry found

   Cartesian axes

     site n.     atom                  positions (alat units)
         1           Ru  tau(   1) = (   0.0000000   0.0000000  10.0000000  )
         2           Ru  tau(   2) = (   3.9416221   2.7902388  10.0000000  )
         3           Y   tau(   3) = (   2.9584035   0.0000000  10.0000000  )
         4           Y   tau(   4) = (   0.9832186   2.7902388  10.0000000  )
         5           Ru  tau(   5) = (   5.9168071   4.1884545  12.4146275  )
         6           Ru  tau(   6) = (   1.9751849   1.3982156  12.4146275  )
         7           Y   tau(   7) = (   2.9584035   4.1884545  12.4146275  )
         8           Y   tau(   8) = (   4.9335885   1.3982156  12.4146275  )
         9           Ru  tau(   9) = (   3.9503637   2.7964301  14.6878976  )
        10           Ru  tau(  10) = (   0.0087642   0.0061940  14.6879352  )
        11           Y   tau(  11) = (   0.9888587   2.7942262  14.8649064  )
        12           Y   tau(  12) = (   2.9640451   0.0039946  14.8649150  )

     number of k points=    74  Fermi-Dirac smearing, width (Ry)=  0.0100
                       cart. coord. in units 2pi/alat
        k(    1) = (   0.0000000   0.0000000   0.0000000), wk =   0.0138889
        k(    2) = (   0.0000000   0.0149330   0.0000000), wk =   0.0277778
        k(    3) = (   0.0000000   0.0298660   0.0000000), wk =   0.0277778
        k(    4) = (   0.0000000   0.0447990   0.0000000), wk =   0.0277778
        k(    5) = (   0.0000000   0.0597320   0.0000000), wk =   0.0277778
        k(    6) = (   0.0000000   0.0746650   0.0000000), wk =   0.0277778
        k(    7) = (   0.0000000  -0.0895981   0.0000000), wk =   0.0138889
        k(    8) = (   0.0140842  -0.0049630   0.0000000), wk =   0.0277778
        k(    9) = (   0.0140842   0.0099701   0.0000000), wk =   0.0277778
        k(   10) = (   0.0140842   0.0249031   0.0000000), wk =   0.0277778
        k(   11) = (   0.0140842   0.0398361   0.0000000), wk =   0.0277778
        k(   12) = (   0.0140842   0.0547691   0.0000000), wk =   0.0277778
        k(   13) = (   0.0140842   0.0697021   0.0000000), wk =   0.0277778
        k(   14) = (   0.0140842  -0.0945610   0.0000000), wk =   0.0277778
        k(   15) = (   0.0140842  -0.0796280   0.0000000), wk =   0.0277778
        k(   16) = (   0.0140842  -0.0646950   0.0000000), wk =   0.0277778
        k(   17) = (   0.0140842  -0.0497620   0.0000000), wk =   0.0277778
        k(   18) = (   0.0140842  -0.0348290   0.0000000), wk =   0.0277778
        k(   19) = (   0.0140842  -0.0198960   0.0000000), wk =   0.0277778
        k(   20) = (   0.0281683  -0.0099259   0.0000000), wk =   0.0277778
        k(   21) = (   0.0281683   0.0050071   0.0000000), wk =   0.0277778
        k(   22) = (   0.0281683   0.0199401   0.0000000), wk =   0.0277778
        k(   23) = (   0.0281683   0.0348731   0.0000000), wk =   0.0277778
        k(   24) = (   0.0281683   0.0498061   0.0000000), wk =   0.0277778
        k(   25) = (   0.0281683   0.0647391   0.0000000), wk =   0.0277778
        k(   26) = (   0.0281683  -0.0995240   0.0000000), wk =   0.0277778
        k(   27) = (   0.0281683  -0.0845910   0.0000000), wk =   0.0277778
        k(   28) = (   0.0281683  -0.0696579   0.0000000), wk =   0.0277778
        k(   29) = (   0.0281683  -0.0547249   0.0000000), wk =   0.0277778
        k(   30) = (   0.0281683  -0.0397919   0.0000000), wk =   0.0277778
        k(   31) = (   0.0281683  -0.0248589   0.0000000), wk =   0.0277778
        k(   32) = (   0.0422525  -0.0148889   0.0000000), wk =   0.0277778
        k(   33) = (   0.0422525   0.0000442   0.0000000), wk =   0.0277778
        k(   34) = (   0.0422525   0.0149772   0.0000000), wk =   0.0277778
        k(   35) = (   0.0422525   0.0299102   0.0000000), wk =   0.0277778
        k(   36) = (   0.0422525   0.0448432   0.0000000), wk =   0.0277778
        k(   37) = (   0.0422525   0.0597762   0.0000000), wk =   0.0277778
        k(   38) = (   0.0422525  -0.1044869   0.0000000), wk =   0.0277778
        k(   39) = (   0.0422525  -0.0895539   0.0000000), wk =   0.0277778
        k(   40) = (   0.0422525  -0.0746209   0.0000000), wk =   0.0277778
        k(   41) = (   0.0422525  -0.0596879   0.0000000), wk =   0.0277778
        k(   42) = (   0.0422525  -0.0447549   0.0000000), wk =   0.0277778
        k(   43) = (   0.0422525  -0.0298219   0.0000000), wk =   0.0277778
        k(   44) = (   0.0563367  -0.0198518   0.0000000), wk =   0.0277778
        k(   45) = (   0.0563367  -0.0049188   0.0000000), wk =   0.0277778
        k(   46) = (   0.0563367   0.0100142   0.0000000), wk =   0.0277778
        k(   47) = (   0.0563367   0.0249472   0.0000000), wk =   0.0277778
        k(   48) = (   0.0563367   0.0398802   0.0000000), wk =   0.0277778
        k(   49) = (   0.0563367   0.0548132   0.0000000), wk =   0.0277778
        k(   50) = (   0.0563367  -0.1094499   0.0000000), wk =   0.0277778
        k(   51) = (   0.0563367  -0.0945169   0.0000000), wk =   0.0277778
        k(   52) = (   0.0563367  -0.0795838   0.0000000), wk =   0.0277778
        k(   53) = (   0.0563367  -0.0646508   0.0000000), wk =   0.0277778
        k(   54) = (   0.0563367  -0.0497178   0.0000000), wk =   0.0277778
        k(   55) = (   0.0563367  -0.0347848   0.0000000), wk =   0.0277778
        k(   56) = (   0.0704209  -0.0248148   0.0000000), wk =   0.0277778
        k(   57) = (   0.0704209  -0.0098817   0.0000000), wk =   0.0277778
        k(   58) = (   0.0704209   0.0050513   0.0000000), wk =   0.0277778
        k(   59) = (   0.0704209   0.0199843   0.0000000), wk =   0.0277778
        k(   60) = (   0.0704209   0.0349173   0.0000000), wk =   0.0277778
        k(   61) = (   0.0704209   0.0498503   0.0000000), wk =   0.0277778
        k(   62) = (   0.0704209  -0.1144128   0.0000000), wk =   0.0277778
        k(   63) = (   0.0704209  -0.0994798   0.0000000), wk =   0.0277778
        k(   64) = (   0.0704209  -0.0845468   0.0000000), wk =   0.0277778
        k(   65) = (   0.0704209  -0.0696138   0.0000000), wk =   0.0277778
        k(   66) = (   0.0704209  -0.0546808   0.0000000), wk =   0.0277778
        k(   67) = (   0.0704209  -0.0397478   0.0000000), wk =   0.0277778
        k(   68) = (  -0.0845050   0.0297777   0.0000000), wk =   0.0138889
        k(   69) = (  -0.0845050   0.0447107   0.0000000), wk =   0.0277778
        k(   70) = (  -0.0845050   0.0596437   0.0000000), wk =   0.0277778
        k(   71) = (  -0.0845050   0.0745767   0.0000000), wk =   0.0277778
        k(   72) = (  -0.0845050   0.0895097   0.0000000), wk =   0.0277778
        k(   73) = (  -0.0845050   0.1044428   0.0000000), wk =   0.0277778
        k(   74) = (  -0.0845050  -0.0598204   0.0000000), wk =   0.0138889

     Initial potential from superposition of free atoms

     starting charge  161.97167, renormalised to  162.00000

     negative rho (up, down):  1.429E-03 0.000E+00

     %%%%%%%%%%%%%%%%%%%%%%%%%%%%%%%%%%%%%%%%%%%%%%%%%%%%%%%%%%%%%%%%%%%%%%%%
     %                                                                      %
     % You are using vdW-DF, which was implemented by the Thonhauser group. %
     % Please cite the following two papers that made this development      %
     % possible and the two reviews that describe the various versions:     %
     %                                                                      %
     %   T. Thonhauser et al., PRL 115, 136402 (2015).                      %
     %   T. Thonhauser et al., PRB 76, 125112 (2007).                       %
     %   K. Berland et al., Rep. Prog. Phys. 78, 066501 (2015).             %
     %   D.C. Langreth et al., J. Phys.: Condens. Matter 21, 084203 (2009). %
     %                                                                      %
     %                                                                      %
     % If you are calculating the stress with vdW-DF, please also cite:     %
     %                                                                      %
     %   R. Sabatini et al., J. Phys.: Condens. Matter 24, 424209 (2012).   %
     %                                                                      %
     %%%%%%%%%%%%%%%%%%%%%%%%%%%%%%%%%%%%%%%%%%%%%%%%%%%%%%%%%%%%%%%%%%%%%%%%

     Adding external electric field

     Computed dipole along edir(3) :
        Dipole                0.0014 Ry au,          0.0037 Debye
        Dipole field          0.0000 Ry au,

        Potential amp.       -0.0003 Ry
        Total length         45.7475 bohr

     Starting wfcs are  138 randomized atomic wfcs

     Self-consistent Calculation

     iteration #  1     ecut=    55.12 Ry     beta= 0.10
     Davidson diagonalization with overlap
     ethr =  1.00E-02,  avg # of iterations =  2.2

[...]

     total energy              =   -1693.10714352 Ry
     estimated scf accuracy    <       8.95085021 Ry

[...]

     iteration # 11     ecut=    55.12 Ry     beta= 0.10
     Davidson diagonalization with overlap
     c_bands:  1 eigenvalues not converged
     ethr =  3.63E-06,  avg # of iterations =  8.9

[...]

     total energy              =   -1693.21932620 Ry
     estimated scf accuracy    <       0.00002615 Ry

     iteration # 16     ecut=    55.12 Ry     beta= 0.10
     Davidson diagonalization with overlap
     ethr =  7.25E-09,  avg # of iterations =  2.4

[...]

     Adding external electric field

     Computed dipole along edir(3) :
        Dipole                0.0504 Ry au,          0.1282 Debye
        Dipole field          0.0001 Ry au,

        Potential amp.       -0.0105 Ry
        Total length         45.7475 bohr

     End of self-consistent calculation

          k = 0.0000 0.0000 0.0000 ( 38241 PWs)   bands (ev):

   -70.1157 -70.1135 -69.8354 -69.8332 -69.8282 -69.8260 -40.8980 -40.8560
   -40.8138 -40.7715 -40.1244 -40.1200 -40.1161 -40.1122 -40.1118 -40.0761
   -39.9644 -39.9515 -39.8826 -39.8676 -39.8633 -39.8535 -39.8492 -39.8388
   -39.8382 -39.8229 -39.8201 -39.8020 -39.7230 -39.6785 -21.0517 -20.9765
   -20.9420 -20.8963 -20.8588 -20.8123 -20.7872 -20.7543 -20.7091 -20.6747
   -20.6047 -20.5289 -20.0822 -19.8633 -19.8576 -19.8112 -19.8005 -19.6106
    -2.9300  -1.7341  -1.3751  -1.2069  -1.1503  -1.1125  -1.0126  -0.9984
    -0.9109  -0.9008  -0.6175  -0.3820  -0.3393   0.0797   0.1569   0.1580
     0.2412   0.2844   0.2979   0.3093   0.4407   0.4742   0.6279   0.9500
     1.0467   1.1281   1.1836   1.4271   1.5380   1.5789   1.7687   1.7928
     2.0688   2.5239   2.9331   3.0555   3.0649   3.1079   3.1582   3.3851
     3.8735   4.0032   4.1123   4.1183   4.1618   4.2279   4.3621   4.4816
     4.7659

[...]

          k = 0.0704-0.0397 0.0000 ( 38228 PWs)   bands (ev):

[...]

          k =-0.0845 0.0298 0.0000 ( 38254 PWs)   bands (ev):

[...]

          k =-0.0845-0.0598 0.0000 ( 38282 PWs)   bands (ev):

   -70.1157 -70.1136 -69.8354 -69.8332 -69.8282 -69.8260 -40.9195 -40.8686
   -40.8375 -40.7855 -40.2042 -40.1467 -40.1236 -40.1148 -40.1109 -40.0759
   -39.9230 -39.8984 -39.8675 -39.8623 -39.8483 -39.8427 -39.8386 -39.8380
   -39.8255 -39.8232 -39.8206 -39.8025 -39.6983 -39.6561 -21.0726 -20.9983
   -20.9552 -20.8949 -20.8605 -20.8347 -20.8081 -20.7643 -20.7530 -20.6865
   -20.6113 -20.5357 -20.1028 -19.8880 -19.8457 -19.8329 -19.8125 -19.6193
    -1.2771  -1.0862  -0.5688  -0.5336  -0.4154  -0.2934  -0.1782  -0.1357
    -0.0897  -0.0786  -0.0522   0.1886   0.2201   0.2837   0.3115   0.4955
     0.4964   0.5071   0.7087   0.7578   0.7672   0.9197   0.9399   0.9480
     1.0548   1.1222   1.1363   1.1924   1.2405   1.3455   1.4932   1.4963
     1.6911   1.6929   1.8193   1.8287   1.8859   2.0189   2.0368   2.0818
     2.7953   2.8515   3.2748   3.4632   3.5278   3.5570   3.6305   3.8196
     3.9546

     the Fermi energy is     1.7165 ev

!    total energy              =   -1693.21932441 Ry
     estimated scf accuracy    <       0.00000476 Ry
     smearing contrib. (-TS)   =      -0.07041389 Ry
     internal energy E=F+TS    =   -1693.14891051 Ry

     The total energy is F=E-TS. E is the sum of the following terms:
     one-electron contribution =  -11887.54615706 Ry
     hartree contribution      =    5945.76642078 Ry
     xc contribution           =    -291.94724457 Ry
     ewald contribution        =    4540.57806456 Ry
     electric field correction =       0.00000578 Ry

     convergence has been achieved in  16 iterations

     negative rho (up, down):  1.074E-03 0.000E+00

     Forces acting on atoms (cartesian axes, Ry/au):

     atom    1 type  1   force =    -0.00006216   -0.00004423    0.01891938
     atom    2 type  1   force =    -0.00006435   -0.00004532    0.01888870
     atom    3 type  2   force =     0.00039017    0.00027516   -0.00845099
     atom    4 type  2   force =     0.00039205    0.00027828   -0.00845100
     atom    5 type  1   force =    -0.00004482   -0.00003184    0.00102271
     atom    6 type  1   force =    -0.00002726   -0.00001890    0.00102478
     atom    7 type  2   force =    -0.00020250   -0.00016413   -0.01058856
     atom    8 type  2   force =    -0.00022182   -0.00013675   -0.01058796
     atom    9 type  1   force =    -0.00010510   -0.00007499    0.00041313
     atom   10 type  1   force =    -0.00010773   -0.00007503    0.00042757
     atom   11 type  2   force =     0.00002649    0.00001905   -0.00130867
     atom   12 type  2   force =     0.00002703    0.00001871   -0.00130909

     Total force =     0.032990     Total SCF correction =     0.009989
     SCF correction compared to forces is large: reduce conv_thr to get better values

     Writing output data file ./Ru2Y2/Ru2Y2_beef.save/

     General routines

     Parallel routines

   This run was terminated on:   2:15:41  11Jul2022

   JOB DONE.