     Program PWSCF v.6.6 starts on 11Jul2022 at  2:15:47

     R & G space division:  proc/nbgrp/npool/nimage =      37
     Fft bands division:     nmany     =       1
     Reading input from Sc2Ag2.in
Warning: card &CELL ignored
Warning: card / ignored

     Current dimensions of program PWSCF are:
     Max number of different atomic species (ntypx) = 10
     Max number of k-points (npk) =  40000
     Max angular momentum in pseudopotentials (lmaxx) =  3
     Presently stress not available with electric field and gates

     Message from routine cell_base_init:
     DEPRECATED: use true lattice parameter, not A to a.u. conversion factor
     file Sc.pbe-spn-rrkjus_psl.1.0.0.UPF: wavefunction(s)  3S 3P renormalized

     IMPORTANT: XC functional enforced from input :
     Exchange-correlation= BEEF-VDW
                           (   1   4  43  14   2   0   0)
     Any further DFT definition will be discarded
     Please, verify this is what you really want

     Subspace diagonalization in iterative solution of the eigenvalue problem:
     a serial algorithm will be used

     Found symmetry operation: I + (  0.5000 -0.5000  0.0000)
     This is a supercell, fractional translations are disabled

     bravais-lattice index     =            0
     lattice parameter (alat)  =       1.8897  a.u.
     unit-cell volume          =    5675.8429 (a.u.)^3
     number of atoms/cell      =           12
     number of atomic types    =            2
     number of electrons       =       132.00
     number of Kohn-Sham states=           79
     kinetic-energy cutoff     =      55.1240  Ry
     charge density cutoff     =     551.2396  Ry
     convergence threshold     =      1.0E-05
     mixing beta               =       0.1000
     number of iterations used =           10  plain     mixing
     Exchange-correlation= BEEF-VDW
                           (   1   4  43  14   2   0   0)

     celldm(1)=   1.889726  celldm(2)=   0.000000  celldm(3)=   0.000000
     celldm(4)=   0.000000  celldm(5)=   0.000000  celldm(6)=   0.000000

     crystal axes: (cart. coord. in units of alat)
               a(1) = (   5.990613   0.000000   0.000000 )
               a(2) = (   2.022973   5.638707   0.000000 )
               a(3) = (   0.000000   0.000000  24.899066 )

     reciprocal axes: (cart. coord. in units 2 pi/alat)
               b(1) = (  0.166928 -0.059888  0.000000 )
               b(2) = (  0.000000  0.177346  0.000000 )
               b(3) = (  0.000000  0.000000  0.040162 )

     PseudoPot. # 1 for Sc read from file:
     ../pseudo/Sc.pbe-spn-rrkjus_psl.1.0.0.UPF
     MD5 check sum: f739f74c200e509e5c24cbe053202ee5
     Pseudo is Ultrasoft + core correction, Zval = 11.0
     Generated using "atomic" code by A. Dal Corso v.6.2.2
     Using radial grid of 1173 points,  6 beta functions with:
                l(1) =   0
                l(2) =   0
                l(3) =   1
                l(4) =   1
                l(5) =   2
                l(6) =   2
     Q(r) pseudized with 0 coefficients

     PseudoPot. # 2 for Ag read from file:
     ../pseudo/Ag.pbe-n-rrkjus_psl.1.0.0.UPF
     MD5 check sum: d841cbfac2b0861aec33b46768a516bf
     Pseudo is Ultrasoft + core correction, Zval = 11.0
     Generated using "atomic" code by A. Dal Corso v.6.2.2
     Using radial grid of 1237 points,  6 beta functions with:
                l(1) =   0
                l(2) =   0
                l(3) =   1
                l(4) =   1
                l(5) =   2
                l(6) =   2
     Q(r) pseudized with 0 coefficients

     atomic species   valence    mass     pseudopotential
        Sc            11.00    44.95591     Sc( 1.00)
        Ag            11.00   107.86820     Ag( 1.00)

     No symmetry found

   Cartesian axes

     site n.     atom                  positions (alat units)
         1           Sc  tau(   1) = (   0.0000000   0.0000000  10.0000000  )
         2           Sc  tau(   2) = (   4.0067928   2.8193536  10.0000000  )
         3           Ag  tau(   3) = (   2.9953063   0.0000000  10.0000000  )
         4           Ag  tau(   4) = (   1.0114865   2.8193536  10.0000000  )
         5           Sc  tau(   5) = (   5.9906126   4.2152554  12.4495332  )
         6           Sc  tau(   6) = (   1.9838198   1.3959018  12.4495332  )
         7           Ag  tau(   7) = (   2.9953063   4.2152554  12.4495332  )
         8           Ag  tau(   8) = (   4.9791260   1.3959018  12.4495332  )
         9           Sc  tau(   9) = (   3.9722202   2.7950237  14.8662019  )
        10           Sc  tau(  10) = (   7.9790258   5.6143895  14.8662550  )
        11           Ag  tau(  11) = (   6.9636513   2.7922875  14.7878108  )
        12           Ag  tau(  12) = (   4.9798133   5.6116627  14.7877811  )

     number of k points=    74  Fermi-Dirac smearing, width (Ry)=  0.0100
                       cart. coord. in units 2pi/alat
        k(    1) = (   0.0000000   0.0000000   0.0000000), wk =   0.0138889
        k(    2) = (   0.0000000   0.0147788   0.0000000), wk =   0.0277778
        k(    3) = (   0.0000000   0.0295576   0.0000000), wk =   0.0277778
        k(    4) = (   0.0000000   0.0443364   0.0000000), wk =   0.0277778
        k(    5) = (   0.0000000   0.0591152   0.0000000), wk =   0.0277778
        k(    6) = (   0.0000000   0.0738940   0.0000000), wk =   0.0277778
        k(    7) = (   0.0000000  -0.0886728   0.0000000), wk =   0.0138889
        k(    8) = (   0.0139107  -0.0049907   0.0000000), wk =   0.0277778
        k(    9) = (   0.0139107   0.0097881   0.0000000), wk =   0.0277778
        k(   10) = (   0.0139107   0.0245669   0.0000000), wk =   0.0277778
        k(   11) = (   0.0139107   0.0393457   0.0000000), wk =   0.0277778
        k(   12) = (   0.0139107   0.0541245   0.0000000), wk =   0.0277778
        k(   13) = (   0.0139107   0.0689033   0.0000000), wk =   0.0277778
        k(   14) = (   0.0139107  -0.0936635   0.0000000), wk =   0.0277778
        k(   15) = (   0.0139107  -0.0788847   0.0000000), wk =   0.0277778
        k(   16) = (   0.0139107  -0.0641059   0.0000000), wk =   0.0277778
        k(   17) = (   0.0139107  -0.0493271   0.0000000), wk =   0.0277778
        k(   18) = (   0.0139107  -0.0345483   0.0000000), wk =   0.0277778
        k(   19) = (   0.0139107  -0.0197695   0.0000000), wk =   0.0277778
        k(   20) = (   0.0278213  -0.0099813   0.0000000), wk =   0.0277778
        k(   21) = (   0.0278213   0.0047975   0.0000000), wk =   0.0277778
        k(   22) = (   0.0278213   0.0195763   0.0000000), wk =   0.0277778
        k(   23) = (   0.0278213   0.0343551   0.0000000), wk =   0.0277778
        k(   24) = (   0.0278213   0.0491339   0.0000000), wk =   0.0277778
        k(   25) = (   0.0278213   0.0639127   0.0000000), wk =   0.0277778
        k(   26) = (   0.0278213  -0.0986541   0.0000000), wk =   0.0277778
        k(   27) = (   0.0278213  -0.0838753   0.0000000), wk =   0.0277778
        k(   28) = (   0.0278213  -0.0690965   0.0000000), wk =   0.0277778
        k(   29) = (   0.0278213  -0.0543177   0.0000000), wk =   0.0277778
        k(   30) = (   0.0278213  -0.0395389   0.0000000), wk =   0.0277778
        k(   31) = (   0.0278213  -0.0247601   0.0000000), wk =   0.0277778
        k(   32) = (   0.0417320  -0.0149720   0.0000000), wk =   0.0277778
        k(   33) = (   0.0417320  -0.0001932   0.0000000), wk =   0.0277778
        k(   34) = (   0.0417320   0.0145856   0.0000000), wk =   0.0277778
        k(   35) = (   0.0417320   0.0293644   0.0000000), wk =   0.0277778
        k(   36) = (   0.0417320   0.0441432   0.0000000), wk =   0.0277778
        k(   37) = (   0.0417320   0.0589220   0.0000000), wk =   0.0277778
        k(   38) = (   0.0417320  -0.1036448   0.0000000), wk =   0.0277778
        k(   39) = (   0.0417320  -0.0888660   0.0000000), wk =   0.0277778
        k(   40) = (   0.0417320  -0.0740872   0.0000000), wk =   0.0277778
        k(   41) = (   0.0417320  -0.0593084   0.0000000), wk =   0.0277778
        k(   42) = (   0.0417320  -0.0445296   0.0000000), wk =   0.0277778
        k(   43) = (   0.0417320  -0.0297508   0.0000000), wk =   0.0277778
        k(   44) = (   0.0556426  -0.0199626   0.0000000), wk =   0.0277778
        k(   45) = (   0.0556426  -0.0051838   0.0000000), wk =   0.0277778
        k(   46) = (   0.0556426   0.0095950   0.0000000), wk =   0.0277778
        k(   47) = (   0.0556426   0.0243738   0.0000000), wk =   0.0277778
        k(   48) = (   0.0556426   0.0391526   0.0000000), wk =   0.0277778
        k(   49) = (   0.0556426   0.0539314   0.0000000), wk =   0.0277778
        k(   50) = (   0.0556426  -0.1086355   0.0000000), wk =   0.0277778
        k(   51) = (   0.0556426  -0.0938567   0.0000000), wk =   0.0277778
        k(   52) = (   0.0556426  -0.0790779   0.0000000), wk =   0.0277778
        k(   53) = (   0.0556426  -0.0642990   0.0000000), wk =   0.0277778
        k(   54) = (   0.0556426  -0.0495202   0.0000000), wk =   0.0277778
        k(   55) = (   0.0556426  -0.0347414   0.0000000), wk =   0.0277778
        k(   56) = (   0.0695533  -0.0249533   0.0000000), wk =   0.0277778
        k(   57) = (   0.0695533  -0.0101745   0.0000000), wk =   0.0277778
        k(   58) = (   0.0695533   0.0046043   0.0000000), wk =   0.0277778
        k(   59) = (   0.0695533   0.0193831   0.0000000), wk =   0.0277778
        k(   60) = (   0.0695533   0.0341619   0.0000000), wk =   0.0277778
        k(   61) = (   0.0695533   0.0489407   0.0000000), wk =   0.0277778
        k(   62) = (   0.0695533  -0.1136261   0.0000000), wk =   0.0277778
        k(   63) = (   0.0695533  -0.0988473   0.0000000), wk =   0.0277778
        k(   64) = (   0.0695533  -0.0840685   0.0000000), wk =   0.0277778
        k(   65) = (   0.0695533  -0.0692897   0.0000000), wk =   0.0277778
        k(   66) = (   0.0695533  -0.0545109   0.0000000), wk =   0.0277778
        k(   67) = (   0.0695533  -0.0397321   0.0000000), wk =   0.0277778
        k(   68) = (  -0.0834639   0.0299440   0.0000000), wk =   0.0138889
        k(   69) = (  -0.0834639   0.0447228   0.0000000), wk =   0.0277778
        k(   70) = (  -0.0834639   0.0595016   0.0000000), wk =   0.0277778
        k(   71) = (  -0.0834639   0.0742804   0.0000000), wk =   0.0277778
        k(   72) = (  -0.0834639   0.0890592   0.0000000), wk =   0.0277778
        k(   73) = (  -0.0834639   0.1038380   0.0000000), wk =   0.0277778
        k(   74) = (  -0.0834639  -0.0587288   0.0000000), wk =   0.0138889

     Initial potential from superposition of free atoms

     starting charge  131.98224, renormalised to  132.00000

     negative rho (up, down):  4.050E-04 0.000E+00

     %%%%%%%%%%%%%%%%%%%%%%%%%%%%%%%%%%%%%%%%%%%%%%%%%%%%%%%%%%%%%%%%%%%%%%%%
     %                                                                      %
     % You are using vdW-DF, which was implemented by the Thonhauser group. %
     % Please cite the following two papers that made this development      %
     % possible and the two reviews that describe the various versions:     %
     %                                                                      %
     %   T. Thonhauser et al., PRL 115, 136402 (2015).                      %
     %   T. Thonhauser et al., PRB 76, 125112 (2007).                       %
     %   K. Berland et al., Rep. Prog. Phys. 78, 066501 (2015).             %
     %   D.C. Langreth et al., J. Phys.: Condens. Matter 21, 084203 (2009). %
     %                                                                      %
     %                                                                      %
     % If you are calculating the stress with vdW-DF, please also cite:     %
     %                                                                      %
     %   R. Sabatini et al., J. Phys.: Condens. Matter 24, 424209 (2012).   %
     %                                                                      %
     %%%%%%%%%%%%%%%%%%%%%%%%%%%%%%%%%%%%%%%%%%%%%%%%%%%%%%%%%%%%%%%%%%%%%%%%

     Adding external electric field

     Computed dipole along edir(3) :
        Dipole                0.0003 Ry au,          0.0008 Debye
        Dipole field          0.0000 Ry au,

        Potential amp.       -0.0001 Ry
        Total length         45.8761 bohr

     Starting wfcs are  114 randomized atomic wfcs

     Self-consistent Calculation

     iteration #  1     ecut=    55.12 Ry     beta= 0.10
     Davidson diagonalization with overlap
     ethr =  1.00E-02,  avg # of iterations =  2.0

[...]

     total energy              =   -1101.06474333 Ry
     estimated scf accuracy    <       1.82802146 Ry

[...]

     iteration #  6     ecut=    55.12 Ry     beta= 0.10
     Davidson diagonalization with overlap
     c_bands:  2 eigenvalues not converged
     c_bands:  3 eigenvalues not converged
     c_bands:  1 eigenvalues not converged
     c_bands:  4 eigenvalues not converged
     c_bands:  1 eigenvalues not converged
     c_bands:  4 eigenvalues not converged
     c_bands:  1 eigenvalues not converged
     c_bands:  2 eigenvalues not converged
     c_bands:  1 eigenvalues not converged
     c_bands:  1 eigenvalues not converged
     c_bands:  1 eigenvalues not converged
     c_bands:  1 eigenvalues not converged
     ethr =  4.42E-05,  avg # of iterations = 16.0

[...]

     iteration # 18     ecut=    55.12 Ry     beta= 0.10
     Davidson diagonalization with overlap
     c_bands:  1 eigenvalues not converged
     c_bands:  1 eigenvalues not converged
     c_bands:  1 eigenvalues not converged
     ethr =  5.67E-08,  avg # of iterations = 12.1

[...]

     total energy              =   -1101.52272868 Ry
     estimated scf accuracy    <       0.00001142 Ry

     iteration # 23     ecut=    55.12 Ry     beta= 0.10
     Davidson diagonalization with overlap
     ethr =  8.65E-09,  avg # of iterations =  2.6

[...]

     Adding external electric field

     Computed dipole along edir(3) :
        Dipole                0.0224 Ry au,          0.0569 Debye
        Dipole field          0.0000 Ry au,

        Potential amp.       -0.0045 Ry
        Total length         45.8761 bohr

     End of self-consistent calculation

          k = 0.0000 0.0000 0.0000 ( 39285 PWs)   bands (ev):

   -50.0365 -50.0341 -50.0272 -50.0247 -49.7752 -49.7658 -28.6854 -28.6830
   -28.6759 -28.6707 -28.5962 -28.5886 -28.5880 -28.5786 -28.5737 -28.5700
   -28.4592 -28.4559 -28.4112 -28.3555 -28.3392 -28.3147 -28.3041 -28.2928
    -5.4397  -4.9284  -4.9225  -4.9187  -4.8587  -4.8008  -4.7374  -4.7004
    -4.6750  -4.6074  -4.5948  -4.5885  -4.4249  -4.4109  -4.3938  -4.3768
    -4.3472  -4.3197  -4.2803  -4.2712  -4.2701  -4.2093  -4.1870  -4.0796
    -4.0431  -4.0056  -3.9124  -3.9071  -3.7562  -3.6873  -3.6232  -3.4552
    -1.6915  -1.3321  -1.2578  -0.9426  -0.1661   0.1404   0.3635   0.7166
     0.7797   0.7981   0.8022   0.9834   0.9991   1.0900   1.2531   1.2937
     1.3862   1.4531   1.5364   1.7165   1.7881   1.8524   2.1116

[...]

          k = 0.0696-0.0397 0.0000 ( 39231 PWs)   bands (ev):

[...]

          k =-0.0835 0.0299 0.0000 ( 39216 PWs)   bands (ev):

[...]

          k =-0.0835-0.0587 0.0000 ( 39210 PWs)   bands (ev):

   -50.0363 -50.0339 -50.0272 -50.0247 -49.7752 -49.7656 -28.6891 -28.6810
   -28.6750 -28.6707 -28.6034 -28.5929 -28.5863 -28.5782 -28.5758 -28.5718
   -28.4597 -28.4564 -28.4123 -28.3508 -28.3434 -28.3183 -28.3047 -28.2937
    -4.7376  -4.7014  -4.6885  -4.6703  -4.6077  -4.5818  -4.5712  -4.5640
    -4.5360  -4.5232  -4.4768  -4.4499  -4.3843  -4.3764  -4.3017  -4.2900
    -4.2623  -4.2519  -4.2427  -4.1840  -4.1649  -4.1638  -4.0871  -4.0519
    -3.9969  -3.9903  -3.9062  -3.8777  -3.7306  -3.6042  -3.5216  -3.1282
    -2.0195  -1.8658  -1.7098  -1.6910  -1.2596  -0.4302  -0.4157  -0.2279
    -0.1791   0.1184   0.3097   0.4836   0.6139   0.7650   0.8169   0.8811
     1.0046   1.3856   1.4761   1.4925   1.7313   1.8184   1.8281

     the Fermi energy is     0.6495 ev

!    total energy              =   -1101.52272175 Ry
     estimated scf accuracy    <       0.00000842 Ry
     smearing contrib. (-TS)   =      -0.07335818 Ry
     internal energy E=F+TS    =   -1101.44936357 Ry

     The total energy is F=E-TS. E is the sum of the following terms:
     one-electron contribution =   -7644.29877060 Ry
     hartree contribution      =    3857.52174931 Ry
     xc contribution           =    -247.44113522 Ry
     ewald contribution        =    2932.76879184 Ry
     electric field correction =       0.00000111 Ry

     convergence has been achieved in  23 iterations

     negative rho (up, down):  2.768E-04 0.000E+00

     Forces acting on atoms (cartesian axes, Ry/au):

     atom    1 type  1   force =    -0.00041233   -0.00028780    0.00158632
     atom    2 type  1   force =    -0.00040575   -0.00029046    0.00157907
     atom    3 type  2   force =    -0.00001685   -0.00001217    0.00908864
     atom    4 type  2   force =    -0.00001304   -0.00000888    0.00908331
     atom    5 type  1   force =     0.00014317    0.00009686   -0.00866183
     atom    6 type  1   force =     0.00014638    0.00010589   -0.00866745
     atom    7 type  2   force =    -0.00002723   -0.00001321   -0.00165635
     atom    8 type  2   force =    -0.00002115   -0.00002022   -0.00165351
     atom    9 type  1   force =    -0.00015325   -0.00010595    0.00023676
     atom   10 type  1   force =    -0.00016487   -0.00011471    0.00023602
     atom   11 type  2   force =     0.00046398    0.00032440   -0.00058729
     atom   12 type  2   force =     0.00046094    0.00032626   -0.00058368

     Total force =     0.018106     Total SCF correction =     0.008793
     SCF correction compared to forces is large: reduce conv_thr to get better values

     Writing output data file ./Sc2Ag2/Sc2Ag2_beef.save/

     General routines

     Parallel routines

   This run was terminated on:   3:49:14  11Jul2022

   JOB DONE.