     Program PWSCF v.6.6 starts on 10Jul2022 at 13: 3:32

     R & G space division:  proc/nbgrp/npool/nimage =      37
     Fft bands division:     nmany     =       1
     Reading input from Sc2Au2.in
Warning: card &CELL ignored
Warning: card / ignored

     Current dimensions of program PWSCF are:
     Max number of different atomic species (ntypx) = 10
     Max number of k-points (npk) =  40000
     Max angular momentum in pseudopotentials (lmaxx) =  3
     Presently stress not available with electric field and gates

     Message from routine cell_base_init:
     DEPRECATED: use true lattice parameter, not A to a.u. conversion factor
     file Sc.pbe-spn-rrkjus_psl.1.0.0.UPF: wavefunction(s)  3S 3P renormalized

     IMPORTANT: XC functional enforced from input :
     Exchange-correlation= BEEF-VDW
                           (   1   4  43  14   2   0   0)
     Any further DFT definition will be discarded
     Please, verify this is what you really want

     Subspace diagonalization in iterative solution of the eigenvalue problem:
     a serial algorithm will be used

     bravais-lattice index     =            0
     lattice parameter (alat)  =       1.8897  a.u.
     unit-cell volume          =    5654.2773 (a.u.)^3
     number of atoms/cell      =           12
     number of atomic types    =            2
     number of electrons       =       132.00
     number of Kohn-Sham states=           79
     kinetic-energy cutoff     =      55.1240  Ry
     charge density cutoff     =     551.2396  Ry
     convergence threshold     =      1.0E-05
     mixing beta               =       0.1000
     number of iterations used =           10  plain     mixing
     Exchange-correlation= BEEF-VDW
                           (   1   4  43  14   2   0   0)

     celldm(1)=   1.889726  celldm(2)=   0.000000  celldm(3)=   0.000000
     celldm(4)=   0.000000  celldm(5)=   0.000000  celldm(6)=   0.000000

     crystal axes: (cart. coord. in units of alat)
               a(1) = (   5.962390   0.000000   0.000000 )
               a(2) = (   1.875638   5.659689   0.000000 )
               a(3) = (   0.000000   0.000000  24.829481 )

     reciprocal axes: (cart. coord. in units 2 pi/alat)
               b(1) = (  0.167718 -0.055582  0.000000 )
               b(2) = (  0.000000  0.176688  0.000000 )
               b(3) = (  0.000000  0.000000  0.040275 )

     PseudoPot. # 1 for Sc read from file:
     ../pseudo/Sc.pbe-spn-rrkjus_psl.1.0.0.UPF
     MD5 check sum: f739f74c200e509e5c24cbe053202ee5
     Pseudo is Ultrasoft + core correction, Zval = 11.0
     Generated using "atomic" code by A. Dal Corso v.6.2.2
     Using radial grid of 1173 points,  6 beta functions with:
                l(1) =   0
                l(2) =   0
                l(3) =   1
                l(4) =   1
                l(5) =   2
                l(6) =   2
     Q(r) pseudized with 0 coefficients

     PseudoPot. # 2 for Au read from file:
     ../pseudo/Au.pbe-n-rrkjus_psl.1.0.0.UPF
     MD5 check sum: d7e77ba19504afed2c9b41c931dde4f0
     Pseudo is Ultrasoft + core correction, Zval = 11.0
     Generated using "atomic" code by A. Dal Corso v.6.3
     Using radial grid of 1279 points,  6 beta functions with:
                l(1) =   0
                l(2) =   0
                l(3) =   1
                l(4) =   1
                l(5) =   2
                l(6) =   2
     Q(r) pseudized with 0 coefficients

     atomic species   valence    mass     pseudopotential
        Sc            11.00    44.95591     Sc( 1.00)
        Au            11.00   196.96657     Au( 1.00)

     No symmetry found

   Cartesian axes

     site n.     atom                  positions (alat units)
         1           Sc  tau(   1) = (   0.0000000   0.0000000  10.0000000  )
         2           Sc  tau(   2) = (   3.9190143   2.8298443  10.0000000  )
         3           Au  tau(   3) = (   2.9811950   0.0000000  10.0000000  )
         4           Au  tau(   4) = (   0.9378192   2.8298443  10.0000000  )
         5           Sc  tau(   5) = (   5.9623901   4.3053264  12.4147405  )
         6           Sc  tau(   6) = (   2.0433758   1.4754821  12.4147405  )
         7           Au  tau(   7) = (   2.9811950   4.3053264  12.4147405  )
         8           Au  tau(   8) = (   5.0245708   1.4754821  12.4147405  )
         9           Sc  tau(   9) = (   4.0180246   2.9013821  14.7776285  )
        10           Sc  tau(  10) = (   0.0990566   0.0714974  14.7776218  )
        11           Au  tau(  11) = (   1.0410555   2.9044243  14.6550375  )
        12           Au  tau(  12) = (   3.0844654   0.0745931  14.6550761  )

     number of k points=    74  Fermi-Dirac smearing, width (Ry)=  0.0100
                       cart. coord. in units 2pi/alat
        k(    1) = (   0.0000000   0.0000000   0.0000000), wk =   0.0138889
        k(    2) = (   0.0000000   0.0147240   0.0000000), wk =   0.0277778
        k(    3) = (   0.0000000   0.0294480   0.0000000), wk =   0.0277778
        k(    4) = (   0.0000000   0.0441720   0.0000000), wk =   0.0277778
        k(    5) = (   0.0000000   0.0588961   0.0000000), wk =   0.0277778
        k(    6) = (   0.0000000   0.0736201   0.0000000), wk =   0.0277778
        k(    7) = (   0.0000000  -0.0883441   0.0000000), wk =   0.0138889
        k(    8) = (   0.0139765  -0.0046319   0.0000000), wk =   0.0277778
        k(    9) = (   0.0139765   0.0100922   0.0000000), wk =   0.0277778
        k(   10) = (   0.0139765   0.0248162   0.0000000), wk =   0.0277778
        k(   11) = (   0.0139765   0.0395402   0.0000000), wk =   0.0277778
        k(   12) = (   0.0139765   0.0542642   0.0000000), wk =   0.0277778
        k(   13) = (   0.0139765   0.0689882   0.0000000), wk =   0.0277778
        k(   14) = (   0.0139765  -0.0929759   0.0000000), wk =   0.0277778
        k(   15) = (   0.0139765  -0.0782519   0.0000000), wk =   0.0277778
        k(   16) = (   0.0139765  -0.0635279   0.0000000), wk =   0.0277778
        k(   17) = (   0.0139765  -0.0488039   0.0000000), wk =   0.0277778
        k(   18) = (   0.0139765  -0.0340799   0.0000000), wk =   0.0277778
        k(   19) = (   0.0139765  -0.0193559   0.0000000), wk =   0.0277778
        k(   20) = (   0.0279530  -0.0092637   0.0000000), wk =   0.0277778
        k(   21) = (   0.0279530   0.0054603   0.0000000), wk =   0.0277778
        k(   22) = (   0.0279530   0.0201843   0.0000000), wk =   0.0277778
        k(   23) = (   0.0279530   0.0349083   0.0000000), wk =   0.0277778
        k(   24) = (   0.0279530   0.0496323   0.0000000), wk =   0.0277778
        k(   25) = (   0.0279530   0.0643564   0.0000000), wk =   0.0277778
        k(   26) = (   0.0279530  -0.0976078   0.0000000), wk =   0.0277778
        k(   27) = (   0.0279530  -0.0828838   0.0000000), wk =   0.0277778
        k(   28) = (   0.0279530  -0.0681598   0.0000000), wk =   0.0277778
        k(   29) = (   0.0279530  -0.0534357   0.0000000), wk =   0.0277778
        k(   30) = (   0.0279530  -0.0387117   0.0000000), wk =   0.0277778
        k(   31) = (   0.0279530  -0.0239877   0.0000000), wk =   0.0277778
        k(   32) = (   0.0419295  -0.0138956   0.0000000), wk =   0.0277778
        k(   33) = (   0.0419295   0.0008285   0.0000000), wk =   0.0277778
        k(   34) = (   0.0419295   0.0155525   0.0000000), wk =   0.0277778
        k(   35) = (   0.0419295   0.0302765   0.0000000), wk =   0.0277778
        k(   36) = (   0.0419295   0.0450005   0.0000000), wk =   0.0277778
        k(   37) = (   0.0419295   0.0597245   0.0000000), wk =   0.0277778
        k(   38) = (   0.0419295  -0.1022396   0.0000000), wk =   0.0277778
        k(   39) = (   0.0419295  -0.0875156   0.0000000), wk =   0.0277778
        k(   40) = (   0.0419295  -0.0727916   0.0000000), wk =   0.0277778
        k(   41) = (   0.0419295  -0.0580676   0.0000000), wk =   0.0277778
        k(   42) = (   0.0419295  -0.0433436   0.0000000), wk =   0.0277778
        k(   43) = (   0.0419295  -0.0286196   0.0000000), wk =   0.0277778
        k(   44) = (   0.0559060  -0.0185274   0.0000000), wk =   0.0277778
        k(   45) = (   0.0559060  -0.0038034   0.0000000), wk =   0.0277778
        k(   46) = (   0.0559060   0.0109206   0.0000000), wk =   0.0277778
        k(   47) = (   0.0559060   0.0256446   0.0000000), wk =   0.0277778
        k(   48) = (   0.0559060   0.0403686   0.0000000), wk =   0.0277778
        k(   49) = (   0.0559060   0.0550926   0.0000000), wk =   0.0277778
        k(   50) = (   0.0559060  -0.1068715   0.0000000), wk =   0.0277778
        k(   51) = (   0.0559060  -0.0921475   0.0000000), wk =   0.0277778
        k(   52) = (   0.0559060  -0.0774235   0.0000000), wk =   0.0277778
        k(   53) = (   0.0559060  -0.0626995   0.0000000), wk =   0.0277778
        k(   54) = (   0.0559060  -0.0479754   0.0000000), wk =   0.0277778
        k(   55) = (   0.0559060  -0.0332514   0.0000000), wk =   0.0277778
        k(   56) = (   0.0698825  -0.0231593   0.0000000), wk =   0.0277778
        k(   57) = (   0.0698825  -0.0084353   0.0000000), wk =   0.0277778
        k(   58) = (   0.0698825   0.0062888   0.0000000), wk =   0.0277778
        k(   59) = (   0.0698825   0.0210128   0.0000000), wk =   0.0277778
        k(   60) = (   0.0698825   0.0357368   0.0000000), wk =   0.0277778
        k(   61) = (   0.0698825   0.0504608   0.0000000), wk =   0.0277778
        k(   62) = (   0.0698825  -0.1115033   0.0000000), wk =   0.0277778
        k(   63) = (   0.0698825  -0.0967793   0.0000000), wk =   0.0277778
        k(   64) = (   0.0698825  -0.0820553   0.0000000), wk =   0.0277778
        k(   65) = (   0.0698825  -0.0673313   0.0000000), wk =   0.0277778
        k(   66) = (   0.0698825  -0.0526073   0.0000000), wk =   0.0277778
        k(   67) = (   0.0698825  -0.0378833   0.0000000), wk =   0.0277778
        k(   68) = (  -0.0838590   0.0277911   0.0000000), wk =   0.0138889
        k(   69) = (  -0.0838590   0.0425151   0.0000000), wk =   0.0277778
        k(   70) = (  -0.0838590   0.0572391   0.0000000), wk =   0.0277778
        k(   71) = (  -0.0838590   0.0719632   0.0000000), wk =   0.0277778
        k(   72) = (  -0.0838590   0.0866872   0.0000000), wk =   0.0277778
        k(   73) = (  -0.0838590   0.1014112   0.0000000), wk =   0.0277778
        k(   74) = (  -0.0838590  -0.0605530   0.0000000), wk =   0.0138889

     Initial potential from superposition of free atoms

     starting charge  131.98397, renormalised to  132.00000

     negative rho (up, down):  9.975E-04 0.000E+00

     %%%%%%%%%%%%%%%%%%%%%%%%%%%%%%%%%%%%%%%%%%%%%%%%%%%%%%%%%%%%%%%%%%%%%%%%
     %                                                                      %
     % You are using vdW-DF, which was implemented by the Thonhauser group. %
     % Please cite the following two papers that made this development      %
     % possible and the two reviews that describe the various versions:     %
     %                                                                      %
     %   T. Thonhauser et al., PRL 115, 136402 (2015).                      %
     %   T. Thonhauser et al., PRB 76, 125112 (2007).                       %
     %   K. Berland et al., Rep. Prog. Phys. 78, 066501 (2015).             %
     %   D.C. Langreth et al., J. Phys.: Condens. Matter 21, 084203 (2009). %
     %                                                                      %
     %                                                                      %
     % If you are calculating the stress with vdW-DF, please also cite:     %
     %                                                                      %
     %   R. Sabatini et al., J. Phys.: Condens. Matter 24, 424209 (2012).   %
     %                                                                      %
     %%%%%%%%%%%%%%%%%%%%%%%%%%%%%%%%%%%%%%%%%%%%%%%%%%%%%%%%%%%%%%%%%%%%%%%%

     Adding external electric field

     Computed dipole along edir(3) :
        Dipole                0.0006 Ry au,          0.0014 Debye
        Dipole field          0.0000 Ry au,

        Potential amp.       -0.0001 Ry
        Total length         45.7479 bohr

     Starting wfcs are  114 randomized atomic wfcs

     Self-consistent Calculation

     iteration #  1     ecut=    55.12 Ry     beta= 0.10
     Davidson diagonalization with overlap
     ethr =  1.00E-02,  avg # of iterations =  1.8

[...]

     total energy              =   -1110.24830984 Ry
     estimated scf accuracy    <       1.45553521 Ry

[...]

     iteration #  6     ecut=    55.12 Ry     beta= 0.10
     Davidson diagonalization with overlap
     c_bands:  1 eigenvalues not converged
     c_bands:  1 eigenvalues not converged
     c_bands:  1 eigenvalues not converged
     c_bands:  1 eigenvalues not converged
     ethr =  4.53E-05,  avg # of iterations = 14.4

[...]

     iteration # 17     ecut=    55.12 Ry     beta= 0.10
     Davidson diagonalization with overlap
     c_bands:  1 eigenvalues not converged
     c_bands:  1 eigenvalues not converged
     c_bands:  1 eigenvalues not converged
     c_bands:  1 eigenvalues not converged
     c_bands:  2 eigenvalues not converged
     c_bands:  1 eigenvalues not converged
     c_bands:  1 eigenvalues not converged
     c_bands:  1 eigenvalues not converged
     c_bands:  1 eigenvalues not converged
     c_bands:  1 eigenvalues not converged
     c_bands:  2 eigenvalues not converged
     c_bands:  1 eigenvalues not converged
     c_bands:  1 eigenvalues not converged
     c_bands:  1 eigenvalues not converged
     c_bands:  1 eigenvalues not converged
     ethr =  2.90E-08,  avg # of iterations = 17.0

[...]

     total energy              =   -1110.56639895 Ry
     estimated scf accuracy    <       0.00004023 Ry

     iteration # 19     ecut=    55.12 Ry     beta= 0.10
     Davidson diagonalization with overlap
     ethr =  2.90E-08,  avg # of iterations =  6.8

[...]

     Adding external electric field

     Computed dipole along edir(3) :
        Dipole                0.0475 Ry au,          0.1207 Debye
        Dipole field          0.0001 Ry au,

        Potential amp.       -0.0097 Ry
        Total length         45.7479 bohr

     End of self-consistent calculation

          k = 0.0000 0.0000 0.0000 ( 39125 PWs)   bands (ev):

   -49.7883 -49.7874 -49.7803 -49.7793 -49.5551 -49.5472 -28.4274 -28.4214
   -28.4197 -28.4106 -28.3424 -28.3384 -28.3311 -28.3284 -28.3238 -28.3165
   -28.2277 -28.2166 -28.1883 -28.1308 -28.1134 -28.0874 -28.0823 -28.0786
    -6.2374  -4.9080  -4.6609  -4.6235  -4.5971  -4.5737  -4.5187  -4.4727
    -4.4601  -4.4428  -4.2098  -4.0949  -3.9025  -3.8939  -3.8278  -3.7875
    -3.7632  -3.7547  -3.6472  -3.6334  -3.6276  -3.5611  -3.5039  -3.3655
    -3.3513  -3.2832  -3.2468  -3.1940  -3.0855  -2.8011  -2.7894  -2.6483
    -1.7783  -1.6729  -1.6416  -1.2486  -0.0332   0.3951   0.8756   0.9429
     1.1278   1.1609   1.2595   1.3007   1.4737   1.5982   1.6615   1.7052
     1.7384   1.9987   2.0373   2.1750   2.2376   2.2534   2.4101

[...]

          k = 0.0699-0.0379 0.0000 ( 39064 PWs)   bands (ev):

[...]

          k =-0.0839 0.0278 0.0000 ( 39070 PWs)   bands (ev):

[...]

          k =-0.0839-0.0606 0.0000 ( 39054 PWs)   bands (ev):

   -49.7879 -49.7870 -49.7803 -49.7794 -49.5551 -49.5468 -28.4326 -28.4189
   -28.4187 -28.4102 -28.3538 -28.3382 -28.3355 -28.3319 -28.3241 -28.3197
   -28.2286 -28.2175 -28.1901 -28.1233 -28.1201 -28.0925 -28.0840 -28.0801
    -4.9862  -4.7172  -4.6125  -4.5045  -4.2905  -4.2402  -4.2319  -4.1877
    -4.1486  -4.1248  -4.0117  -3.9280  -3.8824  -3.8640  -3.7035  -3.6949
    -3.6229  -3.6132  -3.6004  -3.5284  -3.4882  -3.4674  -3.3707  -3.3660
    -3.3582  -3.3413  -3.1974  -3.1636  -3.0219  -2.7811  -2.7706  -2.6465
    -2.0054  -1.9178  -1.7510  -1.6415  -1.5596  -0.2949  -0.2211  -0.1195
    -0.0896   0.0362   0.5790   0.6519   0.9858   1.0864   1.2190   1.2436
     1.3402   1.7454   1.7541   1.8113   1.9175   2.0031   2.0362

     the Fermi energy is     0.9836 ev

!    total energy              =   -1110.56640345 Ry
     estimated scf accuracy    <       0.00000580 Ry
     smearing contrib. (-TS)   =      -0.06206789 Ry
     internal energy E=F+TS    =   -1110.50433556 Ry

     The total energy is F=E-TS. E is the sum of the following terms:
     one-electron contribution =   -7627.89919471 Ry
     hartree contribution      =    3847.89902105 Ry
     xc contribution           =    -307.79182111 Ry
     ewald contribution        =    2977.28765419 Ry
     electric field correction =       0.00000502 Ry

     convergence has been achieved in  19 iterations

     negative rho (up, down):  7.826E-04 0.000E+00

     Forces acting on atoms (cartesian axes, Ry/au):

     atom    1 type  1   force =     0.00216367    0.00156848    0.00047259
     atom    2 type  1   force =     0.00214523    0.00156939    0.00048228
     atom    3 type  2   force =     0.00099155    0.00069060    0.01693316
     atom    4 type  2   force =     0.00099668    0.00072372    0.01692028
     atom    5 type  1   force =    -0.00247763   -0.00177344   -0.01435904
     atom    6 type  1   force =    -0.00245491   -0.00179075   -0.01437055
     atom    7 type  2   force =    -0.00039725   -0.00030295   -0.00300493
     atom    8 type  2   force =    -0.00041371   -0.00027015   -0.00299366
     atom    9 type  1   force =     0.00023157    0.00017044    0.00062084
     atom   10 type  1   force =     0.00022395    0.00014993    0.00063851
     atom   11 type  2   force =    -0.00049172   -0.00039130   -0.00066635
     atom   12 type  2   force =    -0.00051744   -0.00034395   -0.00067314

     Total force =     0.032295     Total SCF correction =     0.006008
     SCF correction compared to forces is large: reduce conv_thr to get better values

     Writing output data file ./Sc2Au2/Sc2Au2_beef.save/

     General routines

     Parallel routines

   This run was terminated on:  14:31: 1  10Jul2022

   JOB DONE.