     Program PWSCF v.6.6 starts on 10Jul2022 at 16: 7: 5

     R & G space division:  proc/nbgrp/npool/nimage =      37
     Fft bands division:     nmany     =       1
     Reading input from Sc2Cr2.in
Warning: card &CELL ignored
Warning: card / ignored

     Current dimensions of program PWSCF are:
     Max number of different atomic species (ntypx) = 10
     Max number of k-points (npk) =  40000
     Max angular momentum in pseudopotentials (lmaxx) =  3
     Presently stress not available with electric field and gates

     Message from routine cell_base_init:
     DEPRECATED: use true lattice parameter, not A to a.u. conversion factor
     file Sc.pbe-spn-rrkjus_psl.1.0.0.UPF: wavefunction(s)  3S 3P renormalized
     file Cr.pbe-spn-rrkjus_psl.1.0.0.UPF: wavefunction(s)  3P renormalized

     IMPORTANT: XC functional enforced from input :
     Exchange-correlation= BEEF-VDW
                           (   1   4  43  14   2   0   0)
     Any further DFT definition will be discarded
     Please, verify this is what you really want

     Subspace diagonalization in iterative solution of the eigenvalue problem:
     a serial algorithm will be used

     bravais-lattice index     =            0
     lattice parameter (alat)  =       1.8897  a.u.
     unit-cell volume          =    4717.1916 (a.u.)^3
     number of atoms/cell      =           12
     number of atomic types    =            2
     number of electrons       =       150.00
     number of Kohn-Sham states=           90
     kinetic-energy cutoff     =      55.1240  Ry
     charge density cutoff     =     551.2396  Ry
     convergence threshold     =      1.0E-05
     mixing beta               =       0.1000
     number of iterations used =           10  plain     mixing
     Exchange-correlation= BEEF-VDW
                           (   1   4  43  14   2   0   0)

     celldm(1)=   1.889726  celldm(2)=   0.000000  celldm(3)=   0.000000
     celldm(4)=   0.000000  celldm(5)=   0.000000  celldm(6)=   0.000000

     crystal axes: (cart. coord. in units of alat)
               a(1) = (   5.444134   0.000000   0.000000 )
               a(2) = (  -2.722067   5.210502   0.000000 )
               a(3) = (   0.000000   0.000000  24.642152 )

     reciprocal axes: (cart. coord. in units 2 pi/alat)
               b(1) = (  0.183684  0.095960 -0.000000 )
               b(2) = (  0.000000  0.191920  0.000000 )
               b(3) = (  0.000000 -0.000000  0.040581 )

     PseudoPot. # 1 for Sc read from file:
     ../pseudo/Sc.pbe-spn-rrkjus_psl.1.0.0.UPF
     MD5 check sum: f739f74c200e509e5c24cbe053202ee5
     Pseudo is Ultrasoft + core correction, Zval = 11.0
     Generated using "atomic" code by A. Dal Corso v.6.2.2
     Using radial grid of 1173 points,  6 beta functions with:
                l(1) =   0
                l(2) =   0
                l(3) =   1
                l(4) =   1
                l(5) =   2
                l(6) =   2
     Q(r) pseudized with 0 coefficients

     PseudoPot. # 2 for Cr read from file:
     ../pseudo/Cr.pbe-spn-rrkjus_psl.1.0.0.UPF
     MD5 check sum: 793d051e4f89dd1e3290b85340a92c0a
     Pseudo is Ultrasoft + core correction, Zval = 14.0
     Generated using "atomic" code by A. Dal Corso v.6.2.2
     Using radial grid of 1183 points,  6 beta functions with:
                l(1) =   0
                l(2) =   0
                l(3) =   1
                l(4) =   1
                l(5) =   2
                l(6) =   2
     Q(r) pseudized with 0 coefficients

     atomic species   valence    mass     pseudopotential
        Sc            11.00    44.95591     Sc( 1.00)
        Cr            14.00    51.99610     Cr( 1.00)

     No symmetry found

   Cartesian axes

     site n.     atom                  positions (alat units)
         1           Sc  tau(   1) = (   0.0000000   0.0000000  10.0000000  )
         2           Sc  tau(   2) = (   2.7220670   0.0000000  10.0000000  )
         3           Cr  tau(   3) = (   1.3610335   2.6052512  10.0000000  )
         4           Cr  tau(   4) = (  -1.3610335   2.6052512  10.0000000  )
         5           Sc  tau(   5) = (   2.7220670   1.4220603  12.3210758  )
         6           Sc  tau(   6) = (   0.0000000   1.4220603  12.3210758  )
         7           Cr  tau(   7) = (  -1.3610335   4.0273115  12.3210758  )
         8           Cr  tau(   8) = (   1.3610335   4.0273115  12.3210758  )
         9           Sc  tau(   9) = (  -0.0003648   2.8137876  14.8222643  )
        10           Sc  tau(  10) = (   2.7218064   2.8138110  14.8222995  )
        11           Cr  tau(  11) = (   1.3610397   5.1249293  14.2053546  )
        12           Cr  tau(  12) = (  -1.3611281   5.1251032  14.2055415  )

     number of k points=    74  Fermi-Dirac smearing, width (Ry)=  0.0100
                       cart. coord. in units 2pi/alat
        k(    1) = (   0.0000000   0.0000000   0.0000000), wk =   0.0138889
        k(    2) = (   0.0000000   0.0159933   0.0000000), wk =   0.0277778
        k(    3) = (   0.0000000   0.0319867   0.0000000), wk =   0.0277778
        k(    4) = (   0.0000000   0.0479800   0.0000000), wk =   0.0277778
        k(    5) = (   0.0000000   0.0639734   0.0000000), wk =   0.0277778
        k(    6) = (   0.0000000   0.0799667   0.0000000), wk =   0.0277778
        k(    7) = (   0.0000000  -0.0959600   0.0000000), wk =   0.0138889
        k(    8) = (   0.0153070   0.0079967   0.0000000), wk =   0.0277778
        k(    9) = (   0.0153070   0.0239900   0.0000000), wk =   0.0277778
        k(   10) = (   0.0153070   0.0399834   0.0000000), wk =   0.0277778
        k(   11) = (   0.0153070   0.0559767   0.0000000), wk =   0.0277778
        k(   12) = (   0.0153070   0.0719700   0.0000000), wk =   0.0277778
        k(   13) = (   0.0153070   0.0879634   0.0000000), wk =   0.0277778
        k(   14) = (   0.0153070  -0.0879634   0.0000000), wk =   0.0277778
        k(   15) = (   0.0153070  -0.0719700   0.0000000), wk =   0.0277778
        k(   16) = (   0.0153070  -0.0559767   0.0000000), wk =   0.0277778
        k(   17) = (   0.0153070  -0.0399834   0.0000000), wk =   0.0277778
        k(   18) = (   0.0153070  -0.0239900   0.0000000), wk =   0.0277778
        k(   19) = (   0.0153070  -0.0079967   0.0000000), wk =   0.0277778
        k(   20) = (   0.0306140   0.0159933   0.0000000), wk =   0.0277778
        k(   21) = (   0.0306140   0.0319867   0.0000000), wk =   0.0277778
        k(   22) = (   0.0306140   0.0479800   0.0000000), wk =   0.0277778
        k(   23) = (   0.0306140   0.0639734   0.0000000), wk =   0.0277778
        k(   24) = (   0.0306140   0.0799667   0.0000000), wk =   0.0277778
        k(   25) = (   0.0306140   0.0959600   0.0000000), wk =   0.0277778
        k(   26) = (   0.0306140  -0.0799667   0.0000000), wk =   0.0277778
        k(   27) = (   0.0306140  -0.0639734   0.0000000), wk =   0.0277778
        k(   28) = (   0.0306140  -0.0479800   0.0000000), wk =   0.0277778
        k(   29) = (   0.0306140  -0.0319867   0.0000000), wk =   0.0277778
        k(   30) = (   0.0306140  -0.0159933   0.0000000), wk =   0.0277778
        k(   31) = (   0.0306140  -0.0000000   0.0000000), wk =   0.0277778
        k(   32) = (   0.0459210   0.0239900   0.0000000), wk =   0.0277778
        k(   33) = (   0.0459210   0.0399834   0.0000000), wk =   0.0277778
        k(   34) = (   0.0459210   0.0559767   0.0000000), wk =   0.0277778
        k(   35) = (   0.0459210   0.0719700   0.0000000), wk =   0.0277778
        k(   36) = (   0.0459210   0.0879634   0.0000000), wk =   0.0277778
        k(   37) = (   0.0459210   0.1039567   0.0000000), wk =   0.0277778
        k(   38) = (   0.0459210  -0.0719700   0.0000000), wk =   0.0277778
        k(   39) = (   0.0459210  -0.0559767   0.0000000), wk =   0.0277778
        k(   40) = (   0.0459210  -0.0399834   0.0000000), wk =   0.0277778
        k(   41) = (   0.0459210  -0.0239900   0.0000000), wk =   0.0277778
        k(   42) = (   0.0459210  -0.0079967   0.0000000), wk =   0.0277778
        k(   43) = (   0.0459210   0.0079967   0.0000000), wk =   0.0277778
        k(   44) = (   0.0612280   0.0319867   0.0000000), wk =   0.0277778
        k(   45) = (   0.0612280   0.0479800   0.0000000), wk =   0.0277778
        k(   46) = (   0.0612280   0.0639734   0.0000000), wk =   0.0277778
        k(   47) = (   0.0612280   0.0799667   0.0000000), wk =   0.0277778
        k(   48) = (   0.0612280   0.0959600   0.0000000), wk =   0.0277778
        k(   49) = (   0.0612280   0.1119534   0.0000000), wk =   0.0277778
        k(   50) = (   0.0612280  -0.0639734   0.0000000), wk =   0.0277778
        k(   51) = (   0.0612280  -0.0479800   0.0000000), wk =   0.0277778
        k(   52) = (   0.0612280  -0.0319867   0.0000000), wk =   0.0277778
        k(   53) = (   0.0612280  -0.0159933   0.0000000), wk =   0.0277778
        k(   54) = (   0.0612280   0.0000000   0.0000000), wk =   0.0277778
        k(   55) = (   0.0612280   0.0159933   0.0000000), wk =   0.0277778
        k(   56) = (   0.0765350   0.0399834   0.0000000), wk =   0.0277778
        k(   57) = (   0.0765350   0.0559767   0.0000000), wk =   0.0277778
        k(   58) = (   0.0765350   0.0719700   0.0000000), wk =   0.0277778
        k(   59) = (   0.0765350   0.0879634   0.0000000), wk =   0.0277778
        k(   60) = (   0.0765350   0.1039567   0.0000000), wk =   0.0277778
        k(   61) = (   0.0765350   0.1199501   0.0000000), wk =   0.0277778
        k(   62) = (   0.0765350  -0.0559767   0.0000000), wk =   0.0277778
        k(   63) = (   0.0765350  -0.0399834   0.0000000), wk =   0.0277778
        k(   64) = (   0.0765350  -0.0239900   0.0000000), wk =   0.0277778
        k(   65) = (   0.0765350  -0.0079967   0.0000000), wk =   0.0277778
        k(   66) = (   0.0765350   0.0079967   0.0000000), wk =   0.0277778
        k(   67) = (   0.0765350   0.0239900   0.0000000), wk =   0.0277778
        k(   68) = (  -0.0918420  -0.0479800   0.0000000), wk =   0.0138889
        k(   69) = (  -0.0918420  -0.0319867   0.0000000), wk =   0.0277778
        k(   70) = (  -0.0918420  -0.0159933   0.0000000), wk =   0.0277778
        k(   71) = (  -0.0918420   0.0000000   0.0000000), wk =   0.0277778
        k(   72) = (  -0.0918420   0.0159933   0.0000000), wk =   0.0277778
        k(   73) = (  -0.0918420   0.0319867   0.0000000), wk =   0.0277778
        k(   74) = (  -0.0918420  -0.1439401   0.0000000), wk =   0.0138889

     Check: negative core charge=   -0.000002

     Initial potential from superposition of free atoms

     starting charge  149.97999, renormalised to  150.00000

     negative rho (up, down):  3.317E-03 0.000E+00

     %%%%%%%%%%%%%%%%%%%%%%%%%%%%%%%%%%%%%%%%%%%%%%%%%%%%%%%%%%%%%%%%%%%%%%%%
     %                                                                      %
     % You are using vdW-DF, which was implemented by the Thonhauser group. %
     % Please cite the following two papers that made this development      %
     % possible and the two reviews that describe the various versions:     %
     %                                                                      %
     %   T. Thonhauser et al., PRL 115, 136402 (2015).                      %
     %   T. Thonhauser et al., PRB 76, 125112 (2007).                       %
     %   K. Berland et al., Rep. Prog. Phys. 78, 066501 (2015).             %
     %   D.C. Langreth et al., J. Phys.: Condens. Matter 21, 084203 (2009). %
     %                                                                      %
     %                                                                      %
     % If you are calculating the stress with vdW-DF, please also cite:     %
     %                                                                      %
     %   R. Sabatini et al., J. Phys.: Condens. Matter 24, 424209 (2012).   %
     %                                                                      %
     %%%%%%%%%%%%%%%%%%%%%%%%%%%%%%%%%%%%%%%%%%%%%%%%%%%%%%%%%%%%%%%%%%%%%%%%

     Adding external electric field

     Computed dipole along edir(3) :
        Dipole                0.0026 Ry au,          0.0065 Debye
        Dipole field          0.0000 Ry au,

        Potential amp.       -0.0006 Ry
        Total length         45.4027 bohr

     Starting wfcs are  120 randomized atomic wfcs

     Self-consistent Calculation

     iteration #  1     ecut=    55.12 Ry     beta= 0.10
     Davidson diagonalization with overlap
     ethr =  1.00E-02,  avg # of iterations =  2.0

[...]

     total energy              =   -1642.79502588 Ry
     estimated scf accuracy    <      16.54675480 Ry

[...]

     iteration #  6     ecut=    55.12 Ry     beta= 0.10
     Davidson diagonalization with overlap
     c_bands:  3 eigenvalues not converged
     c_bands:  3 eigenvalues not converged
     c_bands:  1 eigenvalues not converged
     ethr =  6.34E-04,  avg # of iterations = 11.8

[...]

     iteration # 24     ecut=    55.12 Ry     beta= 0.10
     Davidson diagonalization with overlap
     ethr =  2.48E-08,  avg # of iterations =  1.9

[...]

     total energy              =   -1645.22744982 Ry
     estimated scf accuracy    <       0.00001015 Ry

     iteration # 26     ecut=    55.12 Ry     beta= 0.10
     Davidson diagonalization with overlap
     c_bands:  1 eigenvalues not converged
     ethr =  6.77E-09,  avg # of iterations =  8.0

[...]

     Adding external electric field

     Computed dipole along edir(3) :
        Dipole                0.2257 Ry au,          0.5738 Debye
        Dipole field          0.0006 Ry au,

        Potential amp.       -0.0546 Ry
        Total length         45.4027 bohr

     End of self-consistent calculation

          k = 0.0000 0.0000 0.0000 ( 32537 PWs)   bands (ev):

   -70.5575 -70.5298 -70.4434 -70.4163 -70.3236 -70.2968 -48.6516 -48.5001
   -48.4889 -48.3363 -47.9996 -47.8457 -42.2271 -42.1963 -41.9294 -41.8370
   -41.7887 -41.7832 -41.7629 -41.7576 -41.7293 -41.6848 -41.6829 -41.6588
   -41.6078 -41.5960 -41.5826 -41.4905 -41.3564 -41.3368 -27.7318 -27.6298
   -27.3995 -27.2630 -27.2514 -27.1693 -27.1665 -27.1169 -27.0424 -26.9896
   -26.8601 -26.7362 -26.6308 -26.5525 -26.5170 -26.4359 -26.3850 -26.1617
    -4.4939  -3.0304  -1.8644  -1.6827  -1.4894  -1.4208  -1.2824  -1.2651
    -1.1519  -0.8674  -0.8354  -0.7144  -0.6834  -0.6819  -0.4091  -0.0848
     0.0135   0.1048   0.1829   0.3289   0.4477   0.8021   1.0475   1.1070
     1.1881   1.2227   1.2327   1.4434   1.4647   1.5898   1.6750   1.7298
     1.7843   1.8809   1.9210   2.0354   2.1097   2.1287   2.1455   2.2290
     2.2487   2.3502

[...]

          k = 0.0765 0.0240 0.0000 ( 32579 PWs)   bands (ev):

[...]

          k =-0.0918-0.0480 0.0000 ( 32600 PWs)   bands (ev):

[...]

          k =-0.0918-0.1439 0.0000 ( 32600 PWs)   bands (ev):

   -70.5437 -70.5437 -70.4300 -70.4298 -70.3105 -70.3099 -48.5768 -48.5767
   -48.4136 -48.4135 -47.9236 -47.9235 -42.2115 -42.2114 -41.8068 -41.8067
   -41.7752 -41.7751 -41.7701 -41.7701 -41.7173 -41.7170 -41.6715 -41.6713
   -41.6111 -41.6104 -41.5954 -41.5948 -41.3469 -41.3462 -27.3321 -27.3321
   -27.2486 -27.2483 -27.1857 -27.1856 -27.1448 -27.1446 -27.1080 -27.1079
   -26.9277 -26.9275 -26.6789 -26.6788 -26.4939 -26.4938 -26.4539 -26.4538
    -2.8483  -2.8482  -1.6745  -1.6745  -1.0793  -1.0791  -0.8384  -0.8384
    -0.7218  -0.7217  -0.4459  -0.4459  -0.1748  -0.1747  -0.0467  -0.0466
     0.1659   0.1660   0.3419   0.3420   0.5738   0.5739   0.6231   0.6232
     0.7468   0.7469   0.8116   0.8118   1.1062   1.1064   1.2414   1.2414
     1.4571   1.4572   1.5633   1.5634   1.8463   1.8463   2.1181   2.1181
     2.4106   2.4120

     the Fermi energy is     1.0304 ev

!    total energy              =   -1645.22745346 Ry
     estimated scf accuracy    <       0.00000356 Ry
     smearing contrib. (-TS)   =      -0.10260525 Ry
     internal energy E=F+TS    =   -1645.12484822 Ry

     The total energy is F=E-TS. E is the sum of the following terms:
     one-electron contribution =  -12422.73008950 Ry
     hartree contribution      =    6201.19687508 Ry
     xc contribution           =    -247.90258325 Ry
     ewald contribution        =    4824.31081370 Ry
     electric field correction =       0.00013576 Ry

     convergence has been achieved in  26 iterations

     negative rho (up, down):  2.871E-03 0.000E+00

     Forces acting on atoms (cartesian axes, Ry/au):

     atom    1 type  1   force =     0.00000994   -0.02033133   -0.03341917
     atom    2 type  1   force =     0.00000263   -0.02033985   -0.03341437
     atom    3 type  2   force =     0.00000459    0.01279989    0.04304620
     atom    4 type  2   force =     0.00000616    0.01279974    0.04297147
     atom    5 type  1   force =    -0.00003928    0.01826647   -0.01119532
     atom    6 type  1   force =     0.00002870    0.01828276   -0.01120869
     atom    7 type  2   force =     0.00005007   -0.00993518    0.00182706
     atom    8 type  2   force =     0.00003938   -0.01000348    0.00170907
     atom    9 type  1   force =     0.00000231   -0.00048821    0.00049870
     atom   10 type  1   force =     0.00000428   -0.00048461    0.00053828
     atom   11 type  2   force =    -0.00004818   -0.00030733   -0.00068833
     atom   12 type  2   force =    -0.00006060   -0.00025887   -0.00066490

     Total force =     0.090629     Total SCF correction =     0.009308
     SCF correction compared to forces is large: reduce conv_thr to get better values

     Writing output data file ./Sc2Cr2/Sc2Cr2_beef.save/

     General routines

     Parallel routines

   This run was terminated on:  17:39: 8  10Jul2022

   JOB DONE.