     Program PWSCF v.6.6 starts on 10Jul2022 at 14:31: 4

     R & G space division:  proc/nbgrp/npool/nimage =      37
     Fft bands division:     nmany     =       1
     Reading input from Sc2Cd2.in
Warning: card &CELL ignored
Warning: card / ignored

     Current dimensions of program PWSCF are:
     Max number of different atomic species (ntypx) = 10
     Max number of k-points (npk) =  40000
     Max angular momentum in pseudopotentials (lmaxx) =  3
     Presently stress not available with electric field and gates

     Message from routine cell_base_init:
     DEPRECATED: use true lattice parameter, not A to a.u. conversion factor
     file Sc.pbe-spn-rrkjus_psl.1.0.0.UPF: wavefunction(s)  3S 3P renormalized
     file Cd.pbe-n-rrkjus_psl.1.0.0.UPF: wavefunction(s)  4D renormalized

     IMPORTANT: XC functional enforced from input :
     Exchange-correlation= BEEF-VDW
                           (   1   4  43  14   2   0   0)
     Any further DFT definition will be discarded
     Please, verify this is what you really want

     Subspace diagonalization in iterative solution of the eigenvalue problem:
     a serial algorithm will be used

     Found symmetry operation: I + ( -0.5000  0.5000  0.0000)
     This is a supercell, fractional translations are disabled

     bravais-lattice index     =            0
     lattice parameter (alat)  =       1.8897  a.u.
     unit-cell volume          =    6052.4265 (a.u.)^3
     number of atoms/cell      =           12
     number of atomic types    =            2
     number of electrons       =       138.00
     number of Kohn-Sham states=           83
     kinetic-energy cutoff     =      55.1240  Ry
     charge density cutoff     =     551.2396  Ry
     convergence threshold     =      1.0E-05
     mixing beta               =       0.1000
     number of iterations used =           10  plain     mixing
     Exchange-correlation= BEEF-VDW
                           (   1   4  43  14   2   0   0)

     celldm(1)=   1.889726  celldm(2)=   0.000000  celldm(3)=   0.000000
     celldm(4)=   0.000000  celldm(5)=   0.000000  celldm(6)=   0.000000

     crystal axes: (cart. coord. in units of alat)
               a(1) = (   6.163763   0.000000   0.000000 )
               a(2) = (   2.049368   5.813095   0.000000 )
               a(3) = (   0.000000   0.000000  25.031084 )

     reciprocal axes: (cart. coord. in units 2 pi/alat)
               b(1) = (  0.162239 -0.057196  0.000000 )
               b(2) = (  0.000000  0.172025  0.000000 )
               b(3) = (  0.000000  0.000000  0.039950 )

     PseudoPot. # 1 for Sc read from file:
     ../pseudo/Sc.pbe-spn-rrkjus_psl.1.0.0.UPF
     MD5 check sum: f739f74c200e509e5c24cbe053202ee5
     Pseudo is Ultrasoft + core correction, Zval = 11.0
     Generated using "atomic" code by A. Dal Corso v.6.2.2
     Using radial grid of 1173 points,  6 beta functions with:
                l(1) =   0
                l(2) =   0
                l(3) =   1
                l(4) =   1
                l(5) =   2
                l(6) =   2
     Q(r) pseudized with 0 coefficients

     PseudoPot. # 2 for Cd read from file:
     ../pseudo/Cd.pbe-n-rrkjus_psl.1.0.0.UPF
     MD5 check sum: a744746c89d2344a134ead0d8ab94e7a
     Pseudo is Ultrasoft + core correction, Zval = 12.0
     Generated using "atomic" code by A. Dal Corso v.6.3
     Using radial grid of 1239 points,  6 beta functions with:
                l(1) =   0
                l(2) =   0
                l(3) =   1
                l(4) =   1
                l(5) =   2
                l(6) =   2
     Q(r) pseudized with 0 coefficients

     atomic species   valence    mass     pseudopotential
        Sc            11.00    44.95591     Sc( 1.00)
        Cd            12.00   112.41400     Cd( 1.00)

     No symmetry found

   Cartesian axes

     site n.     atom                  positions (alat units)
         1           Sc  tau(   1) = (   0.0000000   0.0000000  10.0000000  )
         2           Sc  tau(   2) = (   4.1065656   2.9065473  10.0000000  )
         3           Cd  tau(   3) = (   3.0818817   0.0000000  10.0000000  )
         4           Cd  tau(   4) = (   1.0246839   2.9065473  10.0000000  )
         5           Sc  tau(   5) = (   6.1637633   4.3625919  12.5155420  )
         6           Sc  tau(   6) = (   2.0571977   1.4560446  12.5155420  )
         7           Cd  tau(   7) = (   3.0818817   4.3625919  12.5155420  )
         8           Cd  tau(   8) = (   5.1390794   1.4560446  12.5155420  )
         9           Sc  tau(   9) = (   4.1138510   2.9117259  14.9859261  )
        10           Sc  tau(  10) = (   0.0072937   0.0051472  14.9859753  )
        11           Cd  tau(  11) = (   1.0323896   2.9120047  15.0583669  )
        12           Cd  tau(  12) = (   3.0895602   0.0054171  15.0583981  )

     number of k points=    74  Fermi-Dirac smearing, width (Ry)=  0.0100
                       cart. coord. in units 2pi/alat
        k(    1) = (   0.0000000   0.0000000   0.0000000), wk =   0.0138889
        k(    2) = (   0.0000000   0.0143355   0.0000000), wk =   0.0277778
        k(    3) = (   0.0000000   0.0286709   0.0000000), wk =   0.0277778
        k(    4) = (   0.0000000   0.0430064   0.0000000), wk =   0.0277778
        k(    5) = (   0.0000000   0.0573418   0.0000000), wk =   0.0277778
        k(    6) = (   0.0000000   0.0716773   0.0000000), wk =   0.0277778
        k(    7) = (   0.0000000  -0.0860127   0.0000000), wk =   0.0138889
        k(    8) = (   0.0135199  -0.0047663   0.0000000), wk =   0.0277778
        k(    9) = (   0.0135199   0.0095691   0.0000000), wk =   0.0277778
        k(   10) = (   0.0135199   0.0239046   0.0000000), wk =   0.0277778
        k(   11) = (   0.0135199   0.0382400   0.0000000), wk =   0.0277778
        k(   12) = (   0.0135199   0.0525755   0.0000000), wk =   0.0277778
        k(   13) = (   0.0135199   0.0669109   0.0000000), wk =   0.0277778
        k(   14) = (   0.0135199  -0.0907790   0.0000000), wk =   0.0277778
        k(   15) = (   0.0135199  -0.0764436   0.0000000), wk =   0.0277778
        k(   16) = (   0.0135199  -0.0621081   0.0000000), wk =   0.0277778
        k(   17) = (   0.0135199  -0.0477727   0.0000000), wk =   0.0277778
        k(   18) = (   0.0135199  -0.0334372   0.0000000), wk =   0.0277778
        k(   19) = (   0.0135199  -0.0191018   0.0000000), wk =   0.0277778
        k(   20) = (   0.0270398  -0.0095327   0.0000000), wk =   0.0277778
        k(   21) = (   0.0270398   0.0048028   0.0000000), wk =   0.0277778
        k(   22) = (   0.0270398   0.0191382   0.0000000), wk =   0.0277778
        k(   23) = (   0.0270398   0.0334737   0.0000000), wk =   0.0277778
        k(   24) = (   0.0270398   0.0478091   0.0000000), wk =   0.0277778
        k(   25) = (   0.0270398   0.0621446   0.0000000), wk =   0.0277778
        k(   26) = (   0.0270398  -0.0955454   0.0000000), wk =   0.0277778
        k(   27) = (   0.0270398  -0.0812099   0.0000000), wk =   0.0277778
        k(   28) = (   0.0270398  -0.0668745   0.0000000), wk =   0.0277778
        k(   29) = (   0.0270398  -0.0525390   0.0000000), wk =   0.0277778
        k(   30) = (   0.0270398  -0.0382036   0.0000000), wk =   0.0277778
        k(   31) = (   0.0270398  -0.0238681   0.0000000), wk =   0.0277778
        k(   32) = (   0.0405596  -0.0142990   0.0000000), wk =   0.0277778
        k(   33) = (   0.0405596   0.0000364   0.0000000), wk =   0.0277778
        k(   34) = (   0.0405596   0.0143719   0.0000000), wk =   0.0277778
        k(   35) = (   0.0405596   0.0287073   0.0000000), wk =   0.0277778
        k(   36) = (   0.0405596   0.0430428   0.0000000), wk =   0.0277778
        k(   37) = (   0.0405596   0.0573782   0.0000000), wk =   0.0277778
        k(   38) = (   0.0405596  -0.1003117   0.0000000), wk =   0.0277778
        k(   39) = (   0.0405596  -0.0859763   0.0000000), wk =   0.0277778
        k(   40) = (   0.0405596  -0.0716408   0.0000000), wk =   0.0277778
        k(   41) = (   0.0405596  -0.0573054   0.0000000), wk =   0.0277778
        k(   42) = (   0.0405596  -0.0429699   0.0000000), wk =   0.0277778
        k(   43) = (   0.0405596  -0.0286345   0.0000000), wk =   0.0277778
        k(   44) = (   0.0540795  -0.0190654   0.0000000), wk =   0.0277778
        k(   45) = (   0.0540795  -0.0047299   0.0000000), wk =   0.0277778
        k(   46) = (   0.0540795   0.0096055   0.0000000), wk =   0.0277778
        k(   47) = (   0.0540795   0.0239410   0.0000000), wk =   0.0277778
        k(   48) = (   0.0540795   0.0382764   0.0000000), wk =   0.0277778
        k(   49) = (   0.0540795   0.0526119   0.0000000), wk =   0.0277778
        k(   50) = (   0.0540795  -0.1050781   0.0000000), wk =   0.0277778
        k(   51) = (   0.0540795  -0.0907426   0.0000000), wk =   0.0277778
        k(   52) = (   0.0540795  -0.0764072   0.0000000), wk =   0.0277778
        k(   53) = (   0.0540795  -0.0620717   0.0000000), wk =   0.0277778
        k(   54) = (   0.0540795  -0.0477363   0.0000000), wk =   0.0277778
        k(   55) = (   0.0540795  -0.0334008   0.0000000), wk =   0.0277778
        k(   56) = (   0.0675994  -0.0238317   0.0000000), wk =   0.0277778
        k(   57) = (   0.0675994  -0.0094963   0.0000000), wk =   0.0277778
        k(   58) = (   0.0675994   0.0048392   0.0000000), wk =   0.0277778
        k(   59) = (   0.0675994   0.0191746   0.0000000), wk =   0.0277778
        k(   60) = (   0.0675994   0.0335101   0.0000000), wk =   0.0277778
        k(   61) = (   0.0675994   0.0478455   0.0000000), wk =   0.0277778
        k(   62) = (   0.0675994  -0.1098444   0.0000000), wk =   0.0277778
        k(   63) = (   0.0675994  -0.0955090   0.0000000), wk =   0.0277778
        k(   64) = (   0.0675994  -0.0811735   0.0000000), wk =   0.0277778
        k(   65) = (   0.0675994  -0.0668381   0.0000000), wk =   0.0277778
        k(   66) = (   0.0675994  -0.0525026   0.0000000), wk =   0.0277778
        k(   67) = (   0.0675994  -0.0381672   0.0000000), wk =   0.0277778
        k(   68) = (  -0.0811193   0.0285981   0.0000000), wk =   0.0138889
        k(   69) = (  -0.0811193   0.0429335   0.0000000), wk =   0.0277778
        k(   70) = (  -0.0811193   0.0572690   0.0000000), wk =   0.0277778
        k(   71) = (  -0.0811193   0.0716044   0.0000000), wk =   0.0277778
        k(   72) = (  -0.0811193   0.0859399   0.0000000), wk =   0.0277778
        k(   73) = (  -0.0811193   0.1002753   0.0000000), wk =   0.0277778
        k(   74) = (  -0.0811193  -0.0574146   0.0000000), wk =   0.0138889

     Check: negative core charge=   -0.000001

     Initial potential from superposition of free atoms

     starting charge  137.95533, renormalised to  138.00000

     negative rho (up, down):  3.032E-03 0.000E+00

     %%%%%%%%%%%%%%%%%%%%%%%%%%%%%%%%%%%%%%%%%%%%%%%%%%%%%%%%%%%%%%%%%%%%%%%%
     %                                                                      %
     % You are using vdW-DF, which was implemented by the Thonhauser group. %
     % Please cite the following two papers that made this development      %
     % possible and the two reviews that describe the various versions:     %
     %                                                                      %
     %   T. Thonhauser et al., PRL 115, 136402 (2015).                      %
     %   T. Thonhauser et al., PRB 76, 125112 (2007).                       %
     %   K. Berland et al., Rep. Prog. Phys. 78, 066501 (2015).             %
     %   D.C. Langreth et al., J. Phys.: Condens. Matter 21, 084203 (2009). %
     %                                                                      %
     %                                                                      %
     % If you are calculating the stress with vdW-DF, please also cite:     %
     %                                                                      %
     %   R. Sabatini et al., J. Phys.: Condens. Matter 24, 424209 (2012).   %
     %                                                                      %
     %%%%%%%%%%%%%%%%%%%%%%%%%%%%%%%%%%%%%%%%%%%%%%%%%%%%%%%%%%%%%%%%%%%%%%%%

     Adding external electric field

     Computed dipole along edir(3) :
        Dipole                0.0003 Ry au,          0.0007 Debye
        Dipole field          0.0000 Ry au,

        Potential amp.       -0.0001 Ry
        Total length         46.1193 bohr

     Starting wfcs are  114 randomized atomic wfcs

     Self-consistent Calculation

     iteration #  1     ecut=    55.12 Ry     beta= 0.10
     Davidson diagonalization with overlap
     ethr =  1.00E-02,  avg # of iterations =  1.8

[...]

     total energy              =   -1198.14331034 Ry
     estimated scf accuracy    <       1.71914997 Ry

[...]

     iteration #  5     ecut=    55.12 Ry     beta= 0.10
     Davidson diagonalization with overlap
     ethr =  2.53E-04,  avg # of iterations = 10.8

[...]

     iteration #  6     ecut=    55.12 Ry     beta= 0.10
     Davidson diagonalization with overlap
     c_bands:  2 eigenvalues not converged
     c_bands:  1 eigenvalues not converged
     c_bands:  1 eigenvalues not converged
     c_bands:  1 eigenvalues not converged
     c_bands:  2 eigenvalues not converged
     c_bands:  1 eigenvalues not converged
     c_bands:  1 eigenvalues not converged
     c_bands:  2 eigenvalues not converged
     c_bands:  1 eigenvalues not converged
     c_bands:  2 eigenvalues not converged
     c_bands:  1 eigenvalues not converged
     c_bands:  1 eigenvalues not converged
     c_bands:  1 eigenvalues not converged
     c_bands:  1 eigenvalues not converged
     c_bands:  1 eigenvalues not converged
     c_bands:  1 eigenvalues not converged
     c_bands:  1 eigenvalues not converged
     ethr =  3.89E-05,  avg # of iterations = 13.1

[...]

     total energy              =   -1198.50688796 Ry
     estimated scf accuracy    <       0.00001737 Ry

     iteration # 19     ecut=    55.12 Ry     beta= 0.10
     Davidson diagonalization with overlap
     c_bands:  1 eigenvalues not converged
     c_bands:  1 eigenvalues not converged
     c_bands:  1 eigenvalues not converged
     c_bands:  1 eigenvalues not converged
     c_bands:  3 eigenvalues not converged
     c_bands:  1 eigenvalues not converged
     c_bands:  1 eigenvalues not converged
     c_bands:  2 eigenvalues not converged
     c_bands:  2 eigenvalues not converged
     c_bands:  1 eigenvalues not converged
     c_bands:  1 eigenvalues not converged
     c_bands:  2 eigenvalues not converged
     c_bands:  1 eigenvalues not converged
     c_bands:  1 eigenvalues not converged
     c_bands:  1 eigenvalues not converged
     c_bands:  1 eigenvalues not converged
     c_bands:  1 eigenvalues not converged
     c_bands:  1 eigenvalues not converged
     c_bands:  2 eigenvalues not converged
     c_bands:  1 eigenvalues not converged
     c_bands:  2 eigenvalues not converged
     c_bands:  1 eigenvalues not converged
     c_bands:  4 eigenvalues not converged
     c_bands:  1 eigenvalues not converged
     c_bands:  2 eigenvalues not converged
     ethr =  1.26E-08,  avg # of iterations = 16.3

[...]

     Adding external electric field

     Computed dipole along edir(3) :
        Dipole               -0.0183 Ry au,         -0.0464 Debye
        Dipole field         -0.0000 Ry au,

        Potential amp.        0.0035 Ry
        Total length         46.1193 bohr

     End of self-consistent calculation

          k = 0.0000 0.0000 0.0000 ( 41891 PWs)   bands (ev):

   -50.1049 -50.0988 -50.0753 -50.0691 -49.8846 -49.8784 -28.7587 -28.7511
   -28.7263 -28.7186 -28.6677 -28.6617 -28.6435 -28.6372 -28.6320 -28.6069
   -28.5490 -28.5235 -28.4944 -28.4719 -28.4594 -28.4497 -28.4423 -28.4076
    -8.5270  -8.5255  -8.5235  -8.5007  -8.4777  -8.4413  -8.4216  -8.3902
    -8.3487  -8.3424  -8.3412  -8.3178  -8.3171  -8.3159  -8.3119  -8.3005
    -8.2830  -8.2774  -8.2761  -8.2501  -8.2439  -8.2208  -8.2096  -8.2084
    -8.1570  -8.1427  -8.0457  -8.0356  -7.9960  -7.9739  -6.1807  -4.7282
    -3.0646  -2.7768  -2.5373  -2.2860  -1.0213  -0.7740  -0.3051  -0.0842
    -0.0553   0.0545   0.0843   0.3370   0.3531   0.5440   0.8466   0.8531
     0.8821   1.0871   1.1104   1.1794   1.1972   1.2165   1.5066   1.6230
     1.6730   1.9575   2.0048

[...]

          k = 0.0676-0.0382 0.0000 ( 41861 PWs)   bands (ev):

[...]

          k =-0.0811 0.0286 0.0000 ( 41840 PWs)   bands (ev):

[...]

          k =-0.0811-0.0574 0.0000 ( 41842 PWs)   bands (ev):

   -50.1048 -50.0989 -50.0751 -50.0691 -49.8847 -49.8783 -28.7595 -28.7506
   -28.7268 -28.7180 -28.6720 -28.6604 -28.6475 -28.6361 -28.6333 -28.6082
   -28.5493 -28.5237 -28.4950 -28.4679 -28.4630 -28.4524 -28.4423 -28.4082
    -8.4799  -8.4568  -8.4538  -8.4412  -8.4178  -8.4174  -8.4092  -8.3738
    -8.3482  -8.3328  -8.3225  -8.2825  -8.2820  -8.2789  -8.2754  -8.2674
    -8.2644  -8.2526  -8.2468  -8.2381  -8.2163  -8.2136  -8.2046  -8.1804
    -8.1711  -8.1677  -8.1305  -8.0484  -8.0229  -7.9638  -4.5646  -4.5524
    -3.5084  -3.4243  -2.5436  -2.4899  -2.4598  -1.3168  -1.1620  -0.7886
    -0.7203  -0.6543  -0.6533   0.0643   0.1689   0.2989   0.5662   0.6037
     0.7902   1.0010   1.2458   1.2708   1.3442   1.4988   1.5145   1.5382
     1.7234   1.7917   1.8164

     the Fermi energy is     0.4456 ev

!    total energy              =   -1198.50690091 Ry
     estimated scf accuracy    <       0.00000278 Ry
     smearing contrib. (-TS)   =      -0.07310880 Ry
     internal energy E=F+TS    =   -1198.43379211 Ry

     The total energy is F=E-TS. E is the sum of the following terms:
     one-electron contribution =   -7790.53757376 Ry
     hartree contribution      =    3926.92663752 Ry
     xc contribution           =    -251.24302581 Ry
     ewald contribution        =    2916.42016924 Ry
     electric field correction =       0.00000069 Ry

     convergence has been achieved in  19 iterations

     negative rho (up, down):  2.787E-03 0.000E+00

     Forces acting on atoms (cartesian axes, Ry/au):

     atom    1 type  1   force =     0.00003479    0.00002727    0.00408209
     atom    2 type  1   force =     0.00004478    0.00002432    0.00408712
     atom    3 type  2   force =     0.00002859    0.00002313   -0.00104127
     atom    4 type  2   force =     0.00004161    0.00002217   -0.00103743
     atom    5 type  1   force =     0.00000093    0.00000278    0.00107031
     atom    6 type  1   force =     0.00000668   -0.00000139    0.00108360
     atom    7 type  2   force =    -0.00000792    0.00000749   -0.00331842
     atom    8 type  2   force =    -0.00000786   -0.00000179   -0.00331773
     atom    9 type  1   force =     0.00000362   -0.00000771    0.00008536
     atom   10 type  1   force =    -0.00000272   -0.00000323    0.00007655
     atom   11 type  2   force =    -0.00007779   -0.00004455   -0.00088984
     atom   12 type  2   force =    -0.00006470   -0.00004849   -0.00088033

     Total force =     0.007840     Total SCF correction =     0.003099
     SCF correction compared to forces is large: reduce conv_thr to get better values

     Writing output data file ./Sc2Cd2/Sc2Cd2_beef.save/

     General routines

     Parallel routines

   This run was terminated on:  16: 7: 3  10Jul2022

   JOB DONE.