     Program PWSCF v.6.6 starts on 11Jul2022 at  3:49:18

     R & G space division:  proc/nbgrp/npool/nimage =      37
     Fft bands division:     nmany     =       1
     Reading input from Sc2Cu2.in
Warning: card &CELL ignored
Warning: card / ignored

     Current dimensions of program PWSCF are:
     Max number of different atomic species (ntypx) = 10
     Max number of k-points (npk) =  40000
     Max angular momentum in pseudopotentials (lmaxx) =  3
     Presently stress not available with electric field and gates

     Message from routine cell_base_init:
     DEPRECATED: use true lattice parameter, not A to a.u. conversion factor
     file Sc.pbe-spn-rrkjus_psl.1.0.0.UPF: wavefunction(s)  3S 3P renormalized
     file Cu.pbe-dn-rrkjus_psl.1.0.0.UPF: wavefunction(s)  3D renormalized

     IMPORTANT: XC functional enforced from input :
     Exchange-correlation= BEEF-VDW
                           (   1   4  43  14   2   0   0)
     Any further DFT definition will be discarded
     Please, verify this is what you really want

     Subspace diagonalization in iterative solution of the eigenvalue problem:
     a serial algorithm will be used

     Found symmetry operation: I + (  0.5000 -0.5000  0.0000)
     This is a supercell, fractional translations are disabled

     bravais-lattice index     =            0
     lattice parameter (alat)  =       1.8897  a.u.
     unit-cell volume          =    5006.5884 (a.u.)^3
     number of atoms/cell      =           12
     number of atomic types    =            2
     number of electrons       =       132.00
     number of Kohn-Sham states=           79
     kinetic-energy cutoff     =      55.1240  Ry
     charge density cutoff     =     551.2396  Ry
     convergence threshold     =      1.0E-05
     mixing beta               =       0.1000
     number of iterations used =           10  plain     mixing
     Exchange-correlation= BEEF-VDW
                           (   1   4  43  14   2   0   0)

     celldm(1)=   1.889726  celldm(2)=   0.000000  celldm(3)=   0.000000
     celldm(4)=   0.000000  celldm(5)=   0.000000  celldm(6)=   0.000000

     crystal axes: (cart. coord. in units of alat)
               a(1) = (   5.657904   0.000000   0.000000 )
               a(2) = (   1.914135   5.324280   0.000000 )
               a(3) = (   0.000000   0.000000  24.627987 )

     reciprocal axes: (cart. coord. in units 2 pi/alat)
               b(1) = (  0.176744 -0.063541  0.000000 )
               b(2) = (  0.000000  0.187819  0.000000 )
               b(3) = (  0.000000  0.000000  0.040604 )

     PseudoPot. # 1 for Sc read from file:
     ../pseudo/Sc.pbe-spn-rrkjus_psl.1.0.0.UPF
     MD5 check sum: f739f74c200e509e5c24cbe053202ee5
     Pseudo is Ultrasoft + core correction, Zval = 11.0
     Generated using "atomic" code by A. Dal Corso v.6.2.2
     Using radial grid of 1173 points,  6 beta functions with:
                l(1) =   0
                l(2) =   0
                l(3) =   1
                l(4) =   1
                l(5) =   2
                l(6) =   2
     Q(r) pseudized with 0 coefficients

     PseudoPot. # 2 for Cu read from file:
     ../pseudo/Cu.pbe-dn-rrkjus_psl.1.0.0.UPF
     MD5 check sum: 8469560995d0c2df1ffe68c099c04a63
     Pseudo is Ultrasoft + core correction, Zval = 11.0
     Generated using "atomic" code by A. Dal Corso v.6.3
     Using radial grid of 1199 points,  6 beta functions with:
                l(1) =   0
                l(2) =   0
                l(3) =   1
                l(4) =   1
                l(5) =   2
                l(6) =   2
     Q(r) pseudized with 0 coefficients

     atomic species   valence    mass     pseudopotential
        Sc            11.00    44.95591     Sc( 1.00)
        Cu            11.00    63.54600     Cu( 1.00)

     No symmetry found

   Cartesian axes

     site n.     atom                  positions (alat units)
         1           Sc  tau(   1) = (   0.0000000   0.0000000  10.0000000  )
         2           Sc  tau(   2) = (   3.7860195   2.6621401  10.0000000  )
         3           Cu  tau(   3) = (   2.8289519   0.0000000  10.0000000  )
         4           Cu  tau(   4) = (   0.9570677   2.6621401  10.0000000  )
         5           Sc  tau(   5) = (   5.6579037   3.9783558  12.3139936  )
         6           Sc  tau(   6) = (   1.8718842   1.3162156  12.3139936  )
         7           Cu  tau(   7) = (   2.8289519   3.9783558  12.3139936  )
         8           Cu  tau(   8) = (   4.7008361   1.3162156  12.3139936  )
         9           Sc  tau(   9) = (   3.7508771   2.6374261  14.6277014  )
        10           Sc  tau(  10) = (   7.5369120   5.2995811  14.6277043  )
        11           Cu  tau(  11) = (   6.5777044   2.6359576  14.4553799  )
        12           Cu  tau(  12) = (   4.7058485   5.2980818  14.4553777  )

     number of k points=    74  Fermi-Dirac smearing, width (Ry)=  0.0100
                       cart. coord. in units 2pi/alat
        k(    1) = (   0.0000000   0.0000000   0.0000000), wk =   0.0138889
        k(    2) = (   0.0000000   0.0156516   0.0000000), wk =   0.0277778
        k(    3) = (   0.0000000   0.0313031   0.0000000), wk =   0.0277778
        k(    4) = (   0.0000000   0.0469547   0.0000000), wk =   0.0277778
        k(    5) = (   0.0000000   0.0626063   0.0000000), wk =   0.0277778
        k(    6) = (   0.0000000   0.0782578   0.0000000), wk =   0.0277778
        k(    7) = (   0.0000000  -0.0939094   0.0000000), wk =   0.0138889
        k(    8) = (   0.0147287  -0.0052951   0.0000000), wk =   0.0277778
        k(    9) = (   0.0147287   0.0103565   0.0000000), wk =   0.0277778
        k(   10) = (   0.0147287   0.0260080   0.0000000), wk =   0.0277778
        k(   11) = (   0.0147287   0.0416596   0.0000000), wk =   0.0277778
        k(   12) = (   0.0147287   0.0573112   0.0000000), wk =   0.0277778
        k(   13) = (   0.0147287   0.0729627   0.0000000), wk =   0.0277778
        k(   14) = (   0.0147287  -0.0992045   0.0000000), wk =   0.0277778
        k(   15) = (   0.0147287  -0.0835530   0.0000000), wk =   0.0277778
        k(   16) = (   0.0147287  -0.0679014   0.0000000), wk =   0.0277778
        k(   17) = (   0.0147287  -0.0522498   0.0000000), wk =   0.0277778
        k(   18) = (   0.0147287  -0.0365982   0.0000000), wk =   0.0277778
        k(   19) = (   0.0147287  -0.0209467   0.0000000), wk =   0.0277778
        k(   20) = (   0.0294573  -0.0105902   0.0000000), wk =   0.0277778
        k(   21) = (   0.0294573   0.0050614   0.0000000), wk =   0.0277778
        k(   22) = (   0.0294573   0.0207129   0.0000000), wk =   0.0277778
        k(   23) = (   0.0294573   0.0363645   0.0000000), wk =   0.0277778
        k(   24) = (   0.0294573   0.0520161   0.0000000), wk =   0.0277778
        k(   25) = (   0.0294573   0.0676676   0.0000000), wk =   0.0277778
        k(   26) = (   0.0294573  -0.1044996   0.0000000), wk =   0.0277778
        k(   27) = (   0.0294573  -0.0888481   0.0000000), wk =   0.0277778
        k(   28) = (   0.0294573  -0.0731965   0.0000000), wk =   0.0277778
        k(   29) = (   0.0294573  -0.0575449   0.0000000), wk =   0.0277778
        k(   30) = (   0.0294573  -0.0418934   0.0000000), wk =   0.0277778
        k(   31) = (   0.0294573  -0.0262418   0.0000000), wk =   0.0277778
        k(   32) = (   0.0441860  -0.0158853   0.0000000), wk =   0.0277778
        k(   33) = (   0.0441860  -0.0002338   0.0000000), wk =   0.0277778
        k(   34) = (   0.0441860   0.0154178   0.0000000), wk =   0.0277778
        k(   35) = (   0.0441860   0.0310694   0.0000000), wk =   0.0277778
        k(   36) = (   0.0441860   0.0467209   0.0000000), wk =   0.0277778
        k(   37) = (   0.0441860   0.0623725   0.0000000), wk =   0.0277778
        k(   38) = (   0.0441860  -0.1097947   0.0000000), wk =   0.0277778
        k(   39) = (   0.0441860  -0.0941432   0.0000000), wk =   0.0277778
        k(   40) = (   0.0441860  -0.0784916   0.0000000), wk =   0.0277778
        k(   41) = (   0.0441860  -0.0628400   0.0000000), wk =   0.0277778
        k(   42) = (   0.0441860  -0.0471885   0.0000000), wk =   0.0277778
        k(   43) = (   0.0441860  -0.0315369   0.0000000), wk =   0.0277778
        k(   44) = (   0.0589146  -0.0211804   0.0000000), wk =   0.0277778
        k(   45) = (   0.0589146  -0.0055289   0.0000000), wk =   0.0277778
        k(   46) = (   0.0589146   0.0101227   0.0000000), wk =   0.0277778
        k(   47) = (   0.0589146   0.0257743   0.0000000), wk =   0.0277778
        k(   48) = (   0.0589146   0.0414258   0.0000000), wk =   0.0277778
        k(   49) = (   0.0589146   0.0570774   0.0000000), wk =   0.0277778
        k(   50) = (   0.0589146  -0.1150898   0.0000000), wk =   0.0277778
        k(   51) = (   0.0589146  -0.0994383   0.0000000), wk =   0.0277778
        k(   52) = (   0.0589146  -0.0837867   0.0000000), wk =   0.0277778
        k(   53) = (   0.0589146  -0.0681351   0.0000000), wk =   0.0277778
        k(   54) = (   0.0589146  -0.0524836   0.0000000), wk =   0.0277778
        k(   55) = (   0.0589146  -0.0368320   0.0000000), wk =   0.0277778
        k(   56) = (   0.0736433  -0.0264755   0.0000000), wk =   0.0277778
        k(   57) = (   0.0736433  -0.0108240   0.0000000), wk =   0.0277778
        k(   58) = (   0.0736433   0.0048276   0.0000000), wk =   0.0277778
        k(   59) = (   0.0736433   0.0204792   0.0000000), wk =   0.0277778
        k(   60) = (   0.0736433   0.0361307   0.0000000), wk =   0.0277778
        k(   61) = (   0.0736433   0.0517823   0.0000000), wk =   0.0277778
        k(   62) = (   0.0736433  -0.1203850   0.0000000), wk =   0.0277778
        k(   63) = (   0.0736433  -0.1047334   0.0000000), wk =   0.0277778
        k(   64) = (   0.0736433  -0.0890818   0.0000000), wk =   0.0277778
        k(   65) = (   0.0736433  -0.0734302   0.0000000), wk =   0.0277778
        k(   66) = (   0.0736433  -0.0577787   0.0000000), wk =   0.0277778
        k(   67) = (   0.0736433  -0.0421271   0.0000000), wk =   0.0277778
        k(   68) = (  -0.0883719   0.0317707   0.0000000), wk =   0.0138889
        k(   69) = (  -0.0883719   0.0474222   0.0000000), wk =   0.0277778
        k(   70) = (  -0.0883719   0.0630738   0.0000000), wk =   0.0277778
        k(   71) = (  -0.0883719   0.0787254   0.0000000), wk =   0.0277778
        k(   72) = (  -0.0883719   0.0943769   0.0000000), wk =   0.0277778
        k(   73) = (  -0.0883719   0.1100285   0.0000000), wk =   0.0277778
        k(   74) = (  -0.0883719  -0.0621388   0.0000000), wk =   0.0138889

     Check: negative core charge=   -0.000001

     Initial potential from superposition of free atoms

     starting charge  131.98325, renormalised to  132.00000

     negative rho (up, down):  4.101E-04 0.000E+00

     %%%%%%%%%%%%%%%%%%%%%%%%%%%%%%%%%%%%%%%%%%%%%%%%%%%%%%%%%%%%%%%%%%%%%%%%
     %                                                                      %
     % You are using vdW-DF, which was implemented by the Thonhauser group. %
     % Please cite the following two papers that made this development      %
     % possible and the two reviews that describe the various versions:     %
     %                                                                      %
     %   T. Thonhauser et al., PRL 115, 136402 (2015).                      %
     %   T. Thonhauser et al., PRB 76, 125112 (2007).                       %
     %   K. Berland et al., Rep. Prog. Phys. 78, 066501 (2015).             %
     %   D.C. Langreth et al., J. Phys.: Condens. Matter 21, 084203 (2009). %
     %                                                                      %
     %                                                                      %
     % If you are calculating the stress with vdW-DF, please also cite:     %
     %                                                                      %
     %   R. Sabatini et al., J. Phys.: Condens. Matter 24, 424209 (2012).   %
     %                                                                      %
     %%%%%%%%%%%%%%%%%%%%%%%%%%%%%%%%%%%%%%%%%%%%%%%%%%%%%%%%%%%%%%%%%%%%%%%%

     Adding external electric field

     Computed dipole along edir(3) :
        Dipole                0.0008 Ry au,          0.0019 Debye
        Dipole field          0.0000 Ry au,

        Potential amp.       -0.0002 Ry
        Total length         45.3766 bohr

     Starting wfcs are  114 randomized atomic wfcs

     Self-consistent Calculation

     iteration #  1     ecut=    55.12 Ry     beta= 0.10
     Davidson diagonalization with overlap
     ethr =  1.00E-02,  avg # of iterations =  1.9

[...]

     total energy              =   -1334.94714310 Ry
     estimated scf accuracy    <       2.31990406 Ry

[...]

     iteration #  6     ecut=    55.12 Ry     beta= 0.10
     Davidson diagonalization with overlap
     c_bands:  3 eigenvalues not converged
     c_bands:  3 eigenvalues not converged
     c_bands:  3 eigenvalues not converged
     c_bands:  1 eigenvalues not converged
     ethr =  8.76E-05,  avg # of iterations = 12.7

[...]

     iteration #  7     ecut=    55.12 Ry     beta= 0.10
     Davidson diagonalization with overlap
     ethr =  4.32E-05,  avg # of iterations =  4.0

[...]

     total energy              =   -1335.36522948 Ry
     estimated scf accuracy    <       0.00001095 Ry

     iteration # 18     ecut=    55.12 Ry     beta= 0.10
     Davidson diagonalization with overlap
     c_bands:  1 eigenvalues not converged
     ethr =  8.30E-09,  avg # of iterations =  7.4

[...]

     Adding external electric field

     Computed dipole along edir(3) :
        Dipole                0.0514 Ry au,          0.1307 Debye
        Dipole field          0.0001 Ry au,

        Potential amp.       -0.0117 Ry
        Total length         45.3766 bohr

     End of self-consistent calculation

          k = 0.0000 0.0000 0.0000 ( 34651 PWs)   bands (ev):

   -49.9189 -49.8989 -49.8876 -49.8677 -49.5252 -49.5052 -28.5831 -28.5629
   -28.5464 -28.5245 -28.5222 -28.4862 -28.4758 -28.4615 -28.4527 -28.4353
   -28.3165 -28.2806 -28.2286 -28.1239 -28.0912 -28.0778 -28.0567 -28.0134
    -6.0078  -4.5503  -3.6489  -3.5265  -3.4162  -3.3382  -3.3256  -3.3173
    -3.2789  -3.2476  -3.0892  -3.0718  -2.9892  -2.8563  -2.8442  -2.8376
    -2.8310  -2.8124  -2.7905  -2.7444  -2.7351  -2.7126  -2.6847  -2.6043
    -2.5726  -2.5639  -2.5334  -2.5193  -2.3919  -2.3463  -2.3132  -2.2511
    -1.8116  -1.5142  -1.4986  -1.2677  -0.3399  -0.1205   0.0936   0.4519
     0.5527   0.5813   0.6181   0.8090   0.8229   0.9350   1.1873   1.2918
     1.3282   1.3882   1.4996   1.6247   1.7088   1.9162   2.0165

[...]

          k = 0.0736-0.0421 0.0000 ( 34564 PWs)   bands (ev):

[...]

          k =-0.0884 0.0318 0.0000 ( 34570 PWs)   bands (ev):

[...]

          k =-0.0884-0.0621 0.0000 ( 34618 PWs)   bands (ev):

   -49.9184 -49.8992 -49.8872 -49.8680 -49.5254 -49.5048 -28.5863 -28.5607
   -28.5467 -28.5245 -28.5239 -28.4887 -28.4886 -28.4613 -28.4537 -28.4310
   -28.3166 -28.2807 -28.2290 -28.1142 -28.0997 -28.0821 -28.0560 -28.0144
    -4.3333  -4.3038  -3.5956  -3.5768  -3.0808  -3.0684  -3.0252  -3.0214
    -3.0124  -2.9647  -2.9406  -2.9168  -2.9024  -2.8513  -2.8338  -2.7810
    -2.6972  -2.6932  -2.6912  -2.6902  -2.6868  -2.6670  -2.6630  -2.5709
    -2.5625  -2.5528  -2.4980  -2.4682  -2.4344  -2.3764  -2.3431  -2.2600
    -2.2485  -1.9196  -1.8611  -1.6672  -1.5371  -0.7418  -0.6848  -0.6196
    -0.6078  -0.0927  -0.0043   0.2195   0.3265   0.6226   0.6994   0.8634
     1.0470   1.3568   1.4891   1.5545   1.7606   1.8055   1.9692

     the Fermi energy is     0.4367 ev

!    total energy              =   -1335.36523206 Ry
     estimated scf accuracy    <       0.00000191 Ry
     smearing contrib. (-TS)   =      -0.06131789 Ry
     internal energy E=F+TS    =   -1335.30391417 Ry

     The total energy is F=E-TS. E is the sum of the following terms:
     one-electron contribution =   -8922.93615928 Ry
     hartree contribution      =    4524.75559628 Ry
     xc contribution           =    -384.07937058 Ry
     ewald contribution        =    3446.95601278 Ry
     electric field correction =       0.00000664 Ry

     convergence has been achieved in  18 iterations

     negative rho (up, down):  2.834E-04 0.000E+00

     Forces acting on atoms (cartesian axes, Ry/au):

     atom    1 type  1   force =    -0.00096736   -0.00068387   -0.00343165
     atom    2 type  1   force =    -0.00097080   -0.00068910   -0.00342814
     atom    3 type  2   force =     0.00001592    0.00003293    0.01556949
     atom    4 type  2   force =     0.00005073    0.00003578    0.01557526
     atom    5 type  1   force =     0.00035580    0.00026171   -0.01407286
     atom    6 type  1   force =     0.00036409    0.00025241   -0.01406863
     atom    7 type  2   force =     0.00003315    0.00000303    0.00181534
     atom    8 type  2   force =     0.00002734    0.00003844    0.00182966
     atom    9 type  1   force =     0.00038461    0.00025722   -0.00074597
     atom   10 type  1   force =     0.00037861    0.00026859   -0.00074299
     atom   11 type  2   force =     0.00017221    0.00011480    0.00085060
     atom   12 type  2   force =     0.00015571    0.00010807    0.00084989

     Total force =     0.030289     Total SCF correction =     0.002540

     Writing output data file ./Sc2Cu2/Sc2Cu2_beef.save/

     General routines

     Parallel routines

   This run was terminated on:   4:55: 3  11Jul2022

   JOB DONE.