     Program PWSCF v.6.6 starts on 25Jun2022 at 20:55:47

     R & G space division:  proc/nbgrp/npool/nimage =      37
     Fft bands division:     nmany     =       1
     Reading input from Sc2Hf2.in
Warning: card &CELL ignored
Warning: card / ignored

     Current dimensions of program PWSCF are:
     Max number of different atomic species (ntypx) = 10
     Max number of k-points (npk) =  40000
     Max angular momentum in pseudopotentials (lmaxx) =  3
     Presently stress not available with electric field and gates

     Message from routine cell_base_init:
     DEPRECATED: use true lattice parameter, not A to a.u. conversion factor
     file Sc.pbe-spn-rrkjus_psl.1.0.0.UPF: wavefunction(s)  3S 3P renormalized

     IMPORTANT: XC functional enforced from input :
     Exchange-correlation= BEEF-VDW
                           (   1   4  43  14   2   0   0)
     Any further DFT definition will be discarded
     Please, verify this is what you really want

     Subspace diagonalization in iterative solution of the eigenvalue problem:
     a serial algorithm will be used

     bravais-lattice index     =            0
     lattice parameter (alat)  =       1.8897  a.u.
     unit-cell volume          =    5976.0804 (a.u.)^3
     number of atoms/cell      =           12
     number of atomic types    =            2
     number of electrons       =       138.00
     number of Kohn-Sham states=           83
     kinetic-energy cutoff     =      55.1240  Ry
     charge density cutoff     =     551.2396  Ry
     convergence threshold     =      1.0E-05
     mixing beta               =       0.1000
     number of iterations used =           10  plain     mixing
     Exchange-correlation= BEEF-VDW
                           (   1   4  43  14   2   0   0)

     celldm(1)=   1.889726  celldm(2)=   0.000000  celldm(3)=   0.000000
     celldm(4)=   0.000000  celldm(5)=   0.000000  celldm(6)=   0.000000

     crystal axes: (cart. coord. in units of alat)
               a(1) = (   6.321569   0.000000   0.000000 )
               a(2) = (  -3.160785   5.558922   0.000000 )
               a(3) = (   0.000000   0.000000  25.200227 )

     reciprocal axes: (cart. coord. in units 2 pi/alat)
               b(1) = (  0.158189  0.089946 -0.000000 )
               b(2) = (  0.000000  0.179891  0.000000 )
               b(3) = (  0.000000 -0.000000  0.039682 )

     PseudoPot. # 1 for Sc read from file:
     ../pseudo/Sc.pbe-spn-rrkjus_psl.1.0.0.UPF
     MD5 check sum: f739f74c200e509e5c24cbe053202ee5
     Pseudo is Ultrasoft + core correction, Zval = 11.0
     Generated using "atomic" code by A. Dal Corso v.6.2.2
     Using radial grid of 1173 points,  6 beta functions with:
                l(1) =   0
                l(2) =   0
                l(3) =   1
                l(4) =   1
                l(5) =   2
                l(6) =   2
     Q(r) pseudized with 0 coefficients

     PseudoPot. # 2 for Hf read from file:
     ../pseudo/Hf.pbe-spn-rrkjus_psl.1.0.0.UPF
     MD5 check sum: 9605440c6f839e558204c6a924125fd0
     Pseudo is Ultrasoft + core correction, Zval = 12.0
     Generated using "atomic" code by A. Dal Corso v.6.2.2
     Using radial grid of 1271 points,  6 beta functions with:
                l(1) =   0
                l(2) =   0
                l(3) =   1
                l(4) =   1
                l(5) =   2
                l(6) =   2
     Q(r) pseudized with 0 coefficients

     atomic species   valence    mass     pseudopotential
        Sc            11.00    44.95591     Sc( 1.00)
        Hf            12.00   178.49000     Hf( 1.00)

     No symmetry found

   Cartesian axes

     site n.     atom                  positions (alat units)
         1           Sc  tau(   1) = (   0.0000000   0.0000000  10.0000000  )
         2           Sc  tau(   2) = (   3.1607846   0.0000000  10.0000000  )
         3           Hf  tau(   3) = (   1.5803923   2.7794608  10.0000000  )
         4           Hf  tau(   4) = (  -1.5803923   2.7794608  10.0000000  )
         5           Sc  tau(   5) = (   3.1607846   1.7972117  12.6001133  )
         6           Sc  tau(   6) = (  -0.0000000   1.7972117  12.6001133  )
         7           Hf  tau(   7) = (  -1.5803923   4.5766725  12.6001133  )
         8           Hf  tau(   8) = (   1.5803923   4.5766725  12.6001133  )
         9           Sc  tau(   9) = (   0.0000079   3.6100791  15.1920958  )
        10           Sc  tau(  10) = (   3.1607734   3.6097393  15.1921793  )
        11           Hf  tau(  11) = (   4.7415035   0.7939968  15.0341800  )
        12           Hf  tau(  12) = (   1.5800697   0.7939864  15.0341758  )

     number of k points=    74  Fermi-Dirac smearing, width (Ry)=  0.0100
                       cart. coord. in units 2pi/alat
        k(    1) = (   0.0000000   0.0000000   0.0000000), wk =   0.0138889
        k(    2) = (   0.0000000   0.0149909   0.0000000), wk =   0.0277778
        k(    3) = (   0.0000000   0.0299818   0.0000000), wk =   0.0277778
        k(    4) = (   0.0000000   0.0449727   0.0000000), wk =   0.0277778
        k(    5) = (   0.0000000   0.0599637   0.0000000), wk =   0.0277778
        k(    6) = (   0.0000000   0.0749546   0.0000000), wk =   0.0277778
        k(    7) = (   0.0000000  -0.0899455   0.0000000), wk =   0.0138889
        k(    8) = (   0.0131824   0.0074955   0.0000000), wk =   0.0277778
        k(    9) = (   0.0131824   0.0224864   0.0000000), wk =   0.0277778
        k(   10) = (   0.0131824   0.0374773   0.0000000), wk =   0.0277778
        k(   11) = (   0.0131824   0.0524682   0.0000000), wk =   0.0277778
        k(   12) = (   0.0131824   0.0674591   0.0000000), wk =   0.0277778
        k(   13) = (   0.0131824   0.0824500   0.0000000), wk =   0.0277778
        k(   14) = (   0.0131824  -0.0824500   0.0000000), wk =   0.0277778
        k(   15) = (   0.0131824  -0.0674591   0.0000000), wk =   0.0277778
        k(   16) = (   0.0131824  -0.0524682   0.0000000), wk =   0.0277778
        k(   17) = (   0.0131824  -0.0374773   0.0000000), wk =   0.0277778
        k(   18) = (   0.0131824  -0.0224864   0.0000000), wk =   0.0277778
        k(   19) = (   0.0131824  -0.0074955   0.0000000), wk =   0.0277778
        k(   20) = (   0.0263648   0.0149909   0.0000000), wk =   0.0277778
        k(   21) = (   0.0263648   0.0299818   0.0000000), wk =   0.0277778
        k(   22) = (   0.0263648   0.0449728   0.0000000), wk =   0.0277778
        k(   23) = (   0.0263648   0.0599637   0.0000000), wk =   0.0277778
        k(   24) = (   0.0263648   0.0749546   0.0000000), wk =   0.0277778
        k(   25) = (   0.0263648   0.0899455   0.0000000), wk =   0.0277778
        k(   26) = (   0.0263648  -0.0749546   0.0000000), wk =   0.0277778
        k(   27) = (   0.0263648  -0.0599637   0.0000000), wk =   0.0277778
        k(   28) = (   0.0263648  -0.0449727   0.0000000), wk =   0.0277778
        k(   29) = (   0.0263648  -0.0299818   0.0000000), wk =   0.0277778
        k(   30) = (   0.0263648  -0.0149909   0.0000000), wk =   0.0277778
        k(   31) = (   0.0263648   0.0000000   0.0000000), wk =   0.0277778
        k(   32) = (   0.0395471   0.0224864   0.0000000), wk =   0.0277778
        k(   33) = (   0.0395471   0.0374773   0.0000000), wk =   0.0277778
        k(   34) = (   0.0395471   0.0524682   0.0000000), wk =   0.0277778
        k(   35) = (   0.0395471   0.0674591   0.0000000), wk =   0.0277778
        k(   36) = (   0.0395471   0.0824500   0.0000000), wk =   0.0277778
        k(   37) = (   0.0395471   0.0974410   0.0000000), wk =   0.0277778
        k(   38) = (   0.0395471  -0.0674591   0.0000000), wk =   0.0277778
        k(   39) = (   0.0395471  -0.0524682   0.0000000), wk =   0.0277778
        k(   40) = (   0.0395471  -0.0374773   0.0000000), wk =   0.0277778
        k(   41) = (   0.0395471  -0.0224864   0.0000000), wk =   0.0277778
        k(   42) = (   0.0395471  -0.0074955   0.0000000), wk =   0.0277778
        k(   43) = (   0.0395471   0.0074955   0.0000000), wk =   0.0277778
        k(   44) = (   0.0527295   0.0299818   0.0000000), wk =   0.0277778
        k(   45) = (   0.0527295   0.0449728   0.0000000), wk =   0.0277778
        k(   46) = (   0.0527295   0.0599637   0.0000000), wk =   0.0277778
        k(   47) = (   0.0527295   0.0749546   0.0000000), wk =   0.0277778
        k(   48) = (   0.0527295   0.0899455   0.0000000), wk =   0.0277778
        k(   49) = (   0.0527295   0.1049364   0.0000000), wk =   0.0277778
        k(   50) = (   0.0527295  -0.0599637   0.0000000), wk =   0.0277778
        k(   51) = (   0.0527295  -0.0449727   0.0000000), wk =   0.0277778
        k(   52) = (   0.0527295  -0.0299818   0.0000000), wk =   0.0277778
        k(   53) = (   0.0527295  -0.0149909   0.0000000), wk =   0.0277778
        k(   54) = (   0.0527295   0.0000000   0.0000000), wk =   0.0277778
        k(   55) = (   0.0527295   0.0149909   0.0000000), wk =   0.0277778
        k(   56) = (   0.0659119   0.0374773   0.0000000), wk =   0.0277778
        k(   57) = (   0.0659119   0.0524682   0.0000000), wk =   0.0277778
        k(   58) = (   0.0659119   0.0674591   0.0000000), wk =   0.0277778
        k(   59) = (   0.0659119   0.0824500   0.0000000), wk =   0.0277778
        k(   60) = (   0.0659119   0.0974410   0.0000000), wk =   0.0277778
        k(   61) = (   0.0659119   0.1124319   0.0000000), wk =   0.0277778
        k(   62) = (   0.0659119  -0.0524682   0.0000000), wk =   0.0277778
        k(   63) = (   0.0659119  -0.0374773   0.0000000), wk =   0.0277778
        k(   64) = (   0.0659119  -0.0224864   0.0000000), wk =   0.0277778
        k(   65) = (   0.0659119  -0.0074955   0.0000000), wk =   0.0277778
        k(   66) = (   0.0659119   0.0074955   0.0000000), wk =   0.0277778
        k(   67) = (   0.0659119   0.0224864   0.0000000), wk =   0.0277778
        k(   68) = (  -0.0790943  -0.0449728   0.0000000), wk =   0.0138889
        k(   69) = (  -0.0790943  -0.0299818   0.0000000), wk =   0.0277778
        k(   70) = (  -0.0790943  -0.0149909   0.0000000), wk =   0.0277778
        k(   71) = (  -0.0790943  -0.0000000   0.0000000), wk =   0.0277778
        k(   72) = (  -0.0790943   0.0149909   0.0000000), wk =   0.0277778
        k(   73) = (  -0.0790943   0.0299818   0.0000000), wk =   0.0277778
        k(   74) = (  -0.0790943  -0.1349183   0.0000000), wk =   0.0138889

     Initial potential from superposition of free atoms

     starting charge  137.97300, renormalised to  138.00000

     negative rho (up, down):  5.583E-04 0.000E+00

     %%%%%%%%%%%%%%%%%%%%%%%%%%%%%%%%%%%%%%%%%%%%%%%%%%%%%%%%%%%%%%%%%%%%%%%%
     %                                                                      %
     % You are using vdW-DF, which was implemented by the Thonhauser group. %
     % Please cite the following two papers that made this development      %
     % possible and the two reviews that describe the various versions:     %
     %                                                                      %
     %   T. Thonhauser et al., PRL 115, 136402 (2015).                      %
     %   T. Thonhauser et al., PRB 76, 125112 (2007).                       %
     %   K. Berland et al., Rep. Prog. Phys. 78, 066501 (2015).             %
     %   D.C. Langreth et al., J. Phys.: Condens. Matter 21, 084203 (2009). %
     %                                                                      %
     %                                                                      %
     % If you are calculating the stress with vdW-DF, please also cite:     %
     %                                                                      %
     %   R. Sabatini et al., J. Phys.: Condens. Matter 24, 424209 (2012).   %
     %                                                                      %
     %%%%%%%%%%%%%%%%%%%%%%%%%%%%%%%%%%%%%%%%%%%%%%%%%%%%%%%%%%%%%%%%%%%%%%%%

     Adding external electric field

     Computed dipole along edir(3) :
        Dipole                0.0002 Ry au,          0.0006 Debye
        Dipole field          0.0000 Ry au,

        Potential amp.       -0.0000 Ry
        Total length         46.4310 bohr

     Starting wfcs are  120 randomized atomic wfcs

     Self-consistent Calculation

     iteration #  1     ecut=    55.12 Ry     beta= 0.10
     Davidson diagonalization with overlap
     ethr =  1.00E-02,  avg # of iterations =  2.0

[...]

     total energy              =   -1347.00969494 Ry
     estimated scf accuracy    <       5.82618208 Ry

[...]

     iteration #  5     ecut=    55.12 Ry     beta= 0.10
     Davidson diagonalization with overlap
     c_bands:  1 eigenvalues not converged
     c_bands:  2 eigenvalues not converged
     c_bands:  4 eigenvalues not converged
     c_bands:  3 eigenvalues not converged
     c_bands:  2 eigenvalues not converged
     ethr =  2.82E-04,  avg # of iterations = 12.6

[...]

     iteration # 20     ecut=    55.12 Ry     beta= 0.10
     Davidson diagonalization with overlap
     c_bands:  1 eigenvalues not converged
     c_bands:  1 eigenvalues not converged
     ethr =  1.22E-08,  avg # of iterations = 13.6

[...]

     total energy              =   -1347.98803738 Ry
     estimated scf accuracy    <       0.00001276 Ry

     iteration # 21     ecut=    55.12 Ry     beta= 0.10
     Davidson diagonalization with overlap
     ethr =  9.25E-09,  avg # of iterations =  2.2

[...]

     Adding external electric field

     Computed dipole along edir(3) :
        Dipole                0.0001 Ry au,          0.0002 Debye
        Dipole field          0.0000 Ry au,

        Potential amp.       -0.0000 Ry
        Total length         46.4310 bohr

     End of self-consistent calculation

          k = 0.0000 0.0000 0.0000 ( 41327 PWs)   bands (ev):

   -61.7550 -61.7354 -61.5668 -61.5470 -61.1833 -61.1633 -48.8777 -48.8714
   -48.8491 -48.8429 -48.2837 -48.2547 -30.3634 -30.3081 -30.2624 -30.2355
   -30.2210 -30.1835 -30.1421 -30.0944 -30.0799 -30.0273 -29.9531 -29.8798
   -29.8038 -29.7102 -29.6544 -29.6010 -29.5567 -29.4600 -27.5913 -27.5818
   -27.5029 -27.4988 -27.4779 -27.4703 -27.4180 -27.4102 -27.3993 -27.3907
   -27.3253 -27.3172 -26.9987 -26.8918 -26.8665 -26.8504 -26.8308 -26.7303
    -4.8067  -3.6065  -2.2788  -1.5167  -1.3514  -1.2772  -1.1998  -1.1798
    -0.9988  -0.8109  -0.8045  -0.7988  -0.2238  -0.2149  -0.1721   0.1638
     0.3748   0.4656   0.9240   1.0224   1.4044   1.4769   1.4770   1.5035
     1.5545   1.5588   1.7235   2.0370   2.1888   2.2003   2.2146   2.3252
     2.3493   2.3585   2.4243

[...]

          k = 0.0659 0.0225 0.0000 ( 41345 PWs)   bands (ev):

[...]

          k =-0.0791-0.0450 0.0000 ( 41316 PWs)   bands (ev):

[...]

          k =-0.0791-0.1349 0.0000 ( 41316 PWs)   bands (ev):

   -61.7452 -61.7452 -61.5569 -61.5569 -61.1733 -61.1733 -48.8635 -48.8634
   -48.8572 -48.8572 -48.2694 -48.2691 -30.2844 -30.2844 -30.2047 -30.2047
   -30.1602 -30.1602 -30.1174 -30.1173 -30.0490 -30.0489 -30.0146 -30.0138
   -29.6801 -29.6801 -29.6719 -29.6719 -29.5778 -29.5778 -27.4942 -27.4941
   -27.4822 -27.4821 -27.4629 -27.4628 -27.4543 -27.4543 -27.4161 -27.4160
   -27.4071 -27.4071 -26.8808 -26.8805 -26.8691 -26.8688 -26.8456 -26.8453
    -3.2961  -3.2959  -2.1975  -2.1973  -1.1746  -1.1745  -0.8016  -0.8015
    -0.5587  -0.5586   0.1814   0.1816   0.2921   0.2923   0.4807   0.4809
     0.5878   0.5879   0.7363   0.7365   0.8182   0.8183   0.9061   0.9062
     1.1048   1.1050   1.2082   1.2083   1.3798   1.3803   1.6019   1.6022
     2.0105   2.0151   2.0861

     the Fermi energy is     0.9372 ev

!    total energy              =   -1347.98803502 Ry
     estimated scf accuracy    <       0.00000580 Ry
     smearing contrib. (-TS)   =      -0.10286255 Ry
     internal energy E=F+TS    =   -1347.88517247 Ry

     The total energy is F=E-TS. E is the sum of the following terms:
     one-electron contribution =   -7900.01099370 Ry
     hartree contribution      =    3934.39697987 Ry
     xc contribution           =    -365.30164477 Ry
     ewald contribution        =    2983.03048613 Ry
     electric field correction =       0.00000000 Ry

     convergence has been achieved in  21 iterations

     negative rho (up, down):  2.800E-04 0.000E+00

     Forces acting on atoms (cartesian axes, Ry/au):

     atom    1 type  1   force =     0.00000234   -0.00389018   -0.00216728
     atom    2 type  1   force =    -0.00000156   -0.00388840   -0.00216605
     atom    3 type  2   force =    -0.00000037    0.00517513    0.01859687
     atom    4 type  2   force =    -0.00000256    0.00517457    0.01860194
     atom    5 type  1   force =    -0.00000798    0.00151211   -0.00929292
     atom    6 type  1   force =    -0.00001341    0.00155388   -0.00931312
     atom    7 type  2   force =    -0.00001368   -0.00273240   -0.00495258
     atom    8 type  2   force =     0.00000295   -0.00272215   -0.00495614
     atom    9 type  1   force =     0.00001246   -0.00071021   -0.00060364
     atom   10 type  1   force =     0.00002379   -0.00067032   -0.00061523
     atom   11 type  2   force =    -0.00005350    0.00059447   -0.00157169
     atom   12 type  2   force =     0.00005153    0.00060351   -0.00156017

     Total force =     0.032158     Total SCF correction =     0.006701
     SCF correction compared to forces is large: reduce conv_thr to get better values

     Writing output data file ./Sc2Hf2/Sc2Hf2_beef.save/

     General routines

     Parallel routines

   This run was terminated on:  23: 9:49  25Jun2022

   JOB DONE.