     Program PWSCF v.6.6 starts on 12Jul2022 at 10:33:44

     R & G space division:  proc/nbgrp/npool/nimage =      37
     Fft bands division:     nmany     =       1
     Reading input from Sc2Hg2.in
Warning: card &CELL ignored
Warning: card / ignored

     Current dimensions of program PWSCF are:
     Max number of different atomic species (ntypx) = 10
     Max number of k-points (npk) =  40000
     Max angular momentum in pseudopotentials (lmaxx) =  3
     Presently stress not available with electric field and gates

     Message from routine cell_base_init:
     DEPRECATED: use true lattice parameter, not A to a.u. conversion factor
     file Sc.pbe-spn-rrkjus_psl.1.0.0.UPF: wavefunction(s)  3S 3P renormalized
     file Hg.pbe-n-rrkjus_psl.1.0.0.UPF: wavefunction(s)  6S renormalized

     IMPORTANT: XC functional enforced from input :
     Exchange-correlation= BEEF-VDW
                           (   1   4  43  14   2   0   0)
     Any further DFT definition will be discarded
     Please, verify this is what you really want

     Subspace diagonalization in iterative solution of the eigenvalue problem:
     a serial algorithm will be used

     bravais-lattice index     =            0
     lattice parameter (alat)  =       1.8897  a.u.
     unit-cell volume          =    6015.8219 (a.u.)^3
     number of atoms/cell      =           12
     number of atomic types    =            2
     number of electrons       =       138.00
     number of Kohn-Sham states=           83
     kinetic-energy cutoff     =      55.1240  Ry
     charge density cutoff     =     551.2396  Ry
     convergence threshold     =      1.0E-05
     mixing beta               =       0.1000
     number of iterations used =           10  plain     mixing
     Exchange-correlation= BEEF-VDW
                           (   1   4  43  14   2   0   0)

     celldm(1)=   1.889726  celldm(2)=   0.000000  celldm(3)=   0.000000
     celldm(4)=   0.000000  celldm(5)=   0.000000  celldm(6)=   0.000000

     crystal axes: (cart. coord. in units of alat)
               a(1) = (   6.147756   0.000000   0.000000 )
               a(2) = (   2.051102   5.795505   0.000000 )
               a(3) = (   0.000000   0.000000  25.020187 )

     reciprocal axes: (cart. coord. in units 2 pi/alat)
               b(1) = (  0.162661 -0.057568  0.000000 )
               b(2) = (  0.000000  0.172548  0.000000 )
               b(3) = (  0.000000  0.000000  0.039968 )

     PseudoPot. # 1 for Sc read from file:
     ../pseudo/Sc.pbe-spn-rrkjus_psl.1.0.0.UPF
     MD5 check sum: f739f74c200e509e5c24cbe053202ee5
     Pseudo is Ultrasoft + core correction, Zval = 11.0
     Generated using "atomic" code by A. Dal Corso v.6.2.2
     Using radial grid of 1173 points,  6 beta functions with:
                l(1) =   0
                l(2) =   0
                l(3) =   1
                l(4) =   1
                l(5) =   2
                l(6) =   2
     Q(r) pseudized with 0 coefficients

     PseudoPot. # 2 for Hg read from file:
     ../pseudo/Hg.pbe-n-rrkjus_psl.1.0.0.UPF
     MD5 check sum: 7519ac2e5b9cac440d3cfd4127d6ea3c
     Pseudo is Ultrasoft + core correction, Zval = 12.0
     Generated using "atomic" code by A. Dal Corso v.6.3
     Using radial grid of 1279 points,  6 beta functions with:
                l(1) =   0
                l(2) =   0
                l(3) =   1
                l(4) =   1
                l(5) =   2
                l(6) =   2
     Q(r) pseudized with 0 coefficients

     atomic species   valence    mass     pseudopotential
        Sc            11.00    44.95591     Sc( 1.00)
        Hg            12.00   200.59200     Hg( 1.00)

     No symmetry found

   Cartesian axes

     site n.     atom                  positions (alat units)
         1           Sc  tau(   1) = (   0.0000000   0.0000000  10.0000000  )
         2           Sc  tau(   2) = (   4.0994289   2.8977527  10.0000000  )
         3           Hg  tau(   3) = (   3.0738779   0.0000000  10.0000000  )
         4           Hg  tau(   4) = (   1.0255510   2.8977527  10.0000000  )
         5           Sc  tau(   5) = (   6.1477558   4.3456483  12.5100934  )
         6           Sc  tau(   6) = (   2.0483269   1.4478956  12.5100934  )
         7           Hg  tau(   7) = (   3.0738779   4.3456483  12.5100934  )
         8           Hg  tau(   8) = (   5.1222049   1.4478956  12.5100934  )
         9           Sc  tau(   9) = (   4.0968443   2.8959150  14.9729275  )
        10           Sc  tau(  10) = (   8.1962881   5.7937017  14.9729122  )
        11           Hg  tau(  11) = (   7.1706977   2.8958581  15.0691755  )
        12           Hg  tau(  12) = (   5.1223542   5.7936743  15.0691738  )

     number of k points=    74  Fermi-Dirac smearing, width (Ry)=  0.0100
                       cart. coord. in units 2pi/alat
        k(    1) = (   0.0000000   0.0000000   0.0000000), wk =   0.0138889
        k(    2) = (   0.0000000   0.0143790   0.0000000), wk =   0.0277778
        k(    3) = (   0.0000000   0.0287579   0.0000000), wk =   0.0277778
        k(    4) = (   0.0000000   0.0431369   0.0000000), wk =   0.0277778
        k(    5) = (   0.0000000   0.0575158   0.0000000), wk =   0.0277778
        k(    6) = (   0.0000000   0.0718948   0.0000000), wk =   0.0277778
        k(    7) = (   0.0000000  -0.0862738   0.0000000), wk =   0.0138889
        k(    8) = (   0.0135551  -0.0047973   0.0000000), wk =   0.0277778
        k(    9) = (   0.0135551   0.0095816   0.0000000), wk =   0.0277778
        k(   10) = (   0.0135551   0.0239606   0.0000000), wk =   0.0277778
        k(   11) = (   0.0135551   0.0383396   0.0000000), wk =   0.0277778
        k(   12) = (   0.0135551   0.0527185   0.0000000), wk =   0.0277778
        k(   13) = (   0.0135551   0.0670975   0.0000000), wk =   0.0277778
        k(   14) = (   0.0135551  -0.0910711   0.0000000), wk =   0.0277778
        k(   15) = (   0.0135551  -0.0766921   0.0000000), wk =   0.0277778
        k(   16) = (   0.0135551  -0.0623132   0.0000000), wk =   0.0277778
        k(   17) = (   0.0135551  -0.0479342   0.0000000), wk =   0.0277778
        k(   18) = (   0.0135551  -0.0335552   0.0000000), wk =   0.0277778
        k(   19) = (   0.0135551  -0.0191763   0.0000000), wk =   0.0277778
        k(   20) = (   0.0271102  -0.0095946   0.0000000), wk =   0.0277778
        k(   21) = (   0.0271102   0.0047843   0.0000000), wk =   0.0277778
        k(   22) = (   0.0271102   0.0191633   0.0000000), wk =   0.0277778
        k(   23) = (   0.0271102   0.0335423   0.0000000), wk =   0.0277778
        k(   24) = (   0.0271102   0.0479212   0.0000000), wk =   0.0277778
        k(   25) = (   0.0271102   0.0623002   0.0000000), wk =   0.0277778
        k(   26) = (   0.0271102  -0.0958684   0.0000000), wk =   0.0277778
        k(   27) = (   0.0271102  -0.0814894   0.0000000), wk =   0.0277778
        k(   28) = (   0.0271102  -0.0671105   0.0000000), wk =   0.0277778
        k(   29) = (   0.0271102  -0.0527315   0.0000000), wk =   0.0277778
        k(   30) = (   0.0271102  -0.0383525   0.0000000), wk =   0.0277778
        k(   31) = (   0.0271102  -0.0239736   0.0000000), wk =   0.0277778
        k(   32) = (   0.0406652  -0.0143919   0.0000000), wk =   0.0277778
        k(   33) = (   0.0406652  -0.0000130   0.0000000), wk =   0.0277778
        k(   34) = (   0.0406652   0.0143660   0.0000000), wk =   0.0277778
        k(   35) = (   0.0406652   0.0287449   0.0000000), wk =   0.0277778
        k(   36) = (   0.0406652   0.0431239   0.0000000), wk =   0.0277778
        k(   37) = (   0.0406652   0.0575029   0.0000000), wk =   0.0277778
        k(   38) = (   0.0406652  -0.1006657   0.0000000), wk =   0.0277778
        k(   39) = (   0.0406652  -0.0862867   0.0000000), wk =   0.0277778
        k(   40) = (   0.0406652  -0.0719078   0.0000000), wk =   0.0277778
        k(   41) = (   0.0406652  -0.0575288   0.0000000), wk =   0.0277778
        k(   42) = (   0.0406652  -0.0431499   0.0000000), wk =   0.0277778
        k(   43) = (   0.0406652  -0.0287709   0.0000000), wk =   0.0277778
        k(   44) = (   0.0542203  -0.0191893   0.0000000), wk =   0.0277778
        k(   45) = (   0.0542203  -0.0048103   0.0000000), wk =   0.0277778
        k(   46) = (   0.0542203   0.0095687   0.0000000), wk =   0.0277778
        k(   47) = (   0.0542203   0.0239476   0.0000000), wk =   0.0277778
        k(   48) = (   0.0542203   0.0383266   0.0000000), wk =   0.0277778
        k(   49) = (   0.0542203   0.0527055   0.0000000), wk =   0.0277778
        k(   50) = (   0.0542203  -0.1054630   0.0000000), wk =   0.0277778
        k(   51) = (   0.0542203  -0.0910841   0.0000000), wk =   0.0277778
        k(   52) = (   0.0542203  -0.0767051   0.0000000), wk =   0.0277778
        k(   53) = (   0.0542203  -0.0623261   0.0000000), wk =   0.0277778
        k(   54) = (   0.0542203  -0.0479472   0.0000000), wk =   0.0277778
        k(   55) = (   0.0542203  -0.0335682   0.0000000), wk =   0.0277778
        k(   56) = (   0.0677754  -0.0239866   0.0000000), wk =   0.0277778
        k(   57) = (   0.0677754  -0.0096076   0.0000000), wk =   0.0277778
        k(   58) = (   0.0677754   0.0047714   0.0000000), wk =   0.0277778
        k(   59) = (   0.0677754   0.0191503   0.0000000), wk =   0.0277778
        k(   60) = (   0.0677754   0.0335293   0.0000000), wk =   0.0277778
        k(   61) = (   0.0677754   0.0479082   0.0000000), wk =   0.0277778
        k(   62) = (   0.0677754  -0.1102603   0.0000000), wk =   0.0277778
        k(   63) = (   0.0677754  -0.0958814   0.0000000), wk =   0.0277778
        k(   64) = (   0.0677754  -0.0815024   0.0000000), wk =   0.0277778
        k(   65) = (   0.0677754  -0.0671234   0.0000000), wk =   0.0277778
        k(   66) = (   0.0677754  -0.0527445   0.0000000), wk =   0.0277778
        k(   67) = (   0.0677754  -0.0383655   0.0000000), wk =   0.0277778
        k(   68) = (  -0.0813305   0.0287839   0.0000000), wk =   0.0138889
        k(   69) = (  -0.0813305   0.0431628   0.0000000), wk =   0.0277778
        k(   70) = (  -0.0813305   0.0575418   0.0000000), wk =   0.0277778
        k(   71) = (  -0.0813305   0.0719208   0.0000000), wk =   0.0277778
        k(   72) = (  -0.0813305   0.0862997   0.0000000), wk =   0.0277778
        k(   73) = (  -0.0813305   0.1006787   0.0000000), wk =   0.0277778
        k(   74) = (  -0.0813305  -0.0574899   0.0000000), wk =   0.0138889

     Initial potential from superposition of free atoms

     starting charge  137.98414, renormalised to  138.00000

     negative rho (up, down):  1.295E-03 0.000E+00

     %%%%%%%%%%%%%%%%%%%%%%%%%%%%%%%%%%%%%%%%%%%%%%%%%%%%%%%%%%%%%%%%%%%%%%%%
     %                                                                      %
     % You are using vdW-DF, which was implemented by the Thonhauser group. %
     % Please cite the following two papers that made this development      %
     % possible and the two reviews that describe the various versions:     %
     %                                                                      %
     %   T. Thonhauser et al., PRL 115, 136402 (2015).                      %
     %   T. Thonhauser et al., PRB 76, 125112 (2007).                       %
     %   K. Berland et al., Rep. Prog. Phys. 78, 066501 (2015).             %
     %   D.C. Langreth et al., J. Phys.: Condens. Matter 21, 084203 (2009). %
     %                                                                      %
     %                                                                      %
     % If you are calculating the stress with vdW-DF, please also cite:     %
     %                                                                      %
     %   R. Sabatini et al., J. Phys.: Condens. Matter 24, 424209 (2012).   %
     %                                                                      %
     %%%%%%%%%%%%%%%%%%%%%%%%%%%%%%%%%%%%%%%%%%%%%%%%%%%%%%%%%%%%%%%%%%%%%%%%

     Adding external electric field

     Computed dipole along edir(3) :
        Dipole               -0.0005 Ry au,         -0.0012 Debye
        Dipole field         -0.0000 Ry au,

        Potential amp.        0.0001 Ry
        Total length         46.0993 bohr

     Starting wfcs are  114 randomized atomic wfcs

     Self-consistent Calculation

     iteration #  1     ecut=    55.12 Ry     beta= 0.10
     Davidson diagonalization with overlap
     ethr =  1.00E-02,  avg # of iterations =  1.8

     Threshold (ethr) on eigenvalues was too large:
     Diagonalizing with lowered threshold

     Davidson diagonalization with overlap
     ethr =  9.35E-04,  avg # of iterations =  5.7

[...]

     total energy              =   -1197.81891927 Ry
     estimated scf accuracy    <       1.37164520 Ry

[...]

     iteration # 12     ecut=    55.12 Ry     beta= 0.10
     Davidson diagonalization with overlap
     c_bands:  2 eigenvalues not converged
     ethr =  3.50E-05,  avg # of iterations =  8.8

[...]

     iteration # 26     ecut=    55.12 Ry     beta= 0.10
     Davidson diagonalization with overlap
     ethr =  2.42E-07,  avg # of iterations =  8.9

[...]

     total energy              =   -1197.97768807 Ry
     estimated scf accuracy    <       0.00010180 Ry

     iteration # 29     ecut=    55.12 Ry     beta= 0.10
     Davidson diagonalization with overlap
     c_bands:  2 eigenvalues not converged
     ethr =  1.18E-08,  avg # of iterations = 12.9

[...]

     Adding external electric field

     Computed dipole along edir(3) :
        Dipole               -0.0275 Ry au,         -0.0699 Debye
        Dipole field         -0.0001 Ry au,

        Potential amp.        0.0053 Ry
        Total length         46.0993 bohr

     End of self-consistent calculation

          k = 0.0000 0.0000 0.0000 ( 41611 PWs)   bands (ev):

   -49.8837 -49.8773 -49.8534 -49.8470 -49.7149 -49.7085 -28.5267 -28.5187
   -28.4933 -28.4852 -28.4451 -28.4397 -28.4204 -28.4175 -28.4146 -28.3917
   -28.3319 -28.3237 -28.3059 -28.3047 -28.2900 -28.2721 -28.2647 -28.2341
    -7.0549  -7.0334  -7.0026  -6.9751  -6.9080  -6.8229  -6.8148  -6.7941
    -6.7831  -6.7659  -6.7030  -6.6846  -6.6639  -6.6252  -6.6038  -6.5636
    -6.5610  -6.5265  -6.5030  -6.4736  -6.4340  -6.4310  -6.3825  -6.3824
    -6.3425  -6.2578  -6.2183  -6.1219  -6.0930  -6.0600  -5.9588  -5.1975
    -3.6387  -3.3835  -3.1618  -2.8831  -0.7517  -0.3581   0.1415   0.2556
     0.2688   0.3170   0.4118   0.7149   0.8112   0.9815   1.1699   1.2207
     1.3766   1.3853   1.4507   1.4605   1.5474   1.6500   1.8649   1.9471
     2.0158   2.2004   2.3564

[...]

          k = 0.0678-0.0384 0.0000 ( 41598 PWs)   bands (ev):

[...]

          k =-0.0813 0.0288 0.0000 ( 41606 PWs)   bands (ev):

[...]

          k =-0.0813-0.0575 0.0000 ( 41578 PWs)   bands (ev):

   -49.8836 -49.8773 -49.8532 -49.8470 -49.7149 -49.7083 -28.5278 -28.5182
   -28.4939 -28.4846 -28.4516 -28.4382 -28.4261 -28.4195 -28.4134 -28.3939
   -28.3324 -28.3247 -28.3062 -28.2986 -28.2955 -28.2759 -28.2651 -28.2352
    -6.9739  -6.9058  -6.8738  -6.8049  -6.8015  -6.7838  -6.7672  -6.7016
    -6.6916  -6.6575  -6.6206  -6.5949  -6.5926  -6.5861  -6.5617  -6.5325
    -6.4923  -6.4852  -6.4809  -6.4346  -6.4197  -6.3658  -6.3617  -6.3240
    -6.3182  -6.2763  -6.1998  -6.1265  -6.0663  -5.9652  -5.0869  -4.9723
    -4.1241  -3.9656  -3.1030  -2.2639  -2.1637  -1.4755  -1.2322  -0.8255
    -0.5406  -0.4784  -0.3936   0.2163   0.4790   0.6768   0.8238   0.8472
     1.0226   1.2302   1.4978   1.5089   1.5588   1.7064   1.7903   1.8410
     1.9478   2.0589   2.0906

     the Fermi energy is     0.7850 ev

!    total energy              =   -1197.97771209 Ry
     estimated scf accuracy    <       0.00000854 Ry
     smearing contrib. (-TS)   =      -0.07294107 Ry
     internal energy E=F+TS    =   -1197.90477102 Ry

     The total energy is F=E-TS. E is the sum of the following terms:
     one-electron contribution =   -7709.86182258 Ry
     hartree contribution      =    3887.97701993 Ry
     xc contribution           =    -309.39579179 Ry
     ewald contribution        =    2933.37582184 Ry
     electric field correction =       0.00000158 Ry

     convergence has been achieved in  29 iterations

     negative rho (up, down):  1.023E-03 0.000E+00

     Forces acting on atoms (cartesian axes, Ry/au):

     atom    1 type  1   force =    -0.00002430   -0.00001107    0.00414952
     atom    2 type  1   force =    -0.00001333   -0.00000913    0.00415165
     atom    3 type  2   force =    -0.00001768   -0.00001882   -0.00406019
     atom    4 type  2   force =    -0.00001681   -0.00001476   -0.00403101
     atom    5 type  1   force =    -0.00000474    0.00000599    0.00108149
     atom    6 type  1   force =     0.00001416    0.00000153    0.00108541
     atom    7 type  2   force =    -0.00001603    0.00000523   -0.00198579
     atom    8 type  2   force =     0.00002437   -0.00000076   -0.00197098
     atom    9 type  1   force =     0.00001013    0.00001703    0.00028236
     atom   10 type  1   force =     0.00001943    0.00000253    0.00029624
     atom   11 type  2   force =    -0.00000232    0.00002026    0.00049894
     atom   12 type  2   force =     0.00002712    0.00000199    0.00050236

     Total force =     0.008834     Total SCF correction =     0.004912
     SCF correction compared to forces is large: reduce conv_thr to get better values

     Writing output data file ./Sc2Hg2/Sc2Hg2_beef.save/

     General routines

     Parallel routines

   This run was terminated on:  13:35:59  13Jul2022

   JOB DONE.