     Program PWSCF v.6.6 starts on 24Jun2022 at 18:29:45

     R & G space division:  proc/nbgrp/npool/nimage =      37
     Fft bands division:     nmany     =       1
     Reading input from Sc2Ir2.in
Warning: card &CELL ignored
Warning: card / ignored

     Current dimensions of program PWSCF are:
     Max number of different atomic species (ntypx) = 10
     Max number of k-points (npk) =  40000
     Max angular momentum in pseudopotentials (lmaxx) =  3
     Presently stress not available with electric field and gates

     Message from routine cell_base_init:
     DEPRECATED: use true lattice parameter, not A to a.u. conversion factor
     file Sc.pbe-spn-rrkjus_psl.1.0.0.UPF: wavefunction(s)  3S 3P renormalized
     file Ir.pbe-n-rrkjus_psl.0.2.3.UPF: wavefunction(s)  5D renormalized

     IMPORTANT: XC functional enforced from input :
     Exchange-correlation= BEEF-VDW
                           (   1   4  43  14   2   0   0)
     Any further DFT definition will be discarded
     Please, verify this is what you really want

     Subspace diagonalization in iterative solution of the eigenvalue problem:
     a serial algorithm will be used

     Found symmetry operation: I + (  0.5000 -0.5000  0.0000)
     This is a supercell, fractional translations are disabled

     bravais-lattice index     =            0
     lattice parameter (alat)  =       1.8897  a.u.
     unit-cell volume          =    4890.8526 (a.u.)^3
     number of atoms/cell      =           12
     number of atomic types    =            2
     number of electrons       =       120.00
     number of Kohn-Sham states=           72
     kinetic-energy cutoff     =      55.1240  Ry
     charge density cutoff     =     551.2396  Ry
     convergence threshold     =      1.0E-05
     mixing beta               =       0.1000
     number of iterations used =           10  plain     mixing
     Exchange-correlation= BEEF-VDW
                           (   1   4  43  14   2   0   0)

     celldm(1)=   1.889726  celldm(2)=   0.000000  celldm(3)=   0.000000
     celldm(4)=   0.000000  celldm(5)=   0.000000  celldm(6)=   0.000000

     crystal axes: (cart. coord. in units of alat)
               a(1) = (   5.583230   0.000000   0.000000 )
               a(2) = (   1.781370   5.291425   0.000000 )
               a(3) = (   0.000000   0.000000  24.531827 )

     reciprocal axes: (cart. coord. in units 2 pi/alat)
               b(1) = (  0.179108 -0.060297  0.000000 )
               b(2) = (  0.000000  0.188985  0.000000 )
               b(3) = (  0.000000  0.000000  0.040763 )

     PseudoPot. # 1 for Sc read from file:
     ../pseudo/Sc.pbe-spn-rrkjus_psl.1.0.0.UPF
     MD5 check sum: f739f74c200e509e5c24cbe053202ee5
     Pseudo is Ultrasoft + core correction, Zval = 11.0
     Generated using "atomic" code by A. Dal Corso v.6.2.2
     Using radial grid of 1173 points,  6 beta functions with:
                l(1) =   0
                l(2) =   0
                l(3) =   1
                l(4) =   1
                l(5) =   2
                l(6) =   2
     Q(r) pseudized with 0 coefficients

     PseudoPot. # 2 for Ir read from file:
     ../pseudo/Ir.pbe-n-rrkjus_psl.0.2.3.UPF
     MD5 check sum: a93e608e8ddc29ee62145620b5f41564
     Pseudo is Ultrasoft + core correction, Zval =  9.0
     Generated using "atomic" code by A. Dal Corso v.5.0.2 svn rev. 9415
     Using radial grid of 1277 points,  6 beta functions with:
                l(1) =   0
                l(2) =   0
                l(3) =   1
                l(4) =   1
                l(5) =   2
                l(6) =   2
     Q(r) pseudized with 0 coefficients

     atomic species   valence    mass     pseudopotential
        Sc            11.00    44.95591     Sc( 1.00)
        Ir             9.00   192.21700     Ir( 1.00)

     No symmetry found

   Cartesian axes

     site n.     atom                  positions (alat units)
         1           Sc  tau(   1) = (   0.0000000   0.0000000  10.0000000  )
         2           Sc  tau(   2) = (   3.6822999   2.6457127  10.0000000  )
         3           Ir  tau(   3) = (   2.7916151   0.0000000  10.0000000  )
         4           Ir  tau(   4) = (   0.8906848   2.6457127  10.0000000  )
         5           Sc  tau(   5) = (   5.5832303   4.0115209  12.2659134  )
         6           Sc  tau(   6) = (   1.9009303   1.3658082  12.2659134  )
         7           Ir  tau(   7) = (   2.7916151   4.0115209  12.2659134  )
         8           Ir  tau(   8) = (   4.6925455   1.3658082  12.2659134  )
         9           Sc  tau(   9) = (   3.7477350   2.6927256  14.6318606  )
        10           Sc  tau(  10) = (   0.0654432   0.0470139  14.6318623  )
        11           Ir  tau(  11) = (   0.9569067   2.6932805  14.4305839  )
        12           Ir  tau(  12) = (   2.8578413   0.0475835  14.4305864  )

     number of k points=    74  Fermi-Dirac smearing, width (Ry)=  0.0100
                       cart. coord. in units 2pi/alat
        k(    1) = (   0.0000000   0.0000000   0.0000000), wk =   0.0138889
        k(    2) = (   0.0000000   0.0157488   0.0000000), wk =   0.0277778
        k(    3) = (   0.0000000   0.0314975   0.0000000), wk =   0.0277778
        k(    4) = (   0.0000000   0.0472463   0.0000000), wk =   0.0277778
        k(    5) = (   0.0000000   0.0629950   0.0000000), wk =   0.0277778
        k(    6) = (   0.0000000   0.0787438   0.0000000), wk =   0.0277778
        k(    7) = (   0.0000000  -0.0944925   0.0000000), wk =   0.0138889
        k(    8) = (   0.0149256  -0.0050248   0.0000000), wk =   0.0277778
        k(    9) = (   0.0149256   0.0107240   0.0000000), wk =   0.0277778
        k(   10) = (   0.0149256   0.0264727   0.0000000), wk =   0.0277778
        k(   11) = (   0.0149256   0.0422215   0.0000000), wk =   0.0277778
        k(   12) = (   0.0149256   0.0579702   0.0000000), wk =   0.0277778
        k(   13) = (   0.0149256   0.0737190   0.0000000), wk =   0.0277778
        k(   14) = (   0.0149256  -0.0995173   0.0000000), wk =   0.0277778
        k(   15) = (   0.0149256  -0.0837685   0.0000000), wk =   0.0277778
        k(   16) = (   0.0149256  -0.0680198   0.0000000), wk =   0.0277778
        k(   17) = (   0.0149256  -0.0522710   0.0000000), wk =   0.0277778
        k(   18) = (   0.0149256  -0.0365223   0.0000000), wk =   0.0277778
        k(   19) = (   0.0149256  -0.0207735   0.0000000), wk =   0.0277778
        k(   20) = (   0.0298513  -0.0100495   0.0000000), wk =   0.0277778
        k(   21) = (   0.0298513   0.0056992   0.0000000), wk =   0.0277778
        k(   22) = (   0.0298513   0.0214480   0.0000000), wk =   0.0277778
        k(   23) = (   0.0298513   0.0371967   0.0000000), wk =   0.0277778
        k(   24) = (   0.0298513   0.0529455   0.0000000), wk =   0.0277778
        k(   25) = (   0.0298513   0.0686942   0.0000000), wk =   0.0277778
        k(   26) = (   0.0298513  -0.1045420   0.0000000), wk =   0.0277778
        k(   27) = (   0.0298513  -0.0887933   0.0000000), wk =   0.0277778
        k(   28) = (   0.0298513  -0.0730445   0.0000000), wk =   0.0277778
        k(   29) = (   0.0298513  -0.0572958   0.0000000), wk =   0.0277778
        k(   30) = (   0.0298513  -0.0415470   0.0000000), wk =   0.0277778
        k(   31) = (   0.0298513  -0.0257983   0.0000000), wk =   0.0277778
        k(   32) = (   0.0447769  -0.0150743   0.0000000), wk =   0.0277778
        k(   33) = (   0.0447769   0.0006745   0.0000000), wk =   0.0277778
        k(   34) = (   0.0447769   0.0164232   0.0000000), wk =   0.0277778
        k(   35) = (   0.0447769   0.0321720   0.0000000), wk =   0.0277778
        k(   36) = (   0.0447769   0.0479207   0.0000000), wk =   0.0277778
        k(   37) = (   0.0447769   0.0636695   0.0000000), wk =   0.0277778
        k(   38) = (   0.0447769  -0.1095668   0.0000000), wk =   0.0277778
        k(   39) = (   0.0447769  -0.0938180   0.0000000), wk =   0.0277778
        k(   40) = (   0.0447769  -0.0780693   0.0000000), wk =   0.0277778
        k(   41) = (   0.0447769  -0.0623205   0.0000000), wk =   0.0277778
        k(   42) = (   0.0447769  -0.0465718   0.0000000), wk =   0.0277778
        k(   43) = (   0.0447769  -0.0308230   0.0000000), wk =   0.0277778
        k(   44) = (   0.0597026  -0.0200990   0.0000000), wk =   0.0277778
        k(   45) = (   0.0597026  -0.0043503   0.0000000), wk =   0.0277778
        k(   46) = (   0.0597026   0.0113985   0.0000000), wk =   0.0277778
        k(   47) = (   0.0597026   0.0271472   0.0000000), wk =   0.0277778
        k(   48) = (   0.0597026   0.0428960   0.0000000), wk =   0.0277778
        k(   49) = (   0.0597026   0.0586447   0.0000000), wk =   0.0277778
        k(   50) = (   0.0597026  -0.1145915   0.0000000), wk =   0.0277778
        k(   51) = (   0.0597026  -0.0988428   0.0000000), wk =   0.0277778
        k(   52) = (   0.0597026  -0.0830940   0.0000000), wk =   0.0277778
        k(   53) = (   0.0597026  -0.0673453   0.0000000), wk =   0.0277778
        k(   54) = (   0.0597026  -0.0515965   0.0000000), wk =   0.0277778
        k(   55) = (   0.0597026  -0.0358478   0.0000000), wk =   0.0277778
        k(   56) = (   0.0746282  -0.0251238   0.0000000), wk =   0.0277778
        k(   57) = (   0.0746282  -0.0093750   0.0000000), wk =   0.0277778
        k(   58) = (   0.0746282   0.0063737   0.0000000), wk =   0.0277778
        k(   59) = (   0.0746282   0.0221225   0.0000000), wk =   0.0277778
        k(   60) = (   0.0746282   0.0378712   0.0000000), wk =   0.0277778
        k(   61) = (   0.0746282   0.0536200   0.0000000), wk =   0.0277778
        k(   62) = (   0.0746282  -0.1196163   0.0000000), wk =   0.0277778
        k(   63) = (   0.0746282  -0.1038675   0.0000000), wk =   0.0277778
        k(   64) = (   0.0746282  -0.0881188   0.0000000), wk =   0.0277778
        k(   65) = (   0.0746282  -0.0723700   0.0000000), wk =   0.0277778
        k(   66) = (   0.0746282  -0.0566213   0.0000000), wk =   0.0277778
        k(   67) = (   0.0746282  -0.0408725   0.0000000), wk =   0.0277778
        k(   68) = (  -0.0895539   0.0301485   0.0000000), wk =   0.0138889
        k(   69) = (  -0.0895539   0.0458973   0.0000000), wk =   0.0277778
        k(   70) = (  -0.0895539   0.0616460   0.0000000), wk =   0.0277778
        k(   71) = (  -0.0895539   0.0773948   0.0000000), wk =   0.0277778
        k(   72) = (  -0.0895539   0.0931435   0.0000000), wk =   0.0277778
        k(   73) = (  -0.0895539   0.1088923   0.0000000), wk =   0.0277778
        k(   74) = (  -0.0895539  -0.0643440   0.0000000), wk =   0.0138889

     Initial potential from superposition of free atoms

     starting charge  119.98374, renormalised to  120.00000

     negative rho (up, down):  4.976E-04 0.000E+00

     %%%%%%%%%%%%%%%%%%%%%%%%%%%%%%%%%%%%%%%%%%%%%%%%%%%%%%%%%%%%%%%%%%%%%%%%
     %                                                                      %
     % You are using vdW-DF, which was implemented by the Thonhauser group. %
     % Please cite the following two papers that made this development      %
     % possible and the two reviews that describe the various versions:     %
     %                                                                      %
     %   T. Thonhauser et al., PRL 115, 136402 (2015).                      %
     %   T. Thonhauser et al., PRB 76, 125112 (2007).                       %
     %   K. Berland et al., Rep. Prog. Phys. 78, 066501 (2015).             %
     %   D.C. Langreth et al., J. Phys.: Condens. Matter 21, 084203 (2009). %
     %                                                                      %
     %                                                                      %
     % If you are calculating the stress with vdW-DF, please also cite:     %
     %                                                                      %
     %   R. Sabatini et al., J. Phys.: Condens. Matter 24, 424209 (2012).   %
     %                                                                      %
     %%%%%%%%%%%%%%%%%%%%%%%%%%%%%%%%%%%%%%%%%%%%%%%%%%%%%%%%%%%%%%%%%%%%%%%%

     Adding external electric field

     Computed dipole along edir(3) :
        Dipole                0.0008 Ry au,          0.0021 Debye
        Dipole field          0.0000 Ry au,

        Potential amp.       -0.0002 Ry
        Total length         45.1995 bohr

     Starting wfcs are  114 randomized atomic wfcs

     Self-consistent Calculation

     iteration #  1     ecut=    55.12 Ry     beta= 0.10
     Davidson diagonalization with overlap
     ethr =  1.00E-02,  avg # of iterations =  2.0

[...]

     total energy              =    -969.82555241 Ry
     estimated scf accuracy    <       4.44475798 Ry

[...]

     iteration #  6     ecut=    55.12 Ry     beta= 0.10
     Davidson diagonalization with overlap
     c_bands:  1 eigenvalues not converged
     c_bands:  1 eigenvalues not converged
     c_bands:  1 eigenvalues not converged
     c_bands:  1 eigenvalues not converged
     c_bands:  1 eigenvalues not converged
     c_bands:  2 eigenvalues not converged
     c_bands:  1 eigenvalues not converged
     c_bands:  1 eigenvalues not converged
     c_bands:  2 eigenvalues not converged
     c_bands:  1 eigenvalues not converged
     c_bands:  2 eigenvalues not converged
     c_bands:  1 eigenvalues not converged
     ethr =  9.90E-05,  avg # of iterations = 14.2

[...]

     iteration # 25     ecut=    55.12 Ry     beta= 0.10
     Davidson diagonalization with overlap
     c_bands:  1 eigenvalues not converged
     ethr =  1.08E-08,  avg # of iterations =  7.4

[...]

     total energy              =    -970.26616684 Ry
     estimated scf accuracy    <       0.00001651 Ry

     iteration # 28     ecut=    55.12 Ry     beta= 0.10
     Davidson diagonalization with overlap
     ethr =  1.08E-08,  avg # of iterations =  2.1

[...]

     Adding external electric field

     Computed dipole along edir(3) :
        Dipole                0.0810 Ry au,          0.2059 Debye
        Dipole field          0.0002 Ry au,

        Potential amp.       -0.0188 Ry
        Total length         45.1995 bohr

     End of self-consistent calculation

          k = 0.0000 0.0000 0.0000 ( 33859 PWs)   bands (ev):

   -48.9886 -48.9686 -48.8935 -48.8732 -48.1631 -48.1426 -27.6697 -27.6485
   -27.6371 -27.5674 -27.5615 -27.5413 -27.4838 -27.4684 -27.4307 -27.4102
   -27.3949 -27.3583 -26.8854 -26.8055 -26.7862 -26.7637 -26.7355 -26.6633
    -5.8155  -4.1934  -3.6172  -3.3551  -3.1637  -3.1088  -3.0769  -3.0488
    -2.9884  -2.9252  -2.4350  -2.3263  -2.1828  -1.7563  -1.6888  -1.6698
    -1.4453  -1.4288  -1.3803  -1.3695  -1.3153  -1.2354  -1.0541  -0.8363
    -0.6327  -0.6255  -0.3922  -0.1093   0.0433   0.1249   0.2480   0.4100
     0.7553   0.8693   1.2766   1.5920   1.6989   1.7278   1.8059   2.2172
     2.2897   2.4775   2.4916   2.8767   2.8848   2.9379   3.0744   3.0897

[...]

          k = 0.0746-0.0409 0.0000 ( 33773 PWs)   bands (ev):

[...]

          k =-0.0896 0.0301 0.0000 ( 33748 PWs)   bands (ev):

[...]

          k =-0.0896-0.0643 0.0000 ( 33750 PWs)   bands (ev):

   -48.9873 -48.9682 -48.8921 -48.8728 -48.1621 -48.1417 -27.6722 -27.6483
   -27.6474 -27.5786 -27.5644 -27.5398 -27.5052 -27.4744 -27.4344 -27.4327
   -27.4014 -27.3622 -26.8968 -26.8241 -26.7961 -26.7576 -26.7405 -26.6682
    -4.2227  -3.7199  -3.4371  -3.2956  -2.5119  -2.4797  -2.1670  -2.0987
    -2.0761  -2.0438  -2.0280  -2.0166  -1.9266  -1.7178  -1.5946  -1.5436
    -1.1612  -1.0734  -1.0151  -0.9602  -0.9026  -0.8992  -0.8136  -0.7784
    -0.5013  -0.5010  -0.4860  -0.3215  -0.3042  -0.2933  -0.0169   0.2345
     0.2688   0.3010   0.5729   0.6016   0.6381   0.6934   0.9499   1.0156
     1.2880   1.7018   1.9123   2.1318   2.1754   2.2542   2.3633   2.5448

     the Fermi energy is     0.8527 ev

!    total energy              =    -970.26616138 Ry
     estimated scf accuracy    <       0.00000688 Ry
     smearing contrib. (-TS)   =      -0.03223437 Ry
     internal energy E=F+TS    =    -970.23392700 Ry

     The total energy is F=E-TS. E is the sum of the following terms:
     one-electron contribution =   -7160.48180748 Ry
     hartree contribution      =    3608.71560595 Ry
     xc contribution           =    -304.56339381 Ry
     ewald contribution        =    2886.09565147 Ry
     electric field correction =       0.00001686 Ry

     convergence has been achieved in  28 iterations

     negative rho (up, down):  4.452E-04 0.000E+00

     Forces acting on atoms (cartesian axes, Ry/au):

     atom    1 type  1   force =     0.00453313    0.00324030   -0.02039557
     atom    2 type  1   force =     0.00456144    0.00329898   -0.02041840
     atom    3 type  2   force =     0.00100391    0.00068311    0.02185050
     atom    4 type  2   force =     0.00098178    0.00073944    0.02186865
     atom    5 type  1   force =    -0.00310952   -0.00225027   -0.00801127
     atom    6 type  1   force =    -0.00314814   -0.00223496   -0.00797472
     atom    7 type  2   force =    -0.00153838   -0.00110688    0.00549072
     atom    8 type  2   force =    -0.00154150   -0.00112020    0.00550098
     atom    9 type  1   force =    -0.00051262   -0.00037926    0.00136941
     atom   10 type  1   force =    -0.00049615   -0.00035485    0.00138769
     atom   11 type  2   force =    -0.00036747   -0.00023284   -0.00032666
     atom   12 type  2   force =    -0.00036648   -0.00028256   -0.00034133

     Total force =     0.045657     Total SCF correction =     0.006335
     SCF correction compared to forces is large: reduce conv_thr to get better values

     Writing output data file ./Sc2Ir2/Sc2Ir2_beef.save/

     General routines

     Parallel routines

   This run was terminated on:  20: 0:43  24Jun2022

   JOB DONE.