     Program PWSCF v.6.6 starts on 10Jul2022 at 17:39:10

     R & G space division:  proc/nbgrp/npool/nimage =      37
     Fft bands division:     nmany     =       1
     Reading input from Sc2Mo2.in
Warning: card &CELL ignored
Warning: card / ignored

     Current dimensions of program PWSCF are:
     Max number of different atomic species (ntypx) = 10
     Max number of k-points (npk) =  40000
     Max angular momentum in pseudopotentials (lmaxx) =  3
     Presently stress not available with electric field and gates

     Message from routine cell_base_init:
     DEPRECATED: use true lattice parameter, not A to a.u. conversion factor
     file Sc.pbe-spn-rrkjus_psl.1.0.0.UPF: wavefunction(s)  3S 3P renormalized
     file Mo.pbe-spn-rrkjus_psl.1.0.0.UPF: wavefunction(s)  4S renormalized

     IMPORTANT: XC functional enforced from input :
     Exchange-correlation= BEEF-VDW
                           (   1   4  43  14   2   0   0)
     Any further DFT definition will be discarded
     Please, verify this is what you really want

     Subspace diagonalization in iterative solution of the eigenvalue problem:
     a serial algorithm will be used

     Found symmetry operation: I + ( -0.5000  0.0000  0.0000)
     This is a supercell, fractional translations are disabled

     bravais-lattice index     =            0
     lattice parameter (alat)  =       1.8897  a.u.
     unit-cell volume          =    5122.4863 (a.u.)^3
     number of atoms/cell      =           12
     number of atomic types    =            2
     number of electrons       =       150.00
     number of Kohn-Sham states=           90
     kinetic-energy cutoff     =      55.1240  Ry
     charge density cutoff     =     551.2396  Ry
     convergence threshold     =      1.0E-05
     mixing beta               =       0.1000
     number of iterations used =           10  plain     mixing
     Exchange-correlation= BEEF-VDW
                           (   1   4  43  14   2   0   0)

     celldm(1)=   1.889726  celldm(2)=   0.000000  celldm(3)=   0.000000
     celldm(4)=   0.000000  celldm(5)=   0.000000  celldm(6)=   0.000000

     crystal axes: (cart. coord. in units of alat)
               a(1) = (   5.597029   0.000000   0.000000 )
               a(2) = (  -2.798515   5.466808   0.000000 )
               a(3) = (   0.000000   0.000000  24.808066 )

     reciprocal axes: (cart. coord. in units 2 pi/alat)
               b(1) = (  0.178666  0.091461 -0.000000 )
               b(2) = (  0.000000  0.182922  0.000000 )
               b(3) = (  0.000000 -0.000000  0.040309 )

     PseudoPot. # 1 for Sc read from file:
     ../pseudo/Sc.pbe-spn-rrkjus_psl.1.0.0.UPF
     MD5 check sum: f739f74c200e509e5c24cbe053202ee5
     Pseudo is Ultrasoft + core correction, Zval = 11.0
     Generated using "atomic" code by A. Dal Corso v.6.2.2
     Using radial grid of 1173 points,  6 beta functions with:
                l(1) =   0
                l(2) =   0
                l(3) =   1
                l(4) =   1
                l(5) =   2
                l(6) =   2
     Q(r) pseudized with 0 coefficients

     PseudoPot. # 2 for Mo read from file:
     ../pseudo/Mo.pbe-spn-rrkjus_psl.1.0.0.UPF
     MD5 check sum: 03f09b12e49601d1a456a78ce8b2d514
     Pseudo is Ultrasoft + core correction, Zval = 14.0
     Generated using "atomic" code by A. Dal Corso v.6.3
     Using radial grid of 1229 points,  6 beta functions with:
                l(1) =   0
                l(2) =   0
                l(3) =   1
                l(4) =   1
                l(5) =   2
                l(6) =   2
     Q(r) pseudized with 0 coefficients

     atomic species   valence    mass     pseudopotential
        Sc            11.00    44.95591     Sc( 1.00)
        Mo            14.00    95.95000     Mo( 1.00)

     No symmetry found

   Cartesian axes

     site n.     atom                  positions (alat units)
         1           Sc  tau(   1) = (   0.0000000   0.0000000  10.0000000  )
         2           Sc  tau(   2) = (   2.7985146   0.0000000  10.0000000  )
         3           Mo  tau(   3) = (   1.3992573   2.7334041  10.0000000  )
         4           Mo  tau(   4) = (  -1.3992573   2.7334041  10.0000000  )
         5           Sc  tau(   5) = (   2.7985146   1.4325881  12.4040332  )
         6           Sc  tau(   6) = (   0.0000000   1.4325881  12.4040332  )
         7           Mo  tau(   7) = (  -1.3992573   4.1659922  12.4040332  )
         8           Mo  tau(   8) = (   1.3992573   4.1659922  12.4040332  )
         9           Sc  tau(   9) = (   0.0000062   2.9526305  14.9625113  )
        10           Sc  tau(  10) = (   2.7985051   2.9526282  14.9625072  )
        11           Mo  tau(  11) = (   4.1977728   0.0494052  14.5275462  )
        12           Mo  tau(  12) = (   1.3992573   0.0494048  14.5275604  )

     number of k points=    74  Fermi-Dirac smearing, width (Ry)=  0.0100
                       cart. coord. in units 2pi/alat
        k(    1) = (   0.0000000   0.0000000   0.0000000), wk =   0.0138889
        k(    2) = (   0.0000000   0.0152435   0.0000000), wk =   0.0277778
        k(    3) = (   0.0000000   0.0304870   0.0000000), wk =   0.0277778
        k(    4) = (   0.0000000   0.0457305   0.0000000), wk =   0.0277778
        k(    5) = (   0.0000000   0.0609740   0.0000000), wk =   0.0277778
        k(    6) = (   0.0000000   0.0762175   0.0000000), wk =   0.0277778
        k(    7) = (   0.0000000  -0.0914611   0.0000000), wk =   0.0138889
        k(    8) = (   0.0148889   0.0076218   0.0000000), wk =   0.0277778
        k(    9) = (   0.0148889   0.0228653   0.0000000), wk =   0.0277778
        k(   10) = (   0.0148889   0.0381088   0.0000000), wk =   0.0277778
        k(   11) = (   0.0148889   0.0533523   0.0000000), wk =   0.0277778
        k(   12) = (   0.0148889   0.0685958   0.0000000), wk =   0.0277778
        k(   13) = (   0.0148889   0.0838393   0.0000000), wk =   0.0277778
        k(   14) = (   0.0148889  -0.0838393   0.0000000), wk =   0.0277778
        k(   15) = (   0.0148889  -0.0685958   0.0000000), wk =   0.0277778
        k(   16) = (   0.0148889  -0.0533523   0.0000000), wk =   0.0277778
        k(   17) = (   0.0148889  -0.0381088   0.0000000), wk =   0.0277778
        k(   18) = (   0.0148889  -0.0228653   0.0000000), wk =   0.0277778
        k(   19) = (   0.0148889  -0.0076218   0.0000000), wk =   0.0277778
        k(   20) = (   0.0297777   0.0152435   0.0000000), wk =   0.0277778
        k(   21) = (   0.0297777   0.0304870   0.0000000), wk =   0.0277778
        k(   22) = (   0.0297777   0.0457305   0.0000000), wk =   0.0277778
        k(   23) = (   0.0297777   0.0609740   0.0000000), wk =   0.0277778
        k(   24) = (   0.0297777   0.0762175   0.0000000), wk =   0.0277778
        k(   25) = (   0.0297777   0.0914611   0.0000000), wk =   0.0277778
        k(   26) = (   0.0297777  -0.0762175   0.0000000), wk =   0.0277778
        k(   27) = (   0.0297777  -0.0609740   0.0000000), wk =   0.0277778
        k(   28) = (   0.0297777  -0.0457305   0.0000000), wk =   0.0277778
        k(   29) = (   0.0297777  -0.0304870   0.0000000), wk =   0.0277778
        k(   30) = (   0.0297777  -0.0152435   0.0000000), wk =   0.0277778
        k(   31) = (   0.0297777   0.0000000   0.0000000), wk =   0.0277778
        k(   32) = (   0.0446666   0.0228653   0.0000000), wk =   0.0277778
        k(   33) = (   0.0446666   0.0381088   0.0000000), wk =   0.0277778
        k(   34) = (   0.0446666   0.0533523   0.0000000), wk =   0.0277778
        k(   35) = (   0.0446666   0.0685958   0.0000000), wk =   0.0277778
        k(   36) = (   0.0446666   0.0838393   0.0000000), wk =   0.0277778
        k(   37) = (   0.0446666   0.0990828   0.0000000), wk =   0.0277778
        k(   38) = (   0.0446666  -0.0685958   0.0000000), wk =   0.0277778
        k(   39) = (   0.0446666  -0.0533523   0.0000000), wk =   0.0277778
        k(   40) = (   0.0446666  -0.0381088   0.0000000), wk =   0.0277778
        k(   41) = (   0.0446666  -0.0228653   0.0000000), wk =   0.0277778
        k(   42) = (   0.0446666  -0.0076218   0.0000000), wk =   0.0277778
        k(   43) = (   0.0446666   0.0076218   0.0000000), wk =   0.0277778
        k(   44) = (   0.0595554   0.0304870   0.0000000), wk =   0.0277778
        k(   45) = (   0.0595554   0.0457305   0.0000000), wk =   0.0277778
        k(   46) = (   0.0595554   0.0609740   0.0000000), wk =   0.0277778
        k(   47) = (   0.0595554   0.0762175   0.0000000), wk =   0.0277778
        k(   48) = (   0.0595554   0.0914611   0.0000000), wk =   0.0277778
        k(   49) = (   0.0595554   0.1067046   0.0000000), wk =   0.0277778
        k(   50) = (   0.0595554  -0.0609740   0.0000000), wk =   0.0277778
        k(   51) = (   0.0595554  -0.0457305   0.0000000), wk =   0.0277778
        k(   52) = (   0.0595554  -0.0304870   0.0000000), wk =   0.0277778
        k(   53) = (   0.0595554  -0.0152435   0.0000000), wk =   0.0277778
        k(   54) = (   0.0595554   0.0000000   0.0000000), wk =   0.0277778
        k(   55) = (   0.0595554   0.0152435   0.0000000), wk =   0.0277778
        k(   56) = (   0.0744443   0.0381088   0.0000000), wk =   0.0277778
        k(   57) = (   0.0744443   0.0533523   0.0000000), wk =   0.0277778
        k(   58) = (   0.0744443   0.0685958   0.0000000), wk =   0.0277778
        k(   59) = (   0.0744443   0.0838393   0.0000000), wk =   0.0277778
        k(   60) = (   0.0744443   0.0990828   0.0000000), wk =   0.0277778
        k(   61) = (   0.0744443   0.1143263   0.0000000), wk =   0.0277778
        k(   62) = (   0.0744443  -0.0533523   0.0000000), wk =   0.0277778
        k(   63) = (   0.0744443  -0.0381088   0.0000000), wk =   0.0277778
        k(   64) = (   0.0744443  -0.0228653   0.0000000), wk =   0.0277778
        k(   65) = (   0.0744443  -0.0076217   0.0000000), wk =   0.0277778
        k(   66) = (   0.0744443   0.0076218   0.0000000), wk =   0.0277778
        k(   67) = (   0.0744443   0.0228653   0.0000000), wk =   0.0277778
        k(   68) = (  -0.0893331  -0.0457305   0.0000000), wk =   0.0138889
        k(   69) = (  -0.0893331  -0.0304870   0.0000000), wk =   0.0277778
        k(   70) = (  -0.0893331  -0.0152435   0.0000000), wk =   0.0277778
        k(   71) = (  -0.0893331  -0.0000000   0.0000000), wk =   0.0277778
        k(   72) = (  -0.0893331   0.0152435   0.0000000), wk =   0.0277778
        k(   73) = (  -0.0893331   0.0304870   0.0000000), wk =   0.0277778
        k(   74) = (  -0.0893331  -0.1371916   0.0000000), wk =   0.0138889

     Check: negative core charge=   -0.000001

     Initial potential from superposition of free atoms

     starting charge  149.97935, renormalised to  150.00000

     negative rho (up, down):  5.857E-04 0.000E+00

     %%%%%%%%%%%%%%%%%%%%%%%%%%%%%%%%%%%%%%%%%%%%%%%%%%%%%%%%%%%%%%%%%%%%%%%%
     %                                                                      %
     % You are using vdW-DF, which was implemented by the Thonhauser group. %
     % Please cite the following two papers that made this development      %
     % possible and the two reviews that describe the various versions:     %
     %                                                                      %
     %   T. Thonhauser et al., PRL 115, 136402 (2015).                      %
     %   T. Thonhauser et al., PRB 76, 125112 (2007).                       %
     %   K. Berland et al., Rep. Prog. Phys. 78, 066501 (2015).             %
     %   D.C. Langreth et al., J. Phys.: Condens. Matter 21, 084203 (2009). %
     %                                                                      %
     %                                                                      %
     % If you are calculating the stress with vdW-DF, please also cite:     %
     %                                                                      %
     %   R. Sabatini et al., J. Phys.: Condens. Matter 24, 424209 (2012).   %
     %                                                                      %
     %%%%%%%%%%%%%%%%%%%%%%%%%%%%%%%%%%%%%%%%%%%%%%%%%%%%%%%%%%%%%%%%%%%%%%%%

     Adding external electric field

     Computed dipole along edir(3) :
        Dipole                0.0017 Ry au,          0.0044 Debye
        Dipole field          0.0000 Ry au,

        Potential amp.       -0.0004 Ry
        Total length         45.7084 bohr

     Starting wfcs are  120 randomized atomic wfcs

     Self-consistent Calculation

     iteration #  1     ecut=    55.12 Ry     beta= 0.10
     Davidson diagonalization with overlap
     ethr =  1.00E-02,  avg # of iterations =  2.1

[...]

     total energy              =   -1430.80932744 Ry
     estimated scf accuracy    <       6.87308386 Ry

[...]

     iteration #  5     ecut=    55.12 Ry     beta= 0.10
     Davidson diagonalization with overlap
     c_bands:  5 eigenvalues not converged
     ethr =  3.75E-04,  avg # of iterations =  9.4

[...]

     iteration # 15     ecut=    55.12 Ry     beta= 0.10
     Davidson diagonalization with overlap
     ethr =  4.75E-06,  avg # of iterations =  1.2

[...]

     total energy              =   -1431.70509256 Ry
     estimated scf accuracy    <       0.00002079 Ry

     iteration # 20     ecut=    55.12 Ry     beta= 0.10
     Davidson diagonalization with overlap
     c_bands:  1 eigenvalues not converged
     ethr =  1.39E-08,  avg # of iterations =  7.5

[...]

     Adding external electric field

     Computed dipole along edir(3) :
        Dipole                0.1617 Ry au,          0.4111 Debye
        Dipole field          0.0004 Ry au,

        Potential amp.       -0.0363 Ry
        Total length         45.7084 bohr

     End of self-consistent calculation

          k = 0.0000 0.0000 0.0000 ( 35447 PWs)   bands (ev):

   -59.5239 -59.4415 -59.3619 -59.2808 -59.2683 -59.1870 -48.3730 -48.2606
   -48.2539 -48.1406 -47.7711 -47.6569 -34.0091 -33.9123 -33.8876 -33.7171
   -33.6493 -33.5206 -33.4399 -33.4322 -33.3675 -33.3586 -33.2960 -33.2812
   -33.2082 -33.1519 -33.0062 -32.9956 -32.9379 -32.9269 -27.3452 -27.2750
   -27.0741 -26.9743 -26.9707 -26.8728 -26.8695 -26.8172 -26.7813 -26.7476
   -26.6547 -26.5587 -26.4854 -26.3454 -26.2783 -26.2565 -26.1852 -26.0238
    -3.8808  -2.5664  -2.2544  -1.9107  -1.6837  -1.6517  -1.3764  -1.1830
    -1.1282  -1.0565  -1.0300  -1.0056  -0.7867  -0.7711  -0.4013  -0.3800
     0.2126   0.2432   0.2792   0.5282   0.5402   1.2076   1.4240   1.5345
     1.6773   1.7599   1.7872   1.8542   2.0233   2.0801   2.2599   2.4554
     2.5272   2.5495   2.6360   2.6414   2.6568   2.8020   2.8466   2.8939
     2.9966   3.2877

[...]

          k = 0.0744 0.0229 0.0000 ( 35379 PWs)   bands (ev):

[...]

          k =-0.0893-0.0457 0.0000 ( 35312 PWs)   bands (ev):

[...]

          k =-0.0893-0.1372 0.0000 ( 35312 PWs)   bands (ev):

   -59.4828 -59.4827 -59.3214 -59.3213 -59.2277 -59.2277 -48.3173 -48.3173
   -48.1978 -48.1978 -47.7146 -47.7145 -33.9599 -33.9599 -33.5270 -33.5270
   -33.4740 -33.4739 -33.3988 -33.3988 -33.3636 -33.3635 -33.3232 -33.3231
   -33.2958 -33.2958 -33.2513 -33.2513 -32.9721 -32.9720 -27.0256 -27.0255
   -26.9627 -26.9626 -26.9212 -26.9212 -26.8911 -26.8911 -26.8318 -26.8318
   -26.7061 -26.7061 -26.4315 -26.4313 -26.3009 -26.3008 -26.2360 -26.2359
    -2.2723  -2.2723  -1.3577  -1.3577  -1.0748  -1.0748  -0.8738  -0.8738
    -0.6885  -0.6885  -0.2346  -0.2346  -0.0587  -0.0587   0.0738   0.0738
     0.2825   0.2825   0.5052   0.5052   0.7463   0.7463   0.9072   0.9073
     0.9995   0.9995   1.0537   1.0537   1.4636   1.4636   1.6660   1.6660
     1.9340   1.9341   2.0155   2.0155   2.4087   2.4088   2.7029   2.7029
     2.9924   2.9931

     the Fermi energy is     1.4524 ev

!    total energy              =   -1431.70509442 Ry
     estimated scf accuracy    <       0.00000652 Ry
     smearing contrib. (-TS)   =      -0.08124237 Ry
     internal energy E=F+TS    =   -1431.62385205 Ry

     The total energy is F=E-TS. E is the sum of the following terms:
     one-electron contribution =  -10972.22736734 Ry
     hartree contribution      =    5475.87839540 Ry
     xc contribution           =    -229.86766265 Ry
     ewald contribution        =    4294.59271836 Ry
     electric field correction =       0.00006418 Ry

     convergence has been achieved in  20 iterations

     negative rho (up, down):  5.423E-04 0.000E+00

     Forces acting on atoms (cartesian axes, Ry/au):

     atom    1 type  1   force =     0.00000441   -0.01510837   -0.02714377
     atom    2 type  1   force =     0.00000161   -0.01508115   -0.02712939
     atom    3 type  2   force =     0.00000667    0.01050377    0.04300892
     atom    4 type  2   force =    -0.00000311    0.01050202    0.04302345
     atom    5 type  1   force =     0.00000944    0.01785188   -0.00440524
     atom    6 type  1   force =    -0.00000563    0.01787058   -0.00439662
     atom    7 type  2   force =     0.00000547   -0.01161431   -0.01305155
     atom    8 type  2   force =    -0.00000014   -0.01160337   -0.01304945
     atom    9 type  1   force =    -0.00000805   -0.00139012    0.00020470
     atom   10 type  1   force =    -0.00000294   -0.00140285    0.00020481
     atom   11 type  2   force =    -0.00000556   -0.00026372    0.00136633
     atom   12 type  2   force =    -0.00000218   -0.00026437    0.00136780

     Total force =     0.084526     Total SCF correction =     0.003810

     Writing output data file ./Sc2Mo2/Sc2Mo2_beef.save/

     General routines

     Parallel routines

   This run was terminated on:  19: 2:36  10Jul2022

   JOB DONE.