     Program PWSCF v.6.6 starts on 11Jul2022 at  2:28:20

     R & G space division:  proc/nbgrp/npool/nimage =      37
     Fft bands division:     nmany     =       1
     Reading input from Sc2Nb2.in
Warning: card &CELL ignored
Warning: card / ignored

     Current dimensions of program PWSCF are:
     Max number of different atomic species (ntypx) = 10
     Max number of k-points (npk) =  40000
     Max angular momentum in pseudopotentials (lmaxx) =  3
     Presently stress not available with electric field and gates

     Message from routine cell_base_init:
     DEPRECATED: use true lattice parameter, not A to a.u. conversion factor
     file Sc.pbe-spn-rrkjus_psl.1.0.0.UPF: wavefunction(s)  3S 3P renormalized
     file Nb.pbe-spn-rrkjus_psl.1.0.0.UPF: wavefunction(s)  4S 4P renormalized

     IMPORTANT: XC functional enforced from input :
     Exchange-correlation= BEEF-VDW
                           (   1   4  43  14   2   0   0)
     Any further DFT definition will be discarded
     Please, verify this is what you really want

     Subspace diagonalization in iterative solution of the eigenvalue problem:
     a serial algorithm will be used

     Found symmetry operation: I + ( -0.5000  0.0000  0.0000)
     This is a supercell, fractional translations are disabled

     bravais-lattice index     =            0
     lattice parameter (alat)  =       1.8897  a.u.
     unit-cell volume          =    5505.1099 (a.u.)^3
     number of atoms/cell      =           12
     number of atomic types    =            2
     number of electrons       =       144.00
     number of Kohn-Sham states=           86
     kinetic-energy cutoff     =      55.1240  Ry
     charge density cutoff     =     551.2396  Ry
     convergence threshold     =      1.0E-05
     mixing beta               =       0.1000
     number of iterations used =           10  plain     mixing
     Exchange-correlation= BEEF-VDW
                           (   1   4  43  14   2   0   0)

     celldm(1)=   1.889726  celldm(2)=   0.000000  celldm(3)=   0.000000
     celldm(4)=   0.000000  celldm(5)=   0.000000  celldm(6)=   0.000000

     crystal axes: (cart. coord. in units of alat)
               a(1) = (   5.817503   0.000000   0.000000 )
               a(2) = (  -2.908752   5.614507   0.000000 )
               a(3) = (   0.000000   0.000000  24.975905 )

     reciprocal axes: (cart. coord. in units 2 pi/alat)
               b(1) = (  0.171895  0.089055 -0.000000 )
               b(2) = (  0.000000  0.178110  0.000000 )
               b(3) = (  0.000000 -0.000000  0.040039 )

     PseudoPot. # 1 for Sc read from file:
     ../pseudo/Sc.pbe-spn-rrkjus_psl.1.0.0.UPF
     MD5 check sum: f739f74c200e509e5c24cbe053202ee5
     Pseudo is Ultrasoft + core correction, Zval = 11.0
     Generated using "atomic" code by A. Dal Corso v.6.2.2
     Using radial grid of 1173 points,  6 beta functions with:
                l(1) =   0
                l(2) =   0
                l(3) =   1
                l(4) =   1
                l(5) =   2
                l(6) =   2
     Q(r) pseudized with 0 coefficients

     PseudoPot. # 2 for Nb read from file:
     ../pseudo/Nb.pbe-spn-rrkjus_psl.1.0.0.UPF
     MD5 check sum: 6ee677a9f002bd3e3657f443f129faad
     Pseudo is Ultrasoft + core correction, Zval = 13.0
     Generated using "atomic" code by A. Dal Corso v.6.2.2
     Using radial grid of 1227 points,  6 beta functions with:
                l(1) =   0
                l(2) =   0
                l(3) =   1
                l(4) =   1
                l(5) =   2
                l(6) =   2
     Q(r) pseudized with 0 coefficients

     atomic species   valence    mass     pseudopotential
        Sc            11.00    44.95591     Sc( 1.00)
        Nb            13.00    92.90637     Nb( 1.00)

     No symmetry found

   Cartesian axes

     site n.     atom                  positions (alat units)
         1           Sc  tau(   1) = (   0.0000000   0.0000000  10.0000000  )
         2           Sc  tau(   2) = (   2.9087516   0.0000000  10.0000000  )
         3           Nb  tau(   3) = (   1.4543758   2.8072535  10.0000000  )
         4           Nb  tau(   4) = (  -1.4543758   2.8072535  10.0000000  )
         5           Sc  tau(   5) = (   2.9087516   1.5069598  12.4879527  )
         6           Sc  tau(   6) = (   0.0000000   1.5069598  12.4879527  )
         7           Nb  tau(   7) = (  -1.4543758   4.3142133  12.4879527  )
         8           Nb  tau(   8) = (   1.4543758   4.3142133  12.4879527  )
         9           Sc  tau(   9) = (  -0.0000416   3.0891361  15.0438628  )
        10           Sc  tau(  10) = (   2.9087155   3.0891612  15.0438954  )
        11           Nb  tau(  11) = (   4.3631058   0.1347033  14.7335204  )
        12           Nb  tau(  12) = (   1.4543725   0.1347024  14.7335226  )

     number of k points=    74  Fermi-Dirac smearing, width (Ry)=  0.0100
                       cart. coord. in units 2pi/alat
        k(    1) = (   0.0000000   0.0000000   0.0000000), wk =   0.0138889
        k(    2) = (   0.0000000   0.0148425   0.0000000), wk =   0.0277778
        k(    3) = (   0.0000000   0.0296850   0.0000000), wk =   0.0277778
        k(    4) = (   0.0000000   0.0445275   0.0000000), wk =   0.0277778
        k(    5) = (   0.0000000   0.0593700   0.0000000), wk =   0.0277778
        k(    6) = (   0.0000000   0.0742125   0.0000000), wk =   0.0277778
        k(    7) = (   0.0000000  -0.0890550   0.0000000), wk =   0.0138889
        k(    8) = (   0.0143246   0.0074213   0.0000000), wk =   0.0277778
        k(    9) = (   0.0143246   0.0222638   0.0000000), wk =   0.0277778
        k(   10) = (   0.0143246   0.0371063   0.0000000), wk =   0.0277778
        k(   11) = (   0.0143246   0.0519488   0.0000000), wk =   0.0277778
        k(   12) = (   0.0143246   0.0667913   0.0000000), wk =   0.0277778
        k(   13) = (   0.0143246   0.0816338   0.0000000), wk =   0.0277778
        k(   14) = (   0.0143246  -0.0816338   0.0000000), wk =   0.0277778
        k(   15) = (   0.0143246  -0.0667913   0.0000000), wk =   0.0277778
        k(   16) = (   0.0143246  -0.0519488   0.0000000), wk =   0.0277778
        k(   17) = (   0.0143246  -0.0371063   0.0000000), wk =   0.0277778
        k(   18) = (   0.0143246  -0.0222638   0.0000000), wk =   0.0277778
        k(   19) = (   0.0143246  -0.0074212   0.0000000), wk =   0.0277778
        k(   20) = (   0.0286492   0.0148425   0.0000000), wk =   0.0277778
        k(   21) = (   0.0286492   0.0296850   0.0000000), wk =   0.0277778
        k(   22) = (   0.0286492   0.0445275   0.0000000), wk =   0.0277778
        k(   23) = (   0.0286492   0.0593700   0.0000000), wk =   0.0277778
        k(   24) = (   0.0286492   0.0742125   0.0000000), wk =   0.0277778
        k(   25) = (   0.0286492   0.0890550   0.0000000), wk =   0.0277778
        k(   26) = (   0.0286492  -0.0742125   0.0000000), wk =   0.0277778
        k(   27) = (   0.0286492  -0.0593700   0.0000000), wk =   0.0277778
        k(   28) = (   0.0286492  -0.0445275   0.0000000), wk =   0.0277778
        k(   29) = (   0.0286492  -0.0296850   0.0000000), wk =   0.0277778
        k(   30) = (   0.0286492  -0.0148425   0.0000000), wk =   0.0277778
        k(   31) = (   0.0286492   0.0000000   0.0000000), wk =   0.0277778
        k(   32) = (   0.0429738   0.0222638   0.0000000), wk =   0.0277778
        k(   33) = (   0.0429738   0.0371063   0.0000000), wk =   0.0277778
        k(   34) = (   0.0429738   0.0519488   0.0000000), wk =   0.0277778
        k(   35) = (   0.0429738   0.0667913   0.0000000), wk =   0.0277778
        k(   36) = (   0.0429738   0.0816338   0.0000000), wk =   0.0277778
        k(   37) = (   0.0429738   0.0964763   0.0000000), wk =   0.0277778
        k(   38) = (   0.0429738  -0.0667913   0.0000000), wk =   0.0277778
        k(   39) = (   0.0429738  -0.0519488   0.0000000), wk =   0.0277778
        k(   40) = (   0.0429738  -0.0371063   0.0000000), wk =   0.0277778
        k(   41) = (   0.0429738  -0.0222637   0.0000000), wk =   0.0277778
        k(   42) = (   0.0429738  -0.0074212   0.0000000), wk =   0.0277778
        k(   43) = (   0.0429738   0.0074213   0.0000000), wk =   0.0277778
        k(   44) = (   0.0572984   0.0296850   0.0000000), wk =   0.0277778
        k(   45) = (   0.0572984   0.0445275   0.0000000), wk =   0.0277778
        k(   46) = (   0.0572984   0.0593700   0.0000000), wk =   0.0277778
        k(   47) = (   0.0572984   0.0742125   0.0000000), wk =   0.0277778
        k(   48) = (   0.0572984   0.0890550   0.0000000), wk =   0.0277778
        k(   49) = (   0.0572984   0.1038975   0.0000000), wk =   0.0277778
        k(   50) = (   0.0572984  -0.0593700   0.0000000), wk =   0.0277778
        k(   51) = (   0.0572984  -0.0445275   0.0000000), wk =   0.0277778
        k(   52) = (   0.0572984  -0.0296850   0.0000000), wk =   0.0277778
        k(   53) = (   0.0572984  -0.0148425   0.0000000), wk =   0.0277778
        k(   54) = (   0.0572984   0.0000000   0.0000000), wk =   0.0277778
        k(   55) = (   0.0572984   0.0148425   0.0000000), wk =   0.0277778
        k(   56) = (   0.0716229   0.0371063   0.0000000), wk =   0.0277778
        k(   57) = (   0.0716229   0.0519488   0.0000000), wk =   0.0277778
        k(   58) = (   0.0716229   0.0667913   0.0000000), wk =   0.0277778
        k(   59) = (   0.0716229   0.0816338   0.0000000), wk =   0.0277778
        k(   60) = (   0.0716229   0.0964763   0.0000000), wk =   0.0277778
        k(   61) = (   0.0716229   0.1113188   0.0000000), wk =   0.0277778
        k(   62) = (   0.0716229  -0.0519488   0.0000000), wk =   0.0277778
        k(   63) = (   0.0716229  -0.0371062   0.0000000), wk =   0.0277778
        k(   64) = (   0.0716229  -0.0222637   0.0000000), wk =   0.0277778
        k(   65) = (   0.0716229  -0.0074212   0.0000000), wk =   0.0277778
        k(   66) = (   0.0716229   0.0074213   0.0000000), wk =   0.0277778
        k(   67) = (   0.0716229   0.0222638   0.0000000), wk =   0.0277778
        k(   68) = (  -0.0859475  -0.0445275   0.0000000), wk =   0.0138889
        k(   69) = (  -0.0859475  -0.0296850   0.0000000), wk =   0.0277778
        k(   70) = (  -0.0859475  -0.0148425   0.0000000), wk =   0.0277778
        k(   71) = (  -0.0859475  -0.0000000   0.0000000), wk =   0.0277778
        k(   72) = (  -0.0859475   0.0148425   0.0000000), wk =   0.0277778
        k(   73) = (  -0.0859475   0.0296850   0.0000000), wk =   0.0277778
        k(   74) = (  -0.0859475  -0.1335825   0.0000000), wk =   0.0138889

     Check: negative core charge=   -0.000001

     Initial potential from superposition of free atoms

     starting charge  143.97678, renormalised to  144.00000

     negative rho (up, down):  9.851E-04 0.000E+00

     %%%%%%%%%%%%%%%%%%%%%%%%%%%%%%%%%%%%%%%%%%%%%%%%%%%%%%%%%%%%%%%%%%%%%%%%
     %                                                                      %
     % You are using vdW-DF, which was implemented by the Thonhauser group. %
     % Please cite the following two papers that made this development      %
     % possible and the two reviews that describe the various versions:     %
     %                                                                      %
     %   T. Thonhauser et al., PRL 115, 136402 (2015).                      %
     %   T. Thonhauser et al., PRB 76, 125112 (2007).                       %
     %   K. Berland et al., Rep. Prog. Phys. 78, 066501 (2015).             %
     %   D.C. Langreth et al., J. Phys.: Condens. Matter 21, 084203 (2009). %
     %                                                                      %
     %                                                                      %
     % If you are calculating the stress with vdW-DF, please also cite:     %
     %                                                                      %
     %   R. Sabatini et al., J. Phys.: Condens. Matter 24, 424209 (2012).   %
     %                                                                      %
     %%%%%%%%%%%%%%%%%%%%%%%%%%%%%%%%%%%%%%%%%%%%%%%%%%%%%%%%%%%%%%%%%%%%%%%%

     Adding external electric field

     Computed dipole along edir(3) :
        Dipole                0.0009 Ry au,          0.0023 Debye
        Dipole field          0.0000 Ry au,

        Potential amp.       -0.0002 Ry
        Total length         46.0177 bohr

     Starting wfcs are  138 randomized atomic wfcs

     Self-consistent Calculation

     iteration #  1     ecut=    55.12 Ry     beta= 0.10
     Davidson diagonalization with overlap
     ethr =  1.00E-02,  avg # of iterations =  2.0

[...]

     total energy              =   -1301.80455047 Ry
     estimated scf accuracy    <       7.45410546 Ry

[...]

     iteration #  9     ecut=    55.12 Ry     beta= 0.10
     Davidson diagonalization with overlap
     c_bands:  1 eigenvalues not converged
     c_bands:  1 eigenvalues not converged
     c_bands:  5 eigenvalues not converged
     c_bands:  3 eigenvalues not converged
     c_bands:  3 eigenvalues not converged
     c_bands:  1 eigenvalues not converged
     c_bands:  1 eigenvalues not converged
     c_bands:  1 eigenvalues not converged
     ethr =  1.00E-04,  avg # of iterations = 10.1

[...]

     iteration # 19     ecut=    55.12 Ry     beta= 0.10
     Davidson diagonalization with overlap
     c_bands:  1 eigenvalues not converged
     ethr =  3.43E-08,  avg # of iterations =  9.5

[...]

     total energy              =   -1302.69969187 Ry
     estimated scf accuracy    <       0.00001635 Ry

     iteration # 21     ecut=    55.12 Ry     beta= 0.10
     Davidson diagonalization with overlap
     ethr =  1.14E-08,  avg # of iterations =  3.2

[...]

     Adding external electric field

     Computed dipole along edir(3) :
        Dipole                0.0736 Ry au,          0.1870 Debye
        Dipole field          0.0002 Ry au,

        Potential amp.       -0.0155 Ry
        Total length         46.0177 bohr

     End of self-consistent calculation

          k = 0.0000 0.0000 0.0000 ( 37911 PWs)   bands (ev):

   -53.7886 -53.7054 -53.6660 -53.5806 -53.5333 -53.4503 -48.6505 -48.5853
   -48.5768 -48.5114 -48.0333 -47.9588 -30.1304 -30.1237 -30.0703 -30.0171
   -29.9394 -29.8307 -29.7812 -29.7444 -29.6830 -29.6778 -29.5781 -29.5437
   -29.4404 -29.3738 -29.2961 -29.2180 -29.1951 -29.1434 -27.5194 -27.4773
   -27.3094 -27.2498 -27.2456 -27.1835 -27.1520 -27.1008 -27.0769 -27.0234
   -26.9606 -26.9341 -26.9172 -26.6380 -26.5783 -26.5342 -26.4809 -26.3713
    -3.8577  -2.6592  -1.7855  -1.7291  -1.3986  -1.3815  -1.1730  -0.8924
    -0.8788  -0.8567  -0.7998  -0.6138  -0.4985  -0.4535  -0.3452  -0.1301
     0.4511   0.5036   0.6665   0.7452   0.9319   1.1712   1.5070   1.6298
     1.6348   1.7463   1.8436   1.9394   2.0078   2.0831   2.2306   2.3504
     2.5077   2.5336   2.5900   2.7268   2.8008   2.8904

[...]

          k = 0.0716 0.0223 0.0000 ( 38067 PWs)   bands (ev):

[...]

          k =-0.0859-0.0445 0.0000 ( 38116 PWs)   bands (ev):

[...]

          k =-0.0859-0.1336 0.0000 ( 38116 PWs)   bands (ev):

   -53.7474 -53.7474 -53.6237 -53.6237 -53.4923 -53.4923 -48.6139 -48.6138
   -48.5487 -48.5485 -47.9963 -47.9963 -30.0675 -30.0675 -29.7889 -29.7889
   -29.7597 -29.7596 -29.7250 -29.7250 -29.6919 -29.6918 -29.6223 -29.6222
   -29.5759 -29.5759 -29.4900 -29.4900 -29.1806 -29.1806 -27.2803 -27.2802
   -27.2489 -27.2488 -27.2167 -27.2166 -27.2056 -27.2054 -27.1343 -27.1342
   -27.0575 -27.0573 -26.6610 -26.6610 -26.6084 -26.6084 -26.5126 -26.5126
    -2.2980  -2.2980  -1.3182  -1.3182  -0.8611  -0.8611  -0.6095  -0.6095
    -0.3821  -0.3821  -0.0500  -0.0500   0.2381   0.2381   0.3988   0.3988
     0.4740   0.4741   0.6196   0.6196   0.8701   0.8701   0.9997   0.9997
     1.1371   1.1371   1.2466   1.2466   1.4714   1.4714   1.7891   1.7891
     1.9192   1.9193   2.0121   2.0122   2.3162   2.3162

     the Fermi energy is     1.1816 ev

!    total energy              =   -1302.69969348 Ry
     estimated scf accuracy    <       0.00000220 Ry
     smearing contrib. (-TS)   =      -0.08762748 Ry
     internal energy E=F+TS    =   -1302.61206600 Ry

     The total energy is F=E-TS. E is the sum of the following terms:
     one-electron contribution =   -9377.28329063 Ry
     hartree contribution      =    4677.50212986 Ry
     xc contribution           =    -223.98804773 Ry
     ewald contribution        =    3621.15713015 Ry
     electric field correction =       0.00001235 Ry

     convergence has been achieved in  21 iterations

     negative rho (up, down):  8.941E-04 0.000E+00

     Forces acting on atoms (cartesian axes, Ry/au):

     atom    1 type  1   force =    -0.00000518   -0.01072631   -0.01263704
     atom    2 type  1   force =     0.00000450   -0.01071811   -0.01262274
     atom    3 type  2   force =    -0.00000313    0.01376506    0.03452058
     atom    4 type  2   force =     0.00000070    0.01376407    0.03451810
     atom    5 type  1   force =    -0.00000503    0.00895501   -0.00746920
     atom    6 type  1   force =     0.00000581    0.00897093   -0.00747374
     atom    7 type  2   force =     0.00000601   -0.01326827   -0.01544191
     atom    8 type  2   force =    -0.00000378   -0.01327706   -0.01545176
     atom    9 type  1   force =    -0.00000758    0.00020095    0.00056379
     atom   10 type  1   force =    -0.00000098    0.00019865    0.00056197
     atom   11 type  2   force =     0.00000279    0.00106814    0.00046617
     atom   12 type  2   force =     0.00000588    0.00106693    0.00046577

     Total force =     0.066456     Total SCF correction =     0.004131

     Writing output data file ./Sc2Nb2/Sc2Nb2_beef.save/

     General routines

     Parallel routines

   This run was terminated on:   3:59:43  11Jul2022

   JOB DONE.