     Program PWSCF v.6.6 starts on 11Jul2022 at  3:59:49

     R & G space division:  proc/nbgrp/npool/nimage =      37
     Fft bands division:     nmany     =       1
     Reading input from Sc2Os2.in
Warning: card &CELL ignored
Warning: card / ignored

     Current dimensions of program PWSCF are:
     Max number of different atomic species (ntypx) = 10
     Max number of k-points (npk) =  40000
     Max angular momentum in pseudopotentials (lmaxx) =  3
     Presently stress not available with electric field and gates

     Message from routine cell_base_init:
     DEPRECATED: use true lattice parameter, not A to a.u. conversion factor
     file Sc.pbe-spn-rrkjus_psl.1.0.0.UPF: wavefunction(s)  3S 3P renormalized

     IMPORTANT: XC functional enforced from input :
     Exchange-correlation= BEEF-VDW
                           (   1   4  43  14   2   0   0)
     Any further DFT definition will be discarded
     Please, verify this is what you really want

     Subspace diagonalization in iterative solution of the eigenvalue problem:
     a serial algorithm will be used

     Found symmetry operation: I + ( -0.5000  0.5000  0.0000)
     This is a supercell, fractional translations are disabled

     bravais-lattice index     =            0
     lattice parameter (alat)  =       1.8897  a.u.
     unit-cell volume          =    4871.4543 (a.u.)^3
     number of atoms/cell      =           12
     number of atomic types    =            2
     number of electrons       =       162.00
     number of Kohn-Sham states=           97
     kinetic-energy cutoff     =      55.1240  Ry
     charge density cutoff     =     551.2396  Ry
     convergence threshold     =      1.0E-05
     mixing beta               =       0.1000
     number of iterations used =           10  plain     mixing
     Exchange-correlation= BEEF-VDW
                           (   1   4  43  14   2   0   0)

     celldm(1)=   1.889726  celldm(2)=   0.000000  celldm(3)=   0.000000
     celldm(4)=   0.000000  celldm(5)=   0.000000  celldm(6)=   0.000000

     crystal axes: (cart. coord. in units of alat)
               a(1) = (   5.581500   0.000000   0.000000 )
               a(2) = (   1.845348   5.267622   0.000000 )
               a(3) = (   0.000000   0.000000  24.552549 )

     reciprocal axes: (cart. coord. in units 2 pi/alat)
               b(1) = (  0.179163 -0.062764  0.000000 )
               b(2) = (  0.000000  0.189839  0.000000 )
               b(3) = (  0.000000  0.000000  0.040729 )

     PseudoPot. # 1 for Sc read from file:
     ../pseudo/Sc.pbe-spn-rrkjus_psl.1.0.0.UPF
     MD5 check sum: f739f74c200e509e5c24cbe053202ee5
     Pseudo is Ultrasoft + core correction, Zval = 11.0
     Generated using "atomic" code by A. Dal Corso v.6.2.2
     Using radial grid of 1173 points,  6 beta functions with:
                l(1) =   0
                l(2) =   0
                l(3) =   1
                l(4) =   1
                l(5) =   2
                l(6) =   2
     Q(r) pseudized with 0 coefficients

     PseudoPot. # 2 for Os read from file:
     ../pseudo/Os.pbe-spn-rrkjus_psl.1.0.0.UPF
     MD5 check sum: 3e7416ed594f6513d36e5cb31ba709d9
     Pseudo is Ultrasoft + core correction, Zval = 16.0
     Generated using "atomic" code by A. Dal Corso v.6.2.2
     Using radial grid of 1275 points,  6 beta functions with:
                l(1) =   0
                l(2) =   0
                l(3) =   1
                l(4) =   1
                l(5) =   2
                l(6) =   2
     Q(r) pseudized with 0 coefficients

     atomic species   valence    mass     pseudopotential
        Sc            11.00    44.95591     Sc( 1.00)
        Os            16.00   190.23000     Os( 1.00)

     No symmetry found

   Cartesian axes

     site n.     atom                  positions (alat units)
         1           Sc  tau(   1) = (   0.0000000   0.0000000  10.0000000  )
         2           Sc  tau(   2) = (   3.7134240   2.6338109  10.0000000  )
         3           Os  tau(   3) = (   2.7907502   0.0000000  10.0000000  )
         4           Os  tau(   4) = (   0.9226738   2.6338109  10.0000000  )
         5           Sc  tau(   5) = (   5.5815004   3.9587767  12.2762744  )
         6           Sc  tau(   6) = (   1.8680764   1.3249659  12.2762744  )
         7           Os  tau(   7) = (   2.7907502   3.9587767  12.2762744  )
         8           Os  tau(   8) = (   4.6588266   1.3249659  12.2762744  )
         9           Sc  tau(   9) = (   3.7320474   2.6470200  14.5683861  )
        10           Sc  tau(  10) = (   0.0186314   0.0132141  14.5683878  )
        11           Os  tau(  11) = (   0.9464229   2.6506602  14.4643016  )
        12           Os  tau(  12) = (   2.8145101   0.0168366  14.4643189  )

     number of k points=    74  Fermi-Dirac smearing, width (Ry)=  0.0100
                       cart. coord. in units 2pi/alat
        k(    1) = (   0.0000000   0.0000000   0.0000000), wk =   0.0138889
        k(    2) = (   0.0000000   0.0158199   0.0000000), wk =   0.0277778
        k(    3) = (   0.0000000   0.0316398   0.0000000), wk =   0.0277778
        k(    4) = (   0.0000000   0.0474597   0.0000000), wk =   0.0277778
        k(    5) = (   0.0000000   0.0632797   0.0000000), wk =   0.0277778
        k(    6) = (   0.0000000   0.0790996   0.0000000), wk =   0.0277778
        k(    7) = (   0.0000000  -0.0949195   0.0000000), wk =   0.0138889
        k(    8) = (   0.0149303  -0.0052304   0.0000000), wk =   0.0277778
        k(    9) = (   0.0149303   0.0105896   0.0000000), wk =   0.0277778
        k(   10) = (   0.0149303   0.0264095   0.0000000), wk =   0.0277778
        k(   11) = (   0.0149303   0.0422294   0.0000000), wk =   0.0277778
        k(   12) = (   0.0149303   0.0580493   0.0000000), wk =   0.0277778
        k(   13) = (   0.0149303   0.0738692   0.0000000), wk =   0.0277778
        k(   14) = (   0.0149303  -0.1001499   0.0000000), wk =   0.0277778
        k(   15) = (   0.0149303  -0.0843299   0.0000000), wk =   0.0277778
        k(   16) = (   0.0149303  -0.0685100   0.0000000), wk =   0.0277778
        k(   17) = (   0.0149303  -0.0526901   0.0000000), wk =   0.0277778
        k(   18) = (   0.0149303  -0.0368702   0.0000000), wk =   0.0277778
        k(   19) = (   0.0149303  -0.0210503   0.0000000), wk =   0.0277778
        k(   20) = (   0.0298606  -0.0104607   0.0000000), wk =   0.0277778
        k(   21) = (   0.0298606   0.0053592   0.0000000), wk =   0.0277778
        k(   22) = (   0.0298606   0.0211791   0.0000000), wk =   0.0277778
        k(   23) = (   0.0298606   0.0369990   0.0000000), wk =   0.0277778
        k(   24) = (   0.0298606   0.0528189   0.0000000), wk =   0.0277778
        k(   25) = (   0.0298606   0.0686389   0.0000000), wk =   0.0277778
        k(   26) = (   0.0298606  -0.1053802   0.0000000), wk =   0.0277778
        k(   27) = (   0.0298606  -0.0895603   0.0000000), wk =   0.0277778
        k(   28) = (   0.0298606  -0.0737404   0.0000000), wk =   0.0277778
        k(   29) = (   0.0298606  -0.0579205   0.0000000), wk =   0.0277778
        k(   30) = (   0.0298606  -0.0421005   0.0000000), wk =   0.0277778
        k(   31) = (   0.0298606  -0.0262806   0.0000000), wk =   0.0277778
        k(   32) = (   0.0447908  -0.0156911   0.0000000), wk =   0.0277778
        k(   33) = (   0.0447908   0.0001288   0.0000000), wk =   0.0277778
        k(   34) = (   0.0447908   0.0159488   0.0000000), wk =   0.0277778
        k(   35) = (   0.0447908   0.0317687   0.0000000), wk =   0.0277778
        k(   36) = (   0.0447908   0.0475886   0.0000000), wk =   0.0277778
        k(   37) = (   0.0447908   0.0634085   0.0000000), wk =   0.0277778
        k(   38) = (   0.0447908  -0.1106106   0.0000000), wk =   0.0277778
        k(   39) = (   0.0447908  -0.0947907   0.0000000), wk =   0.0277778
        k(   40) = (   0.0447908  -0.0789707   0.0000000), wk =   0.0277778
        k(   41) = (   0.0447908  -0.0631508   0.0000000), wk =   0.0277778
        k(   42) = (   0.0447908  -0.0473309   0.0000000), wk =   0.0277778
        k(   43) = (   0.0447908  -0.0315110   0.0000000), wk =   0.0277778
        k(   44) = (   0.0597211  -0.0209214   0.0000000), wk =   0.0277778
        k(   45) = (   0.0597211  -0.0051015   0.0000000), wk =   0.0277778
        k(   46) = (   0.0597211   0.0107184   0.0000000), wk =   0.0277778
        k(   47) = (   0.0597211   0.0265383   0.0000000), wk =   0.0277778
        k(   48) = (   0.0597211   0.0423582   0.0000000), wk =   0.0277778
        k(   49) = (   0.0597211   0.0581781   0.0000000), wk =   0.0277778
        k(   50) = (   0.0597211  -0.1158409   0.0000000), wk =   0.0277778
        k(   51) = (   0.0597211  -0.1000210   0.0000000), wk =   0.0277778
        k(   52) = (   0.0597211  -0.0842011   0.0000000), wk =   0.0277778
        k(   53) = (   0.0597211  -0.0683812   0.0000000), wk =   0.0277778
        k(   54) = (   0.0597211  -0.0525613   0.0000000), wk =   0.0277778
        k(   55) = (   0.0597211  -0.0367414   0.0000000), wk =   0.0277778
        k(   56) = (   0.0746514  -0.0261518   0.0000000), wk =   0.0277778
        k(   57) = (   0.0746514  -0.0103319   0.0000000), wk =   0.0277778
        k(   58) = (   0.0746514   0.0054880   0.0000000), wk =   0.0277778
        k(   59) = (   0.0746514   0.0213080   0.0000000), wk =   0.0277778
        k(   60) = (   0.0746514   0.0371279   0.0000000), wk =   0.0277778
        k(   61) = (   0.0746514   0.0529478   0.0000000), wk =   0.0277778
        k(   62) = (   0.0746514  -0.1210713   0.0000000), wk =   0.0277778
        k(   63) = (   0.0746514  -0.1052514   0.0000000), wk =   0.0277778
        k(   64) = (   0.0746514  -0.0894315   0.0000000), wk =   0.0277778
        k(   65) = (   0.0746514  -0.0736115   0.0000000), wk =   0.0277778
        k(   66) = (   0.0746514  -0.0577916   0.0000000), wk =   0.0277778
        k(   67) = (   0.0746514  -0.0419717   0.0000000), wk =   0.0277778
        k(   68) = (  -0.0895817   0.0313822   0.0000000), wk =   0.0138889
        k(   69) = (  -0.0895817   0.0472021   0.0000000), wk =   0.0277778
        k(   70) = (  -0.0895817   0.0630220   0.0000000), wk =   0.0277778
        k(   71) = (  -0.0895817   0.0788419   0.0000000), wk =   0.0277778
        k(   72) = (  -0.0895817   0.0946618   0.0000000), wk =   0.0277778
        k(   73) = (  -0.0895817   0.1104817   0.0000000), wk =   0.0277778
        k(   74) = (  -0.0895817  -0.0635373   0.0000000), wk =   0.0138889

     Check: negative core charge=   -0.000001

     Initial potential from superposition of free atoms

     starting charge  161.98317, renormalised to  162.00000

     negative rho (up, down):  5.392E-04 0.000E+00

     %%%%%%%%%%%%%%%%%%%%%%%%%%%%%%%%%%%%%%%%%%%%%%%%%%%%%%%%%%%%%%%%%%%%%%%%
     %                                                                      %
     % You are using vdW-DF, which was implemented by the Thonhauser group. %
     % Please cite the following two papers that made this development      %
     % possible and the two reviews that describe the various versions:     %
     %                                                                      %
     %   T. Thonhauser et al., PRL 115, 136402 (2015).                      %
     %   T. Thonhauser et al., PRB 76, 125112 (2007).                       %
     %   K. Berland et al., Rep. Prog. Phys. 78, 066501 (2015).             %
     %   D.C. Langreth et al., J. Phys.: Condens. Matter 21, 084203 (2009). %
     %                                                                      %
     %                                                                      %
     % If you are calculating the stress with vdW-DF, please also cite:     %
     %                                                                      %
     %   R. Sabatini et al., J. Phys.: Condens. Matter 24, 424209 (2012).   %
     %                                                                      %
     %%%%%%%%%%%%%%%%%%%%%%%%%%%%%%%%%%%%%%%%%%%%%%%%%%%%%%%%%%%%%%%%%%%%%%%%

     Adding external electric field

     Computed dipole along edir(3) :
        Dipole                0.0006 Ry au,          0.0014 Debye
        Dipole field          0.0000 Ry au,

        Potential amp.       -0.0001 Ry
        Total length         45.2377 bohr

     Starting wfcs are  120 randomized atomic wfcs

     Self-consistent Calculation

     iteration #  1     ecut=    55.12 Ry     beta= 0.10
     Davidson diagonalization with overlap
     ethr =  1.00E-02,  avg # of iterations =  2.9

[...]

     total energy              =   -1794.53437391 Ry
     estimated scf accuracy    <       3.75736481 Ry

[...]

     iteration #  8     ecut=    55.12 Ry     beta= 0.10
     Davidson diagonalization with overlap
     c_bands:  1 eigenvalues not converged
     c_bands:  1 eigenvalues not converged
     c_bands:  1 eigenvalues not converged
     c_bands:  2 eigenvalues not converged
     c_bands:  4 eigenvalues not converged
     c_bands:  1 eigenvalues not converged
     ethr =  8.83E-05,  avg # of iterations = 11.9

[...]

     iteration # 19     ecut=    55.12 Ry     beta= 0.10
     Davidson diagonalization with overlap
     c_bands:  1 eigenvalues not converged
     ethr =  3.25E-08,  avg # of iterations =  2.1

[...]

     total energy              =   -1794.99243885 Ry
     estimated scf accuracy    <       0.00001461 Ry

     iteration # 21     ecut=    55.12 Ry     beta= 0.10
     Davidson diagonalization with overlap
     ethr =  9.02E-09,  avg # of iterations =  2.0

[...]

     Adding external electric field

     Computed dipole along edir(3) :
        Dipole                0.0363 Ry au,          0.0922 Debye
        Dipole field          0.0001 Ry au,

        Potential amp.       -0.0085 Ry
        Total length         45.2377 bohr

     End of self-consistent calculation

          k = 0.0000 0.0000 0.0000 ( 33759 PWs)   bands (ev):

   -84.0407 -84.0382 -83.7478 -83.7452 -83.7229 -83.7203 -47.6761 -47.6523
   -47.6316 -47.6077 -46.8371 -46.8112 -43.3876 -43.3816 -43.3649 -43.3620
   -43.3610 -43.2757 -43.1267 -43.1098 -43.0928 -43.0871 -43.0568 -43.0521
   -43.0415 -43.0397 -43.0349 -43.0317 -43.0256 -43.0251 -26.3751 -26.3575
   -26.3364 -26.3342 -26.3068 -26.2843 -26.2127 -26.1970 -26.1715 -26.1556
   -26.1465 -26.1084 -25.5869 -25.4790 -25.4702 -25.4590 -25.4414 -25.3453
    -4.8120  -3.2633  -2.5181  -2.2323  -2.0578  -1.8962  -1.8628  -1.8442
    -1.8047  -1.7667  -1.2787  -1.1221  -1.0950  -0.3701  -0.3159  -0.2651
    -0.2251  -0.2003  -0.1754  -0.0620  -0.0320   0.1260   0.4034   0.4068
     0.5282   0.9699   1.0226   1.1611   1.4787   1.5430   1.5703   1.8373
     2.0400   2.2625   2.6475   2.6756   3.2337   3.3202   3.3970   3.4434
     3.5559   3.5575   3.6840   4.0855   4.1058   4.1729   4.3399   4.3982
     4.7289

[...]

          k = 0.0747-0.0420 0.0000 ( 33616 PWs)   bands (ev):

[...]

          k =-0.0896 0.0314 0.0000 ( 33630 PWs)   bands (ev):

[...]

          k =-0.0896-0.0635 0.0000 ( 33630 PWs)   bands (ev):

   -84.0407 -84.0382 -83.7477 -83.7452 -83.7229 -83.7203 -47.6810 -47.6551
   -47.6365 -47.6106 -46.8450 -46.8143 -43.3776 -43.3754 -43.3640 -43.3605
   -43.3541 -43.2751 -43.1208 -43.1040 -43.0936 -43.0879 -43.0561 -43.0532
   -43.0412 -43.0297 -43.0296 -43.0250 -43.0249 -43.0249 -26.3936 -26.3638
   -26.3550 -26.3349 -26.3076 -26.2829 -26.2464 -26.2120 -26.2039 -26.1708
   -26.1520 -26.1140 -25.6057 -25.5065 -25.4765 -25.4638 -25.4452 -25.3517
    -3.1075  -2.7413  -2.2838  -2.2655  -1.2180  -1.1090  -0.9587  -0.9238
    -0.8068  -0.7814  -0.7581  -0.7288  -0.6686  -0.5913  -0.3505  -0.2007
     0.1433   0.1908   0.2666   0.3012   0.4517   0.5306   0.5909   0.6055
     0.8690   0.8777   0.9079   0.9755   1.0001   1.3216   1.3362   1.4703
     1.6077   1.6357   1.6480   1.7114   1.9104   1.9450   2.0601   2.0790
     2.6969   3.1541   3.2943   3.5501   3.6062   3.6138   3.6602   3.7150
     3.7661

     the Fermi energy is     1.5586 ev

!    total energy              =   -1794.99244145 Ry
     estimated scf accuracy    <       0.00000133 Ry
     smearing contrib. (-TS)   =      -0.06749090 Ry
     internal energy E=F+TS    =   -1794.92495055 Ry

     The total energy is F=E-TS. E is the sum of the following terms:
     one-electron contribution =  -13503.11543984 Ry
     hartree contribution      =    6738.71411241 Ry
     xc contribution           =    -345.39199451 Ry
     ewald contribution        =    5314.86836800 Ry
     electric field correction =       0.00000340 Ry

     convergence has been achieved in  21 iterations

     negative rho (up, down):  3.317E-04 0.000E+00

     Forces acting on atoms (cartesian axes, Ry/au):

     atom    1 type  1   force =     0.00094959    0.00068208   -0.00544866
     atom    2 type  1   force =     0.00095275    0.00067908   -0.00545816
     atom    3 type  2   force =    -0.00049752   -0.00034681    0.01753489
     atom    4 type  2   force =    -0.00050018   -0.00034470    0.01753024
     atom    5 type  1   force =    -0.00024530   -0.00017680   -0.01101710
     atom    6 type  1   force =    -0.00025398   -0.00016307   -0.01102603
     atom    7 type  2   force =    -0.00001806   -0.00002838   -0.00059662
     atom    8 type  2   force =    -0.00001529   -0.00001533   -0.00059281
     atom    9 type  1   force =    -0.00006718   -0.00006800   -0.00032776
     atom   10 type  1   force =    -0.00008866   -0.00005335   -0.00033076
     atom   11 type  2   force =    -0.00012382   -0.00008102   -0.00013424
     atom   12 type  2   force =    -0.00009234   -0.00008369   -0.00013301

     Total force =     0.030363     Total SCF correction =     0.003029

     Writing output data file ./Sc2Os2/Sc2Os2_beef.save/

     General routines

     Parallel routines

   This run was terminated on:   5:14: 0  11Jul2022

   JOB DONE.