     Program PWSCF v.6.6 starts on 24Jun2022 at 17:17:15

     R & G space division:  proc/nbgrp/npool/nimage =      37
     Fft bands division:     nmany     =       1
     Reading input from Sc2Pd2.in
Warning: card &CELL ignored
Warning: card / ignored

     Current dimensions of program PWSCF are:
     Max number of different atomic species (ntypx) = 10
     Max number of k-points (npk) =  40000
     Max angular momentum in pseudopotentials (lmaxx) =  3
     Presently stress not available with electric field and gates

     Message from routine cell_base_init:
     DEPRECATED: use true lattice parameter, not A to a.u. conversion factor
     file Sc.pbe-spn-rrkjus_psl.1.0.0.UPF: wavefunction(s)  3S 3P renormalized
     file Pd.pbe-n-rrkjus_psl.1.0.0.UPF: wavefunction(s)  4D renormalized

     IMPORTANT: XC functional enforced from input :
     Exchange-correlation= BEEF-VDW
                           (   1   4  43  14   2   0   0)
     Any further DFT definition will be discarded
     Please, verify this is what you really want

     Subspace diagonalization in iterative solution of the eigenvalue problem:
     a serial algorithm will be used

     Found symmetry operation: I + (  0.5000  0.5000  0.0000)
     This is a supercell, fractional translations are disabled

     bravais-lattice index     =            0
     lattice parameter (alat)  =       1.8897  a.u.
     unit-cell volume          =    5213.0058 (a.u.)^3
     number of atoms/cell      =           12
     number of atomic types    =            2
     number of electrons       =       126.00
     number of Kohn-Sham states=           76
     kinetic-energy cutoff     =      55.1240  Ry
     charge density cutoff     =     551.2396  Ry
     convergence threshold     =      1.0E-05
     mixing beta               =       0.1000
     number of iterations used =           10  plain     mixing
     Exchange-correlation= BEEF-VDW
                           (   1   4  43  14   2   0   0)

     celldm(1)=   1.889726  celldm(2)=   0.000000  celldm(3)=   0.000000
     celldm(4)=   0.000000  celldm(5)=   0.000000  celldm(6)=   0.000000

     crystal axes: (cart. coord. in units of alat)
               a(1) = (   5.761856   0.000000   0.000000 )
               a(2) = (   1.939327   5.425680   0.000000 )
               a(3) = (   0.000000   0.000000  24.710135 )

     reciprocal axes: (cart. coord. in units 2 pi/alat)
               b(1) = (  0.173555 -0.062035  0.000000 )
               b(2) = (  0.000000  0.184309  0.000000 )
               b(3) = (  0.000000  0.000000  0.040469 )

     PseudoPot. # 1 for Sc read from file:
     ../pseudo/Sc.pbe-spn-rrkjus_psl.1.0.0.UPF
     MD5 check sum: f739f74c200e509e5c24cbe053202ee5
     Pseudo is Ultrasoft + core correction, Zval = 11.0
     Generated using "atomic" code by A. Dal Corso v.6.2.2
     Using radial grid of 1173 points,  6 beta functions with:
                l(1) =   0
                l(2) =   0
                l(3) =   1
                l(4) =   1
                l(5) =   2
                l(6) =   2
     Q(r) pseudized with 0 coefficients

     PseudoPot. # 2 for Pd read from file:
     ../pseudo/Pd.pbe-n-rrkjus_psl.1.0.0.UPF
     MD5 check sum: d9f693bf1c5b493397a6bd6f2231cfc3
     Pseudo is Ultrasoft + core correction, Zval = 10.0
     Generated using "atomic" code by A. Dal Corso v.6.3
     Using radial grid of 1235 points,  6 beta functions with:
                l(1) =   0
                l(2) =   0
                l(3) =   1
                l(4) =   1
                l(5) =   2
                l(6) =   2
     Q(r) pseudized with 0 coefficients

     atomic species   valence    mass     pseudopotential
        Sc            11.00    44.95591     Sc( 1.00)
        Pd            10.00   106.42000     Pd( 1.00)

     No symmetry found

   Cartesian axes

     site n.     atom                  positions (alat units)
         1           Sc  tau(   1) = (   0.0000000   0.0000000  10.0000000  )
         2           Sc  tau(   2) = (   3.8505913   2.7128398  10.0000000  )
         3           Pd  tau(   3) = (   2.8809281   0.0000000  10.0000000  )
         4           Pd  tau(   4) = (   0.9696633   2.7128398  10.0000000  )
         5           Sc  tau(   5) = (   5.7618561   4.0593745  12.3550677  )
         6           Sc  tau(   6) = (   1.9112648   1.3465348  12.3550677  )
         7           Pd  tau(   7) = (   2.8809281   4.0593745  12.3550677  )
         8           Pd  tau(   8) = (   4.7921928   1.3465348  12.3550677  )
         9           Sc  tau(   9) = (   3.8283331   2.6971745  14.7046722  )
        10           Sc  tau(  10) = (   7.6789317   5.4099920  14.7046692  )
        11           Pd  tau(  11) = (   6.7085222   2.6966433  14.5105664  )
        12           Pd  tau(  12) = (   4.7972477   5.4094663  14.5105513  )

     number of k points=    74  Fermi-Dirac smearing, width (Ry)=  0.0100
                       cart. coord. in units 2pi/alat
        k(    1) = (   0.0000000   0.0000000   0.0000000), wk =   0.0138889
        k(    2) = (   0.0000000   0.0153591   0.0000000), wk =   0.0277778
        k(    3) = (   0.0000000   0.0307181   0.0000000), wk =   0.0277778
        k(    4) = (   0.0000000   0.0460772   0.0000000), wk =   0.0277778
        k(    5) = (   0.0000000   0.0614362   0.0000000), wk =   0.0277778
        k(    6) = (   0.0000000   0.0767953   0.0000000), wk =   0.0277778
        k(    7) = (   0.0000000  -0.0921543   0.0000000), wk =   0.0138889
        k(    8) = (   0.0144629  -0.0051696   0.0000000), wk =   0.0277778
        k(    9) = (   0.0144629   0.0101895   0.0000000), wk =   0.0277778
        k(   10) = (   0.0144629   0.0255486   0.0000000), wk =   0.0277778
        k(   11) = (   0.0144629   0.0409076   0.0000000), wk =   0.0277778
        k(   12) = (   0.0144629   0.0562667   0.0000000), wk =   0.0277778
        k(   13) = (   0.0144629   0.0716257   0.0000000), wk =   0.0277778
        k(   14) = (   0.0144629  -0.0973239   0.0000000), wk =   0.0277778
        k(   15) = (   0.0144629  -0.0819648   0.0000000), wk =   0.0277778
        k(   16) = (   0.0144629  -0.0666058   0.0000000), wk =   0.0277778
        k(   17) = (   0.0144629  -0.0512467   0.0000000), wk =   0.0277778
        k(   18) = (   0.0144629  -0.0358877   0.0000000), wk =   0.0277778
        k(   19) = (   0.0144629  -0.0205286   0.0000000), wk =   0.0277778
        k(   20) = (   0.0289259  -0.0103391   0.0000000), wk =   0.0277778
        k(   21) = (   0.0289259   0.0050199   0.0000000), wk =   0.0277778
        k(   22) = (   0.0289259   0.0203790   0.0000000), wk =   0.0277778
        k(   23) = (   0.0289259   0.0357381   0.0000000), wk =   0.0277778
        k(   24) = (   0.0289259   0.0510971   0.0000000), wk =   0.0277778
        k(   25) = (   0.0289259   0.0664562   0.0000000), wk =   0.0277778
        k(   26) = (   0.0289259  -0.1024935   0.0000000), wk =   0.0277778
        k(   27) = (   0.0289259  -0.0871344   0.0000000), wk =   0.0277778
        k(   28) = (   0.0289259  -0.0717753   0.0000000), wk =   0.0277778
        k(   29) = (   0.0289259  -0.0564163   0.0000000), wk =   0.0277778
        k(   30) = (   0.0289259  -0.0410572   0.0000000), wk =   0.0277778
        k(   31) = (   0.0289259  -0.0256982   0.0000000), wk =   0.0277778
        k(   32) = (   0.0433888  -0.0155087   0.0000000), wk =   0.0277778
        k(   33) = (   0.0433888  -0.0001496   0.0000000), wk =   0.0277778
        k(   34) = (   0.0433888   0.0152094   0.0000000), wk =   0.0277778
        k(   35) = (   0.0433888   0.0305685   0.0000000), wk =   0.0277778
        k(   36) = (   0.0433888   0.0459276   0.0000000), wk =   0.0277778
        k(   37) = (   0.0433888   0.0612866   0.0000000), wk =   0.0277778
        k(   38) = (   0.0433888  -0.1076630   0.0000000), wk =   0.0277778
        k(   39) = (   0.0433888  -0.0923040   0.0000000), wk =   0.0277778
        k(   40) = (   0.0433888  -0.0769449   0.0000000), wk =   0.0277778
        k(   41) = (   0.0433888  -0.0615858   0.0000000), wk =   0.0277778
        k(   42) = (   0.0433888  -0.0462268   0.0000000), wk =   0.0277778
        k(   43) = (   0.0433888  -0.0308677   0.0000000), wk =   0.0277778
        k(   44) = (   0.0578517  -0.0206782   0.0000000), wk =   0.0277778
        k(   45) = (   0.0578517  -0.0053192   0.0000000), wk =   0.0277778
        k(   46) = (   0.0578517   0.0100399   0.0000000), wk =   0.0277778
        k(   47) = (   0.0578517   0.0253990   0.0000000), wk =   0.0277778
        k(   48) = (   0.0578517   0.0407580   0.0000000), wk =   0.0277778
        k(   49) = (   0.0578517   0.0561171   0.0000000), wk =   0.0277778
        k(   50) = (   0.0578517  -0.1128326   0.0000000), wk =   0.0277778
        k(   51) = (   0.0578517  -0.0974735   0.0000000), wk =   0.0277778
        k(   52) = (   0.0578517  -0.0821145   0.0000000), wk =   0.0277778
        k(   53) = (   0.0578517  -0.0667554   0.0000000), wk =   0.0277778
        k(   54) = (   0.0578517  -0.0513963   0.0000000), wk =   0.0277778
        k(   55) = (   0.0578517  -0.0360373   0.0000000), wk =   0.0277778
        k(   56) = (   0.0723147  -0.0258478   0.0000000), wk =   0.0277778
        k(   57) = (   0.0723147  -0.0104887   0.0000000), wk =   0.0277778
        k(   58) = (   0.0723147   0.0048703   0.0000000), wk =   0.0277778
        k(   59) = (   0.0723147   0.0202294   0.0000000), wk =   0.0277778
        k(   60) = (   0.0723147   0.0355885   0.0000000), wk =   0.0277778
        k(   61) = (   0.0723147   0.0509475   0.0000000), wk =   0.0277778
        k(   62) = (   0.0723147  -0.1180021   0.0000000), wk =   0.0277778
        k(   63) = (   0.0723147  -0.1026431   0.0000000), wk =   0.0277778
        k(   64) = (   0.0723147  -0.0872840   0.0000000), wk =   0.0277778
        k(   65) = (   0.0723147  -0.0719250   0.0000000), wk =   0.0277778
        k(   66) = (   0.0723147  -0.0565659   0.0000000), wk =   0.0277778
        k(   67) = (   0.0723147  -0.0412068   0.0000000), wk =   0.0277778
        k(   68) = (  -0.0867776   0.0310173   0.0000000), wk =   0.0138889
        k(   69) = (  -0.0867776   0.0463764   0.0000000), wk =   0.0277778
        k(   70) = (  -0.0867776   0.0617355   0.0000000), wk =   0.0277778
        k(   71) = (  -0.0867776   0.0770945   0.0000000), wk =   0.0277778
        k(   72) = (  -0.0867776   0.0924536   0.0000000), wk =   0.0277778
        k(   73) = (  -0.0867776   0.1078126   0.0000000), wk =   0.0277778
        k(   74) = (  -0.0867776  -0.0611370   0.0000000), wk =   0.0138889

     Initial potential from superposition of free atoms

     starting charge  125.98120, renormalised to  126.00000

     negative rho (up, down):  1.024E-03 0.000E+00

     %%%%%%%%%%%%%%%%%%%%%%%%%%%%%%%%%%%%%%%%%%%%%%%%%%%%%%%%%%%%%%%%%%%%%%%%
     %                                                                      %
     % You are using vdW-DF, which was implemented by the Thonhauser group. %
     % Please cite the following two papers that made this development      %
     % possible and the two reviews that describe the various versions:     %
     %                                                                      %
     %   T. Thonhauser et al., PRL 115, 136402 (2015).                      %
     %   T. Thonhauser et al., PRB 76, 125112 (2007).                       %
     %   K. Berland et al., Rep. Prog. Phys. 78, 066501 (2015).             %
     %   D.C. Langreth et al., J. Phys.: Condens. Matter 21, 084203 (2009). %
     %                                                                      %
     %                                                                      %
     % If you are calculating the stress with vdW-DF, please also cite:     %
     %                                                                      %
     %   R. Sabatini et al., J. Phys.: Condens. Matter 24, 424209 (2012).   %
     %                                                                      %
     %%%%%%%%%%%%%%%%%%%%%%%%%%%%%%%%%%%%%%%%%%%%%%%%%%%%%%%%%%%%%%%%%%%%%%%%

     Adding external electric field

     Computed dipole along edir(3) :
        Dipole                0.0007 Ry au,          0.0017 Debye
        Dipole field          0.0000 Ry au,

        Potential amp.       -0.0001 Ry
        Total length         45.5280 bohr

     Starting wfcs are  114 randomized atomic wfcs

     Self-consistent Calculation

     iteration #  1     ecut=    55.12 Ry     beta= 0.10
     Davidson diagonalization with overlap
     ethr =  1.00E-02,  avg # of iterations =  1.8

[...]

     total energy              =   -1002.48800053 Ry
     estimated scf accuracy    <       1.81574560 Ry

[...]

     iteration #  6     ecut=    55.12 Ry     beta= 0.10
     Davidson diagonalization with overlap
     c_bands:  3 eigenvalues not converged
     c_bands:  3 eigenvalues not converged
     c_bands:  1 eigenvalues not converged
     c_bands:  1 eigenvalues not converged
     c_bands:  1 eigenvalues not converged
     c_bands:  1 eigenvalues not converged
     c_bands:  1 eigenvalues not converged
     c_bands:  1 eigenvalues not converged
     c_bands:  1 eigenvalues not converged
     c_bands:  1 eigenvalues not converged
     c_bands:  1 eigenvalues not converged
     c_bands:  2 eigenvalues not converged
     c_bands:  3 eigenvalues not converged
     c_bands:  5 eigenvalues not converged
     c_bands:  1 eigenvalues not converged
     c_bands:  2 eigenvalues not converged
     c_bands:  1 eigenvalues not converged
     c_bands:  2 eigenvalues not converged
     c_bands:  2 eigenvalues not converged
     ethr =  6.58E-05,  avg # of iterations = 14.2

[...]

     iteration #  7     ecut=    55.12 Ry     beta= 0.10
     Davidson diagonalization with overlap
     ethr =  6.19E-05,  avg # of iterations =  3.2

[...]

     total energy              =   -1002.84484255 Ry
     estimated scf accuracy    <       0.00004400 Ry

     iteration # 18     ecut=    55.12 Ry     beta= 0.10
     Davidson diagonalization with overlap
     c_bands:  1 eigenvalues not converged
     c_bands:  1 eigenvalues not converged
     c_bands:  1 eigenvalues not converged
     c_bands:  1 eigenvalues not converged
     c_bands:  1 eigenvalues not converged
     ethr =  3.49E-08,  avg # of iterations = 12.5

[...]

     Adding external electric field

     Computed dipole along edir(3) :
        Dipole                0.0706 Ry au,          0.1794 Debye
        Dipole field          0.0002 Ry au,

        Potential amp.       -0.0155 Ry
        Total length         45.5280 bohr

     End of self-consistent calculation

          k = 0.0000 0.0000 0.0000 ( 35985 PWs)   bands (ev):

   -49.7963 -49.7839 -49.7810 -49.7686 -49.3051 -49.2896 -28.4471 -28.4430
   -28.4323 -28.4255 -28.3901 -28.3754 -28.3066 -28.2939 -28.2935 -28.2794
   -28.2232 -28.2084 -27.9654 -27.8801 -27.8735 -27.8584 -27.8574 -27.7914
    -5.0428  -3.7401  -3.5598  -3.5010  -3.4963  -3.4602  -3.3461  -3.2687
    -3.2480  -3.2006  -2.9979  -2.9312  -2.6584  -2.5821  -2.5619  -2.5114
    -2.4842  -2.3948  -2.3587  -2.3506  -2.3173  -2.1753  -2.1472  -1.9266
    -1.8728  -1.8588  -1.8034  -1.7251  -1.5144  -1.3913  -1.3613  -1.1184
    -0.5181   0.0532   0.1200   0.3643   0.4235   1.0219   1.1701   1.3243
     1.3278   1.4988   1.6572   1.6675   1.7710   1.8172   1.8518   1.9516
     1.9599   2.2202   2.3515   2.3980

[...]

          k = 0.0723-0.0412 0.0000 ( 36053 PWs)   bands (ev):

[...]

          k =-0.0868 0.0310 0.0000 ( 36062 PWs)   bands (ev):

[...]

          k =-0.0868-0.0611 0.0000 ( 36012 PWs)   bands (ev):

   -49.7958 -49.7834 -49.7809 -49.7685 -49.3048 -49.2892 -28.4527 -28.4403
   -28.4317 -28.4245 -28.3943 -28.3793 -28.3176 -28.3023 -28.2942 -28.2809
   -28.2245 -28.2097 -27.9691 -27.8811 -27.8745 -27.8628 -27.8606 -27.7933
    -3.6836  -3.3995  -3.1526  -3.1333  -3.0990  -3.0295  -2.9842  -2.8555
    -2.8415  -2.8035  -2.7729  -2.6680  -2.6229  -2.5474  -2.3525  -2.3081
    -2.3069  -2.2091  -2.1415  -2.1337  -2.1291  -2.0383  -1.9532  -1.9002
    -1.8996  -1.8397  -1.7530  -1.6721  -1.6177  -1.4922  -1.4477  -1.3861
    -1.1441  -1.0566  -0.3774  -0.1137   0.0004   0.1912   0.2195   0.2489
     0.2550   0.9304   0.9880   1.1202   1.1205   1.1545   1.3797   1.4087
     1.6129   1.8038   1.9028   1.9961

     the Fermi energy is     0.8322 ev

!    total energy              =   -1002.84484845 Ry
     estimated scf accuracy    <       0.00000723 Ry
     smearing contrib. (-TS)   =      -0.04416777 Ry
     internal energy E=F+TS    =   -1002.80068069 Ry

     The total energy is F=E-TS. E is the sum of the following terms:
     one-electron contribution =   -7566.14547879 Ry
     hartree contribution      =    3816.26288625 Ry
     xc contribution           =    -243.45374560 Ry
     ewald contribution        =    2990.53564545 Ry
     electric field correction =       0.00001201 Ry

     convergence has been achieved in  18 iterations

     negative rho (up, down):  8.359E-04 0.000E+00

     Forces acting on atoms (cartesian axes, Ry/au):

     atom    1 type  1   force =    -0.00069492   -0.00049475   -0.00147949
     atom    2 type  1   force =    -0.00068286   -0.00047302   -0.00145933
     atom    3 type  2   force =    -0.00020683   -0.00014629    0.02179413
     atom    4 type  2   force =    -0.00020991   -0.00014575    0.02179555
     atom    5 type  1   force =     0.00035485    0.00023770   -0.01901645
     atom    6 type  1   force =     0.00032168    0.00022417   -0.01901244
     atom    7 type  2   force =    -0.00005199   -0.00003219   -0.00128695
     atom    8 type  2   force =    -0.00005642   -0.00003894   -0.00128437
     atom    9 type  1   force =     0.00028709    0.00018538   -0.00241141
     atom   10 type  1   force =     0.00031718    0.00022737   -0.00242181
     atom   11 type  2   force =     0.00030905    0.00022655    0.00239281
     atom   12 type  2   force =     0.00031308    0.00022975    0.00238975

     Total force =     0.041308     Total SCF correction =     0.004381
     SCF correction compared to forces is large: reduce conv_thr to get better values

     Writing output data file ./Sc2Pd2/Sc2Pd2_beef.save/

     General routines

     Parallel routines

   This run was terminated on:  18:23:32  24Jun2022

   JOB DONE.