     Program PWSCF v.6.6 starts on 24Jun2022 at 21:38:43

     R & G space division:  proc/nbgrp/npool/nimage =      37
     Fft bands division:     nmany     =       1
     Reading input from Sc2Pt2.in
Warning: card &CELL ignored
Warning: card / ignored

     Current dimensions of program PWSCF are:
     Max number of different atomic species (ntypx) = 10
     Max number of k-points (npk) =  40000
     Max angular momentum in pseudopotentials (lmaxx) =  3
     Presently stress not available with electric field and gates

     Message from routine cell_base_init:
     DEPRECATED: use true lattice parameter, not A to a.u. conversion factor
     file Sc.pbe-spn-rrkjus_psl.1.0.0.UPF: wavefunction(s)  3S 3P renormalized
     file Pt.pbe-n-rrkjus_psl.1.0.0.UPF: wavefunction(s)  6S renormalized

     IMPORTANT: XC functional enforced from input :
     Exchange-correlation= BEEF-VDW
                           (   1   4  43  14   2   0   0)
     Any further DFT definition will be discarded
     Please, verify this is what you really want

     Subspace diagonalization in iterative solution of the eigenvalue problem:
     a serial algorithm will be used

     Found symmetry operation: I + ( -0.5000 -0.5000  0.0000)
     This is a supercell, fractional translations are disabled

     bravais-lattice index     =            0
     lattice parameter (alat)  =       1.8897  a.u.
     unit-cell volume          =    5153.9093 (a.u.)^3
     number of atoms/cell      =           12
     number of atomic types    =            2
     number of electrons       =       126.00
     number of Kohn-Sham states=           76
     kinetic-energy cutoff     =      55.1240  Ry
     charge density cutoff     =     551.2396  Ry
     convergence threshold     =      1.0E-05
     mixing beta               =       0.1000
     number of iterations used =           10  plain     mixing
     Exchange-correlation= BEEF-VDW
                           (   1   4  43  14   2   0   0)

     celldm(1)=   1.889726  celldm(2)=   0.000000  celldm(3)=   0.000000
     celldm(4)=   0.000000  celldm(5)=   0.000000  celldm(6)=   0.000000

     crystal axes: (cart. coord. in units of alat)
               a(1) = (   5.733100   0.000000   0.000000 )
               a(2) = (   1.937747   5.395699   0.000000 )
               a(3) = (   0.000000   0.000000  24.688973 )

     reciprocal axes: (cart. coord. in units 2 pi/alat)
               b(1) = (  0.174426 -0.062641  0.000000 )
               b(2) = (  0.000000  0.185333  0.000000 )
               b(3) = (  0.000000  0.000000  0.040504 )

     PseudoPot. # 1 for Sc read from file:
     ../pseudo/Sc.pbe-spn-rrkjus_psl.1.0.0.UPF
     MD5 check sum: f739f74c200e509e5c24cbe053202ee5
     Pseudo is Ultrasoft + core correction, Zval = 11.0
     Generated using "atomic" code by A. Dal Corso v.6.2.2
     Using radial grid of 1173 points,  6 beta functions with:
                l(1) =   0
                l(2) =   0
                l(3) =   1
                l(4) =   1
                l(5) =   2
                l(6) =   2
     Q(r) pseudized with 0 coefficients

     PseudoPot. # 2 for Pt read from file:
     ../pseudo/Pt.pbe-n-rrkjus_psl.1.0.0.UPF
     MD5 check sum: 6bc887cfe28d63a5fc1f72d35a7d3ef7
     Pseudo is Ultrasoft + core correction, Zval = 10.0
     Generated using "atomic" code by A. Dal Corso v.6.3
     Using radial grid of 1277 points,  6 beta functions with:
                l(1) =   0
                l(2) =   0
                l(3) =   1
                l(4) =   1
                l(5) =   2
                l(6) =   2
     Q(r) pseudized with 0 coefficients

     atomic species   valence    mass     pseudopotential
        Sc            11.00    44.95591     Sc( 1.00)
        Pt            10.00   195.08400     Pt( 1.00)

     No symmetry found

   Cartesian axes

     site n.     atom                  positions (alat units)
         1           Sc  tau(   1) = (   0.0000000   0.0000000  10.0000000  )
         2           Sc  tau(   2) = (   3.8354237   2.6978497  10.0000000  )
         3           Pt  tau(   3) = (   2.8665500   0.0000000  10.0000000  )
         4           Pt  tau(   4) = (   0.9688736   2.6978497  10.0000000  )
         5           Sc  tau(   5) = (   5.7331001   4.0326816  12.3444865  )
         6           Sc  tau(   6) = (   1.8976764   1.3348319  12.3444865  )
         7           Pt  tau(   7) = (   2.8665500   4.0326816  12.3444865  )
         8           Pt  tau(   8) = (   4.7642265   1.3348319  12.3444865  )
         9           Sc  tau(   9) = (   3.8047961   2.6763029  14.6918402  )
        10           Sc  tau(  10) = (   7.6402186   5.3741575  14.6918438  )
        11           Pt  tau(  11) = (   6.6717344   2.6765768  14.4871671  )
        12           Pt  tau(  12) = (   4.7740517   5.3744236  14.4871641  )

     number of k points=    74  Fermi-Dirac smearing, width (Ry)=  0.0100
                       cart. coord. in units 2pi/alat
        k(    1) = (   0.0000000   0.0000000   0.0000000), wk =   0.0138889
        k(    2) = (   0.0000000   0.0154444   0.0000000), wk =   0.0277778
        k(    3) = (   0.0000000   0.0308888   0.0000000), wk =   0.0277778
        k(    4) = (   0.0000000   0.0463332   0.0000000), wk =   0.0277778
        k(    5) = (   0.0000000   0.0617776   0.0000000), wk =   0.0277778
        k(    6) = (   0.0000000   0.0772220   0.0000000), wk =   0.0277778
        k(    7) = (   0.0000000  -0.0926664   0.0000000), wk =   0.0138889
        k(    8) = (   0.0145355  -0.0052201   0.0000000), wk =   0.0277778
        k(    9) = (   0.0145355   0.0102243   0.0000000), wk =   0.0277778
        k(   10) = (   0.0145355   0.0256687   0.0000000), wk =   0.0277778
        k(   11) = (   0.0145355   0.0411131   0.0000000), wk =   0.0277778
        k(   12) = (   0.0145355   0.0565575   0.0000000), wk =   0.0277778
        k(   13) = (   0.0145355   0.0720019   0.0000000), wk =   0.0277778
        k(   14) = (   0.0145355  -0.0978865   0.0000000), wk =   0.0277778
        k(   15) = (   0.0145355  -0.0824421   0.0000000), wk =   0.0277778
        k(   16) = (   0.0145355  -0.0669977   0.0000000), wk =   0.0277778
        k(   17) = (   0.0145355  -0.0515533   0.0000000), wk =   0.0277778
        k(   18) = (   0.0145355  -0.0361089   0.0000000), wk =   0.0277778
        k(   19) = (   0.0145355  -0.0206645   0.0000000), wk =   0.0277778
        k(   20) = (   0.0290710  -0.0104402   0.0000000), wk =   0.0277778
        k(   21) = (   0.0290710   0.0050042   0.0000000), wk =   0.0277778
        k(   22) = (   0.0290710   0.0204486   0.0000000), wk =   0.0277778
        k(   23) = (   0.0290710   0.0358930   0.0000000), wk =   0.0277778
        k(   24) = (   0.0290710   0.0513374   0.0000000), wk =   0.0277778
        k(   25) = (   0.0290710   0.0667818   0.0000000), wk =   0.0277778
        k(   26) = (   0.0290710  -0.1031066   0.0000000), wk =   0.0277778
        k(   27) = (   0.0290710  -0.0876622   0.0000000), wk =   0.0277778
        k(   28) = (   0.0290710  -0.0722178   0.0000000), wk =   0.0277778
        k(   29) = (   0.0290710  -0.0567734   0.0000000), wk =   0.0277778
        k(   30) = (   0.0290710  -0.0413290   0.0000000), wk =   0.0277778
        k(   31) = (   0.0290710  -0.0258846   0.0000000), wk =   0.0277778
        k(   32) = (   0.0436064  -0.0156603   0.0000000), wk =   0.0277778
        k(   33) = (   0.0436064  -0.0002159   0.0000000), wk =   0.0277778
        k(   34) = (   0.0436064   0.0152285   0.0000000), wk =   0.0277778
        k(   35) = (   0.0436064   0.0306729   0.0000000), wk =   0.0277778
        k(   36) = (   0.0436064   0.0461173   0.0000000), wk =   0.0277778
        k(   37) = (   0.0436064   0.0615617   0.0000000), wk =   0.0277778
        k(   38) = (   0.0436064  -0.1083267   0.0000000), wk =   0.0277778
        k(   39) = (   0.0436064  -0.0928823   0.0000000), wk =   0.0277778
        k(   40) = (   0.0436064  -0.0774379   0.0000000), wk =   0.0277778
        k(   41) = (   0.0436064  -0.0619935   0.0000000), wk =   0.0277778
        k(   42) = (   0.0436064  -0.0465491   0.0000000), wk =   0.0277778
        k(   43) = (   0.0436064  -0.0311047   0.0000000), wk =   0.0277778
        k(   44) = (   0.0581419  -0.0208804   0.0000000), wk =   0.0277778
        k(   45) = (   0.0581419  -0.0054360   0.0000000), wk =   0.0277778
        k(   46) = (   0.0581419   0.0100084   0.0000000), wk =   0.0277778
        k(   47) = (   0.0581419   0.0254528   0.0000000), wk =   0.0277778
        k(   48) = (   0.0581419   0.0408972   0.0000000), wk =   0.0277778
        k(   49) = (   0.0581419   0.0563416   0.0000000), wk =   0.0277778
        k(   50) = (   0.0581419  -0.1135468   0.0000000), wk =   0.0277778
        k(   51) = (   0.0581419  -0.0981024   0.0000000), wk =   0.0277778
        k(   52) = (   0.0581419  -0.0826580   0.0000000), wk =   0.0277778
        k(   53) = (   0.0581419  -0.0672136   0.0000000), wk =   0.0277778
        k(   54) = (   0.0581419  -0.0517692   0.0000000), wk =   0.0277778
        k(   55) = (   0.0581419  -0.0363248   0.0000000), wk =   0.0277778
        k(   56) = (   0.0726774  -0.0261005   0.0000000), wk =   0.0277778
        k(   57) = (   0.0726774  -0.0106561   0.0000000), wk =   0.0277778
        k(   58) = (   0.0726774   0.0047883   0.0000000), wk =   0.0277778
        k(   59) = (   0.0726774   0.0202327   0.0000000), wk =   0.0277778
        k(   60) = (   0.0726774   0.0356771   0.0000000), wk =   0.0277778
        k(   61) = (   0.0726774   0.0511215   0.0000000), wk =   0.0277778
        k(   62) = (   0.0726774  -0.1187669   0.0000000), wk =   0.0277778
        k(   63) = (   0.0726774  -0.1033225   0.0000000), wk =   0.0277778
        k(   64) = (   0.0726774  -0.0878781   0.0000000), wk =   0.0277778
        k(   65) = (   0.0726774  -0.0724337   0.0000000), wk =   0.0277778
        k(   66) = (   0.0726774  -0.0569893   0.0000000), wk =   0.0277778
        k(   67) = (   0.0726774  -0.0415449   0.0000000), wk =   0.0277778
        k(   68) = (  -0.0872129   0.0313206   0.0000000), wk =   0.0138889
        k(   69) = (  -0.0872129   0.0467650   0.0000000), wk =   0.0277778
        k(   70) = (  -0.0872129   0.0622094   0.0000000), wk =   0.0277778
        k(   71) = (  -0.0872129   0.0776538   0.0000000), wk =   0.0277778
        k(   72) = (  -0.0872129   0.0930982   0.0000000), wk =   0.0277778
        k(   73) = (  -0.0872129   0.1085426   0.0000000), wk =   0.0277778
        k(   74) = (  -0.0872129  -0.0613458   0.0000000), wk =   0.0138889

     Initial potential from superposition of free atoms

     starting charge  125.98361, renormalised to  126.00000

     negative rho (up, down):  7.748E-04 0.000E+00

     %%%%%%%%%%%%%%%%%%%%%%%%%%%%%%%%%%%%%%%%%%%%%%%%%%%%%%%%%%%%%%%%%%%%%%%%
     %                                                                      %
     % You are using vdW-DF, which was implemented by the Thonhauser group. %
     % Please cite the following two papers that made this development      %
     % possible and the two reviews that describe the various versions:     %
     %                                                                      %
     %   T. Thonhauser et al., PRL 115, 136402 (2015).                      %
     %   T. Thonhauser et al., PRB 76, 125112 (2007).                       %
     %   K. Berland et al., Rep. Prog. Phys. 78, 066501 (2015).             %
     %   D.C. Langreth et al., J. Phys.: Condens. Matter 21, 084203 (2009). %
     %                                                                      %
     %                                                                      %
     % If you are calculating the stress with vdW-DF, please also cite:     %
     %                                                                      %
     %   R. Sabatini et al., J. Phys.: Condens. Matter 24, 424209 (2012).   %
     %                                                                      %
     %%%%%%%%%%%%%%%%%%%%%%%%%%%%%%%%%%%%%%%%%%%%%%%%%%%%%%%%%%%%%%%%%%%%%%%%

     Adding external electric field

     Computed dipole along edir(3) :
        Dipole                0.0009 Ry au,          0.0022 Debye
        Dipole field          0.0000 Ry au,

        Potential amp.       -0.0002 Ry
        Total length         45.4890 bohr

     Starting wfcs are  114 randomized atomic wfcs

     Self-consistent Calculation

     iteration #  1     ecut=    55.12 Ry     beta= 0.10
     Davidson diagonalization with overlap
     ethr =  1.00E-02,  avg # of iterations =  1.9

     Threshold (ethr) on eigenvalues was too large:
     Diagonalizing with lowered threshold

     Davidson diagonalization with overlap
     ethr =  9.09E-04,  avg # of iterations =  6.1

[...]

     total energy              =    -988.90414326 Ry
     estimated scf accuracy    <       1.50445579 Ry

[...]

     iteration #  3     ecut=    55.12 Ry     beta= 0.10
     Davidson diagonalization with overlap
     c_bands:  1 eigenvalues not converged
     ethr =  3.14E-04,  avg # of iterations =  8.6

[...]

     iteration #  5     ecut=    55.12 Ry     beta= 0.10
     Davidson diagonalization with overlap
     ethr =  1.75E-04,  avg # of iterations =  2.9

[...]

     total energy              =    -988.98882292 Ry
     estimated scf accuracy    <       0.00001559 Ry

     iteration # 21     ecut=    55.12 Ry     beta= 0.10
     Davidson diagonalization with overlap
     c_bands:  1 eigenvalues not converged
     ethr =  1.24E-08,  avg # of iterations =  4.0

[...]

     Adding external electric field

     Computed dipole along edir(3) :
        Dipole                0.0967 Ry au,          0.2457 Debye
        Dipole field          0.0002 Ry au,

        Potential amp.       -0.0214 Ry
        Total length         45.4890 bohr

     End of self-consistent calculation

          k = 0.0000 0.0000 0.0000 ( 35641 PWs)   bands (ev):

   -49.3966 -49.3879 -49.3799 -49.3712 -48.8936 -48.8766 -28.0536 -28.0505
   -28.0373 -28.0313 -28.0002 -27.9858 -27.9060 -27.8961 -27.8924 -27.8805
   -27.8213 -27.8071 -27.5710 -27.4779 -27.4736 -27.4606 -27.4487 -27.3817
    -5.9623  -4.4090  -3.8990  -3.7163  -3.5902  -3.5835  -3.5748  -3.5643
    -3.4433  -3.4360  -2.9588  -2.9121  -2.6516  -2.5477  -2.4337  -2.3981
    -2.3029  -2.1844  -2.1736  -2.1692  -2.1348  -1.9384  -1.8500  -1.7445
    -1.5471  -1.5438  -1.4911  -1.3689  -1.0378  -0.8302  -0.8152  -0.5371
    -0.5160   0.1842   0.3223   0.5553   0.5610   1.2501   1.5681   1.6112
     1.6535   1.9523   2.0719   2.0962   2.1328   2.2928   2.2946   2.3937
     2.4820   2.8229   2.8981   2.9282

[...]

          k = 0.0727-0.0415 0.0000 ( 35646 PWs)   bands (ev):

[...]

          k =-0.0872 0.0313 0.0000 ( 35690 PWs)   bands (ev):

[...]

          k =-0.0872-0.0613 0.0000 ( 35606 PWs)   bands (ev):

   -49.3959 -49.3871 -49.3798 -49.3710 -48.8932 -48.8760 -28.0616 -28.0463
   -28.0374 -28.0295 -28.0067 -27.9919 -27.9218 -27.9082 -27.8945 -27.8842
   -27.8234 -27.8091 -27.5770 -27.4890 -27.4672 -27.4656 -27.4537 -27.3843
    -4.4998  -4.1101  -3.8013  -3.7089  -3.1053  -3.0617  -2.9565  -2.8468
    -2.8087  -2.7776  -2.7006  -2.6495  -2.5054  -2.4001  -2.3927  -2.2079
    -2.0609  -1.9421  -1.9132  -1.9007  -1.8710  -1.8463  -1.8212  -1.5753
    -1.5315  -1.4140  -1.3687  -1.3382  -1.1961  -1.1813  -0.9206  -0.8847
    -0.8492  -0.5236  -0.5117   0.1463   0.2684   0.3067   0.3422   0.4004
     0.4940   1.1004   1.1811   1.3469   1.5548   1.5942   1.7577   1.8662
     2.1299   2.1452   2.2163   2.4049

     the Fermi energy is     1.1192 ev

!    total energy              =    -988.98882500 Ry
     estimated scf accuracy    <       0.00000339 Ry
     smearing contrib. (-TS)   =      -0.03678518 Ry
     internal energy E=F+TS    =    -988.95203982 Ry

     The total energy is F=E-TS. E is the sum of the following terms:
     one-electron contribution =   -7587.81594190 Ry
     hartree contribution      =    3824.62015003 Ry
     xc contribution           =    -257.33399507 Ry
     ewald contribution        =    3031.57772434 Ry
     electric field correction =       0.00002279 Ry

     convergence has been achieved in  21 iterations

     negative rho (up, down):  6.461E-04 0.000E+00

     Forces acting on atoms (cartesian axes, Ry/au):

     atom    1 type  1   force =    -0.00108271   -0.00073229   -0.00680759
     atom    2 type  1   force =    -0.00104425   -0.00076259   -0.00684298
     atom    3 type  2   force =    -0.00054826   -0.00036626    0.03186114
     atom    4 type  2   force =    -0.00051215   -0.00037490    0.03183157
     atom    5 type  1   force =     0.00061360    0.00041408   -0.02361599
     atom    6 type  1   force =     0.00057544    0.00042783   -0.02360641
     atom    7 type  2   force =     0.00004083    0.00004891   -0.00214799
     atom    8 type  2   force =     0.00003066    0.00003022   -0.00214279
     atom    9 type  1   force =     0.00049109    0.00033004   -0.00173731
     atom   10 type  1   force =     0.00050821    0.00035147   -0.00176673
     atom   11 type  2   force =     0.00046426    0.00031768    0.00249503
     atom   12 type  2   force =     0.00046330    0.00031585    0.00248004

     Total force =     0.057192     Total SCF correction =     0.004780

     Writing output data file ./Sc2Pt2/Sc2Pt2_beef.save/

     General routines

     Parallel routines

   This run was terminated on:  23:14:32  24Jun2022

   JOB DONE.