     Program PWSCF v.6.6 starts on 10Jul2022 at 19: 2:38

     R & G space division:  proc/nbgrp/npool/nimage =      37
     Fft bands division:     nmany     =       1
     Reading input from Sc2Rh2.in
Warning: card &CELL ignored
Warning: card / ignored

     Current dimensions of program PWSCF are:
     Max number of different atomic species (ntypx) = 10
     Max number of k-points (npk) =  40000
     Max angular momentum in pseudopotentials (lmaxx) =  3
     Presently stress not available with electric field and gates

     Message from routine cell_base_init:
     DEPRECATED: use true lattice parameter, not A to a.u. conversion factor
     file Sc.pbe-spn-rrkjus_psl.1.0.0.UPF: wavefunction(s)  3S 3P renormalized
     file Rh.pbe-spn-rrkjus_psl.1.0.0.UPF: wavefunction(s)  4S 5S renormalized

     IMPORTANT: XC functional enforced from input :
     Exchange-correlation= BEEF-VDW
                           (   1   4  43  14   2   0   0)
     Any further DFT definition will be discarded
     Please, verify this is what you really want

     Subspace diagonalization in iterative solution of the eigenvalue problem:
     a serial algorithm will be used

     bravais-lattice index     =            0
     lattice parameter (alat)  =       1.8897  a.u.
     unit-cell volume          =    4913.3222 (a.u.)^3
     number of atoms/cell      =           12
     number of atomic types    =            2
     number of electrons       =       168.00
     number of Kohn-Sham states=          101
     kinetic-energy cutoff     =      55.1240  Ry
     charge density cutoff     =     551.2396  Ry
     convergence threshold     =      1.0E-05
     mixing beta               =       0.1000
     number of iterations used =           10  plain     mixing
     Exchange-correlation= BEEF-VDW
                           (   1   4  43  14   2   0   0)

     celldm(1)=   1.889726  celldm(2)=   0.000000  celldm(3)=   0.000000
     celldm(4)=   0.000000  celldm(5)=   0.000000  celldm(6)=   0.000000

     crystal axes: (cart. coord. in units of alat)
               a(1) = (   5.606305   0.000000   0.000000 )
               a(2) = (   1.874524   5.283636   0.000000 )
               a(3) = (   0.000000   0.000000  24.579278 )

     reciprocal axes: (cart. coord. in units 2 pi/alat)
               b(1) = (  0.178371 -0.063282  0.000000 )
               b(2) = (  0.000000  0.189264  0.000000 )
               b(3) = (  0.000000  0.000000  0.040685 )

     PseudoPot. # 1 for Sc read from file:
     ../pseudo/Sc.pbe-spn-rrkjus_psl.1.0.0.UPF
     MD5 check sum: f739f74c200e509e5c24cbe053202ee5
     Pseudo is Ultrasoft + core correction, Zval = 11.0
     Generated using "atomic" code by A. Dal Corso v.6.2.2
     Using radial grid of 1173 points,  6 beta functions with:
                l(1) =   0
                l(2) =   0
                l(3) =   1
                l(4) =   1
                l(5) =   2
                l(6) =   2
     Q(r) pseudized with 0 coefficients

     PseudoPot. # 2 for Rh read from file:
     ../pseudo/Rh.pbe-spn-rrkjus_psl.1.0.0.UPF
     MD5 check sum: 912a852783f0c9b7bd5e9eb06cc0cc10
     Pseudo is Ultrasoft + core correction, Zval = 17.0
     Generated using "atomic" code by A. Dal Corso v.6.3
     Using radial grid of 1233 points,  6 beta functions with:
                l(1) =   0
                l(2) =   0
                l(3) =   1
                l(4) =   1
                l(5) =   2
                l(6) =   2
     Q(r) pseudized with 0 coefficients

     atomic species   valence    mass     pseudopotential
        Sc            11.00    44.95591     Sc( 1.00)
        Rh            17.00   102.90550     Rh( 1.00)

     No symmetry found

   Cartesian axes

     site n.     atom                  positions (alat units)
         1           Sc  tau(   1) = (   0.0000000   0.0000000  10.0000000  )
         2           Sc  tau(   2) = (   3.7404145   2.6418180  10.0000000  )
         3           Rh  tau(   3) = (   2.8031523   0.0000000  10.0000000  )
         4           Rh  tau(   4) = (   0.9372622   2.6418180  10.0000000  )
         5           Sc  tau(   5) = (   5.6063046   3.9596779  12.2896392  )
         6           Sc  tau(   6) = (   1.8658901   1.3178598  12.2896392  )
         7           Rh  tau(   7) = (   2.8031523   3.9596779  12.2896392  )
         8           Rh  tau(   8) = (   4.6690424   1.3178598  12.2896392  )
         9           Sc  tau(   9) = (   3.7335535   2.6369289  14.6301085  )
        10           Sc  tau(  10) = (   7.4739189   5.2787981  14.6301056  )
        11           Rh  tau(  11) = (   6.5359664   2.6364430  14.4446095  )
        12           Rh  tau(  12) = (   4.6700920   5.2782861  14.4446108  )

     number of k points=    74  Fermi-Dirac smearing, width (Ry)=  0.0100
                       cart. coord. in units 2pi/alat
        k(    1) = (   0.0000000   0.0000000   0.0000000), wk =   0.0138889
        k(    2) = (   0.0000000   0.0157720   0.0000000), wk =   0.0277778
        k(    3) = (   0.0000000   0.0315439   0.0000000), wk =   0.0277778
        k(    4) = (   0.0000000   0.0473159   0.0000000), wk =   0.0277778
        k(    5) = (   0.0000000   0.0630879   0.0000000), wk =   0.0277778
        k(    6) = (   0.0000000   0.0788598   0.0000000), wk =   0.0277778
        k(    7) = (   0.0000000  -0.0946318   0.0000000), wk =   0.0138889
        k(    8) = (   0.0148642  -0.0052735   0.0000000), wk =   0.0277778
        k(    9) = (   0.0148642   0.0104985   0.0000000), wk =   0.0277778
        k(   10) = (   0.0148642   0.0262704   0.0000000), wk =   0.0277778
        k(   11) = (   0.0148642   0.0420424   0.0000000), wk =   0.0277778
        k(   12) = (   0.0148642   0.0578144   0.0000000), wk =   0.0277778
        k(   13) = (   0.0148642   0.0735863   0.0000000), wk =   0.0277778
        k(   14) = (   0.0148642  -0.0999053   0.0000000), wk =   0.0277778
        k(   15) = (   0.0148642  -0.0841334   0.0000000), wk =   0.0277778
        k(   16) = (   0.0148642  -0.0683614   0.0000000), wk =   0.0277778
        k(   17) = (   0.0148642  -0.0525894   0.0000000), wk =   0.0277778
        k(   18) = (   0.0148642  -0.0368174   0.0000000), wk =   0.0277778
        k(   19) = (   0.0148642  -0.0210455   0.0000000), wk =   0.0277778
        k(   20) = (   0.0297284  -0.0105470   0.0000000), wk =   0.0277778
        k(   21) = (   0.0297284   0.0052249   0.0000000), wk =   0.0277778
        k(   22) = (   0.0297284   0.0209969   0.0000000), wk =   0.0277778
        k(   23) = (   0.0297284   0.0367689   0.0000000), wk =   0.0277778
        k(   24) = (   0.0297284   0.0525408   0.0000000), wk =   0.0277778
        k(   25) = (   0.0297284   0.0683128   0.0000000), wk =   0.0277778
        k(   26) = (   0.0297284  -0.1051788   0.0000000), wk =   0.0277778
        k(   27) = (   0.0297284  -0.0894069   0.0000000), wk =   0.0277778
        k(   28) = (   0.0297284  -0.0736349   0.0000000), wk =   0.0277778
        k(   29) = (   0.0297284  -0.0578629   0.0000000), wk =   0.0277778
        k(   30) = (   0.0297284  -0.0420910   0.0000000), wk =   0.0277778
        k(   31) = (   0.0297284  -0.0263190   0.0000000), wk =   0.0277778
        k(   32) = (   0.0445927  -0.0158205   0.0000000), wk =   0.0277778
        k(   33) = (   0.0445927  -0.0000486   0.0000000), wk =   0.0277778
        k(   34) = (   0.0445927   0.0157234   0.0000000), wk =   0.0277778
        k(   35) = (   0.0445927   0.0314954   0.0000000), wk =   0.0277778
        k(   36) = (   0.0445927   0.0472673   0.0000000), wk =   0.0277778
        k(   37) = (   0.0445927   0.0630393   0.0000000), wk =   0.0277778
        k(   38) = (   0.0445927  -0.1104523   0.0000000), wk =   0.0277778
        k(   39) = (   0.0445927  -0.0946804   0.0000000), wk =   0.0277778
        k(   40) = (   0.0445927  -0.0789084   0.0000000), wk =   0.0277778
        k(   41) = (   0.0445927  -0.0631364   0.0000000), wk =   0.0277778
        k(   42) = (   0.0445927  -0.0473645   0.0000000), wk =   0.0277778
        k(   43) = (   0.0445927  -0.0315925   0.0000000), wk =   0.0277778
        k(   44) = (   0.0594569  -0.0210941   0.0000000), wk =   0.0277778
        k(   45) = (   0.0594569  -0.0053221   0.0000000), wk =   0.0277778
        k(   46) = (   0.0594569   0.0104499   0.0000000), wk =   0.0277778
        k(   47) = (   0.0594569   0.0262218   0.0000000), wk =   0.0277778
        k(   48) = (   0.0594569   0.0419938   0.0000000), wk =   0.0277778
        k(   49) = (   0.0594569   0.0577658   0.0000000), wk =   0.0277778
        k(   50) = (   0.0594569  -0.1157259   0.0000000), wk =   0.0277778
        k(   51) = (   0.0594569  -0.0999539   0.0000000), wk =   0.0277778
        k(   52) = (   0.0594569  -0.0841819   0.0000000), wk =   0.0277778
        k(   53) = (   0.0594569  -0.0684100   0.0000000), wk =   0.0277778
        k(   54) = (   0.0594569  -0.0526380   0.0000000), wk =   0.0277778
        k(   55) = (   0.0594569  -0.0368660   0.0000000), wk =   0.0277778
        k(   56) = (   0.0743211  -0.0263676   0.0000000), wk =   0.0277778
        k(   57) = (   0.0743211  -0.0105956   0.0000000), wk =   0.0277778
        k(   58) = (   0.0743211   0.0051764   0.0000000), wk =   0.0277778
        k(   59) = (   0.0743211   0.0209483   0.0000000), wk =   0.0277778
        k(   60) = (   0.0743211   0.0367203   0.0000000), wk =   0.0277778
        k(   61) = (   0.0743211   0.0524923   0.0000000), wk =   0.0277778
        k(   62) = (   0.0743211  -0.1209994   0.0000000), wk =   0.0277778
        k(   63) = (   0.0743211  -0.1052274   0.0000000), wk =   0.0277778
        k(   64) = (   0.0743211  -0.0894554   0.0000000), wk =   0.0277778
        k(   65) = (   0.0743211  -0.0736835   0.0000000), wk =   0.0277778
        k(   66) = (   0.0743211  -0.0579115   0.0000000), wk =   0.0277778
        k(   67) = (   0.0743211  -0.0421395   0.0000000), wk =   0.0277778
        k(   68) = (  -0.0891853   0.0316411   0.0000000), wk =   0.0138889
        k(   69) = (  -0.0891853   0.0474131   0.0000000), wk =   0.0277778
        k(   70) = (  -0.0891853   0.0631850   0.0000000), wk =   0.0277778
        k(   71) = (  -0.0891853   0.0789570   0.0000000), wk =   0.0277778
        k(   72) = (  -0.0891853   0.0947290   0.0000000), wk =   0.0277778
        k(   73) = (  -0.0891853   0.1105009   0.0000000), wk =   0.0277778
        k(   74) = (  -0.0891853  -0.0629907   0.0000000), wk =   0.0138889

     Check: negative core charge=   -0.000002

     Initial potential from superposition of free atoms

     starting charge  167.98169, renormalised to  168.00000

     negative rho (up, down):  1.160E-03 0.000E+00

     %%%%%%%%%%%%%%%%%%%%%%%%%%%%%%%%%%%%%%%%%%%%%%%%%%%%%%%%%%%%%%%%%%%%%%%%
     %                                                                      %
     % You are using vdW-DF, which was implemented by the Thonhauser group. %
     % Please cite the following two papers that made this development      %
     % possible and the two reviews that describe the various versions:     %
     %                                                                      %
     %   T. Thonhauser et al., PRL 115, 136402 (2015).                      %
     %   T. Thonhauser et al., PRB 76, 125112 (2007).                       %
     %   K. Berland et al., Rep. Prog. Phys. 78, 066501 (2015).             %
     %   D.C. Langreth et al., J. Phys.: Condens. Matter 21, 084203 (2009). %
     %                                                                      %
     %                                                                      %
     % If you are calculating the stress with vdW-DF, please also cite:     %
     %                                                                      %
     %   R. Sabatini et al., J. Phys.: Condens. Matter 24, 424209 (2012).   %
     %                                                                      %
     %%%%%%%%%%%%%%%%%%%%%%%%%%%%%%%%%%%%%%%%%%%%%%%%%%%%%%%%%%%%%%%%%%%%%%%%

     Adding external electric field

     Computed dipole along edir(3) :
        Dipole                0.0010 Ry au,          0.0024 Debye
        Dipole field          0.0000 Ry au,

        Potential amp.       -0.0002 Ry
        Total length         45.2869 bohr

     Starting wfcs are  120 randomized atomic wfcs

     Self-consistent Calculation

     iteration #  1     ecut=    55.12 Ry     beta= 0.10
     Davidson diagonalization with overlap
     ethr =  1.00E-02,  avg # of iterations =  3.5

[...]

     total energy              =   -1956.22463801 Ry
     estimated scf accuracy    <       8.60271858 Ry

[...]

     iteration #  7     ecut=    55.12 Ry     beta= 0.10
     Davidson diagonalization with overlap
     c_bands:  3 eigenvalues not converged
     c_bands:  1 eigenvalues not converged
     c_bands:  1 eigenvalues not converged
     c_bands:  3 eigenvalues not converged
     ethr =  1.47E-04,  avg # of iterations = 12.1

[...]

     iteration # 15     ecut=    55.12 Ry     beta= 0.10
     Davidson diagonalization with overlap
     c_bands:  1 eigenvalues not converged
     c_bands:  1 eigenvalues not converged
     c_bands:  3 eigenvalues not converged
     c_bands:  1 eigenvalues not converged
     c_bands:  1 eigenvalues not converged
     c_bands:  2 eigenvalues not converged
     c_bands:  1 eigenvalues not converged
     ethr =  2.44E-07,  avg # of iterations =  5.3

[...]

     total energy              =   -1956.64431372 Ry
     estimated scf accuracy    <       0.00006736 Ry

     iteration # 18     ecut=    55.12 Ry     beta= 0.10
     Davidson diagonalization with overlap
     ethr =  2.78E-08,  avg # of iterations =  2.6

[...]

     Adding external electric field

     Computed dipole along edir(3) :
        Dipole                0.0592 Ry au,          0.1505 Debye
        Dipole field          0.0002 Ry au,

        Potential amp.       -0.0137 Ry
        Total length         45.2869 bohr

     End of self-consistent calculation

          k = 0.0000 0.0000 0.0000 ( 34051 PWs)   bands (ev):

   -76.9307 -76.9277 -76.5180 -76.5151 -76.4512 -76.4482 -48.7132 -48.6914
   -48.6672 -48.6452 -47.9618 -47.9386 -44.8587 -44.8185 -44.8168 -44.8059
   -44.7790 -44.7740 -44.4763 -44.4714 -44.4578 -44.4345 -44.4295 -44.4055
   -44.3776 -44.3249 -44.3152 -44.3132 -44.2344 -44.2310 -27.3743 -27.3585
   -27.3529 -27.3273 -27.3192 -27.2983 -27.2058 -27.1894 -27.1650 -27.1486
   -27.1434 -27.1116 -26.6637 -26.5683 -26.5490 -26.5396 -26.5138 -26.4388
    -4.1173  -2.7263  -2.4072  -2.2364  -2.2230  -2.2173  -2.0894  -2.0537
    -2.0310  -1.9772  -1.6409  -1.5824  -1.1375  -1.1338  -1.0534  -0.9833
    -0.8617  -0.8106  -0.7600  -0.7535  -0.7369  -0.6198  -0.4593  -0.1365
    -0.1253  -0.0766  -0.0152   0.2257   0.4277   0.5704   0.5938   0.8169
     0.9730   1.5289   1.8787   2.0788   2.1810   2.3293   2.3588   2.5520
     2.6822   2.8687   2.9054   3.0763   3.1002   3.1792   3.1917   3.2125
     3.3811   3.6812   3.7200   3.7699   3.8129

[...]

          k = 0.0743-0.0421 0.0000 ( 33913 PWs)   bands (ev):

[...]

          k =-0.0892 0.0316 0.0000 ( 33900 PWs)   bands (ev):

[...]

          k =-0.0892-0.0630 0.0000 ( 33850 PWs)   bands (ev):

   -76.9306 -76.9277 -76.5180 -76.5151 -76.4511 -76.4482 -48.7163 -48.6932
   -48.6704 -48.6470 -47.9669 -47.9406 -44.8545 -44.8189 -44.8158 -44.8057
   -44.7729 -44.7707 -44.4707 -44.4703 -44.4545 -44.4284 -44.4284 -44.4053
   -44.3741 -44.3247 -44.3152 -44.3138 -44.2343 -44.2312 -27.3773 -27.3682
   -27.3526 -27.3375 -27.3206 -27.2971 -27.2250 -27.1960 -27.1842 -27.1557
   -27.1464 -27.1147 -26.6737 -26.5843 -26.5580 -26.5343 -26.5176 -26.4425
    -2.6263  -2.2365  -1.9112  -1.8635  -1.7103  -1.6985  -1.4513  -1.3653
    -1.3261  -1.2735  -1.2695  -1.2161  -1.0493  -0.9545  -0.9224  -0.7470
    -0.5832  -0.4809  -0.4347  -0.4194  -0.4065  -0.4008  -0.2679  -0.2526
    -0.0621  -0.0070   0.0891   0.0937   0.1280   0.1361   0.3080   0.5175
     0.5818   0.8918   1.0493   1.2262   1.3008   1.3099   1.3789   1.3838
     1.7480   2.0118   2.3853   2.4408   2.4485   2.4749   2.7451   2.7902
     2.8652   3.0047   3.0516   3.2877   3.4193

     the Fermi energy is     1.4176 ev

!    total energy              =   -1956.64431153 Ry
     estimated scf accuracy    <       0.00000700 Ry
     smearing contrib. (-TS)   =      -0.03593384 Ry
     internal energy E=F+TS    =   -1956.60837769 Ry

     The total energy is F=E-TS. E is the sum of the following terms:
     one-electron contribution =  -14633.51911147 Ry
     hartree contribution      =    7312.05536238 Ry
     xc contribution           =    -293.71472656 Ry
     ewald contribution        =    5658.57008899 Ry
     electric field correction =       0.00000897 Ry

     convergence has been achieved in  18 iterations

     negative rho (up, down):  1.113E-03 0.000E+00

     Forces acting on atoms (cartesian axes, Ry/au):

     atom    1 type  1   force =    -0.00031883   -0.00022520   -0.01053897
     atom    2 type  1   force =    -0.00031004   -0.00022634   -0.01053470
     atom    3 type  2   force =    -0.00009165   -0.00006602    0.02069352
     atom    4 type  2   force =    -0.00009916   -0.00005853    0.02069535
     atom    5 type  1   force =     0.00014003    0.00009676   -0.01061992
     atom    6 type  1   force =     0.00014181    0.00010272   -0.01061388
     atom    7 type  2   force =    -0.00002437   -0.00002139   -0.00086216
     atom    8 type  2   force =    -0.00002534   -0.00000880   -0.00086777
     atom    9 type  1   force =     0.00013388    0.00009654   -0.00035535
     atom   10 type  1   force =     0.00013630    0.00008708   -0.00035154
     atom   11 type  2   force =     0.00015100    0.00011595    0.00167121
     atom   12 type  2   force =     0.00016638    0.00010724    0.00168422

     Total force =     0.036220     Total SCF correction =     0.019585
     SCF correction compared to forces is large: reduce conv_thr to get better values

     Writing output data file ./Sc2Rh2/Sc2Rh2_beef.save/

     General routines

     Parallel routines

   This run was terminated on:  20:24:38  10Jul2022

   JOB DONE.