     Program PWSCF v.6.6 starts on 24Jun2022 at 23:14:33

     R & G space division:  proc/nbgrp/npool/nimage =      37
     Fft bands division:     nmany     =       1
     Reading input from Sc2Re2.in
Warning: card &CELL ignored
Warning: card / ignored

     Current dimensions of program PWSCF are:
     Max number of different atomic species (ntypx) = 10
     Max number of k-points (npk) =  40000
     Max angular momentum in pseudopotentials (lmaxx) =  3
     Presently stress not available with electric field and gates

     Message from routine cell_base_init:
     DEPRECATED: use true lattice parameter, not A to a.u. conversion factor
     file Sc.pbe-spn-rrkjus_psl.1.0.0.UPF: wavefunction(s)  3S 3P renormalized

     IMPORTANT: XC functional enforced from input :
     Exchange-correlation= BEEF-VDW
                           (   1   4  43  14   2   0   0)
     Any further DFT definition will be discarded
     Please, verify this is what you really want

     Subspace diagonalization in iterative solution of the eigenvalue problem:
     a serial algorithm will be used

     Found symmetry operation: I + (  0.5000  0.0000  0.0000)
     This is a supercell, fractional translations are disabled

     bravais-lattice index     =            0
     lattice parameter (alat)  =       1.8897  a.u.
     unit-cell volume          =    4910.2697 (a.u.)^3
     number of atoms/cell      =           12
     number of atomic types    =            2
     number of electrons       =       156.00
     number of Kohn-Sham states=           94
     kinetic-energy cutoff     =      55.1240  Ry
     charge density cutoff     =     551.2396  Ry
     convergence threshold     =      1.0E-05
     mixing beta               =       0.1000
     number of iterations used =           10  plain     mixing
     Exchange-correlation= BEEF-VDW
                           (   1   4  43  14   2   0   0)

     celldm(1)=   1.889726  celldm(2)=   0.000000  celldm(3)=   0.000000
     celldm(4)=   0.000000  celldm(5)=   0.000000  celldm(6)=   0.000000

     crystal axes: (cart. coord. in units of alat)
               a(1) = (   5.488169   0.000000   0.000000 )
               a(2) = (  -2.744084   5.364238   0.000000 )
               a(3) = (   0.000000   0.000000  24.715723 )

     reciprocal axes: (cart. coord. in units 2 pi/alat)
               b(1) = (  0.182210  0.093210 -0.000000 )
               b(2) = (  0.000000  0.186420  0.000000 )
               b(3) = (  0.000000 -0.000000  0.040460 )

     PseudoPot. # 1 for Sc read from file:
     ../pseudo/Sc.pbe-spn-rrkjus_psl.1.0.0.UPF
     MD5 check sum: f739f74c200e509e5c24cbe053202ee5
     Pseudo is Ultrasoft + core correction, Zval = 11.0
     Generated using "atomic" code by A. Dal Corso v.6.2.2
     Using radial grid of 1173 points,  6 beta functions with:
                l(1) =   0
                l(2) =   0
                l(3) =   1
                l(4) =   1
                l(5) =   2
                l(6) =   2
     Q(r) pseudized with 0 coefficients

     PseudoPot. # 2 for Re read from file:
     ../pseudo/Re.pbe-spn-rrkjus_psl.1.0.0.UPF
     MD5 check sum: 1282f1ec51ad523723a04c61ae80a9e6
     Pseudo is Ultrasoft + core correction, Zval = 15.0
     Generated using "atomic" code by A. Dal Corso v.6.2.2
     Using radial grid of 1275 points,  6 beta functions with:
                l(1) =   0
                l(2) =   0
                l(3) =   1
                l(4) =   1
                l(5) =   2
                l(6) =   2
     Q(r) pseudized with 0 coefficients

     atomic species   valence    mass     pseudopotential
        Sc            11.00    44.95591     Sc( 1.00)
        Re            15.00   186.20700     Re( 1.00)

     No symmetry found

   Cartesian axes

     site n.     atom                  positions (alat units)
         1           Sc  tau(   1) = (   0.0000000   0.0000000  10.0000000  )
         2           Sc  tau(   2) = (   2.7440843   0.0000000  10.0000000  )
         3           Re  tau(   3) = (   1.3720422   2.6821188  10.0000000  )
         4           Re  tau(   4) = (  -1.3720422   2.6821188  10.0000000  )
         5           Sc  tau(   5) = (   2.7440843   1.4037407  12.3578615  )
         6           Sc  tau(   6) = (   0.0000000   1.4037407  12.3578615  )
         7           Re  tau(   7) = (  -1.3720422   4.0858595  12.3578615  )
         8           Re  tau(   8) = (   1.3720422   4.0858595  12.3578615  )
         9           Sc  tau(   9) = (   0.0000990   2.8902147  14.9056767  )
        10           Sc  tau(  10) = (   2.7441872   2.8902190  14.9056662  )
        11           Re  tau(  11) = (   4.1162037   0.0566282  14.4475921  )
        12           Re  tau(  12) = (   1.3721112   0.0566217  14.4475953  )

     number of k points=    74  Fermi-Dirac smearing, width (Ry)=  0.0100
                       cart. coord. in units 2pi/alat
        k(    1) = (   0.0000000   0.0000000   0.0000000), wk =   0.0138889
        k(    2) = (   0.0000000   0.0155350   0.0000000), wk =   0.0277778
        k(    3) = (   0.0000000   0.0310700   0.0000000), wk =   0.0277778
        k(    4) = (   0.0000000   0.0466049   0.0000000), wk =   0.0277778
        k(    5) = (   0.0000000   0.0621399   0.0000000), wk =   0.0277778
        k(    6) = (   0.0000000   0.0776749   0.0000000), wk =   0.0277778
        k(    7) = (   0.0000000  -0.0932099   0.0000000), wk =   0.0138889
        k(    8) = (   0.0151842   0.0077675   0.0000000), wk =   0.0277778
        k(    9) = (   0.0151842   0.0233025   0.0000000), wk =   0.0277778
        k(   10) = (   0.0151842   0.0388375   0.0000000), wk =   0.0277778
        k(   11) = (   0.0151842   0.0543724   0.0000000), wk =   0.0277778
        k(   12) = (   0.0151842   0.0699074   0.0000000), wk =   0.0277778
        k(   13) = (   0.0151842   0.0854424   0.0000000), wk =   0.0277778
        k(   14) = (   0.0151842  -0.0854424   0.0000000), wk =   0.0277778
        k(   15) = (   0.0151842  -0.0699074   0.0000000), wk =   0.0277778
        k(   16) = (   0.0151842  -0.0543724   0.0000000), wk =   0.0277778
        k(   17) = (   0.0151842  -0.0388375   0.0000000), wk =   0.0277778
        k(   18) = (   0.0151842  -0.0233025   0.0000000), wk =   0.0277778
        k(   19) = (   0.0151842  -0.0077675   0.0000000), wk =   0.0277778
        k(   20) = (   0.0303684   0.0155350   0.0000000), wk =   0.0277778
        k(   21) = (   0.0303684   0.0310700   0.0000000), wk =   0.0277778
        k(   22) = (   0.0303684   0.0466049   0.0000000), wk =   0.0277778
        k(   23) = (   0.0303684   0.0621399   0.0000000), wk =   0.0277778
        k(   24) = (   0.0303684   0.0776749   0.0000000), wk =   0.0277778
        k(   25) = (   0.0303684   0.0932099   0.0000000), wk =   0.0277778
        k(   26) = (   0.0303684  -0.0776749   0.0000000), wk =   0.0277778
        k(   27) = (   0.0303684  -0.0621399   0.0000000), wk =   0.0277778
        k(   28) = (   0.0303684  -0.0466049   0.0000000), wk =   0.0277778
        k(   29) = (   0.0303684  -0.0310700   0.0000000), wk =   0.0277778
        k(   30) = (   0.0303684  -0.0155350   0.0000000), wk =   0.0277778
        k(   31) = (   0.0303684  -0.0000000   0.0000000), wk =   0.0277778
        k(   32) = (   0.0455525   0.0233025   0.0000000), wk =   0.0277778
        k(   33) = (   0.0455525   0.0388374   0.0000000), wk =   0.0277778
        k(   34) = (   0.0455525   0.0543724   0.0000000), wk =   0.0277778
        k(   35) = (   0.0455525   0.0699074   0.0000000), wk =   0.0277778
        k(   36) = (   0.0455525   0.0854424   0.0000000), wk =   0.0277778
        k(   37) = (   0.0455525   0.1009774   0.0000000), wk =   0.0277778
        k(   38) = (   0.0455525  -0.0699074   0.0000000), wk =   0.0277778
        k(   39) = (   0.0455525  -0.0543724   0.0000000), wk =   0.0277778
        k(   40) = (   0.0455525  -0.0388375   0.0000000), wk =   0.0277778
        k(   41) = (   0.0455525  -0.0233025   0.0000000), wk =   0.0277778
        k(   42) = (   0.0455525  -0.0077675   0.0000000), wk =   0.0277778
        k(   43) = (   0.0455525   0.0077675   0.0000000), wk =   0.0277778
        k(   44) = (   0.0607367   0.0310700   0.0000000), wk =   0.0277778
        k(   45) = (   0.0607367   0.0466049   0.0000000), wk =   0.0277778
        k(   46) = (   0.0607367   0.0621399   0.0000000), wk =   0.0277778
        k(   47) = (   0.0607367   0.0776749   0.0000000), wk =   0.0277778
        k(   48) = (   0.0607367   0.0932099   0.0000000), wk =   0.0277778
        k(   49) = (   0.0607367   0.1087449   0.0000000), wk =   0.0277778
        k(   50) = (   0.0607367  -0.0621399   0.0000000), wk =   0.0277778
        k(   51) = (   0.0607367  -0.0466049   0.0000000), wk =   0.0277778
        k(   52) = (   0.0607367  -0.0310700   0.0000000), wk =   0.0277778
        k(   53) = (   0.0607367  -0.0155350   0.0000000), wk =   0.0277778
        k(   54) = (   0.0607367  -0.0000000   0.0000000), wk =   0.0277778
        k(   55) = (   0.0607367   0.0155350   0.0000000), wk =   0.0277778
        k(   56) = (   0.0759209   0.0388374   0.0000000), wk =   0.0277778
        k(   57) = (   0.0759209   0.0543724   0.0000000), wk =   0.0277778
        k(   58) = (   0.0759209   0.0699074   0.0000000), wk =   0.0277778
        k(   59) = (   0.0759209   0.0854424   0.0000000), wk =   0.0277778
        k(   60) = (   0.0759209   0.1009774   0.0000000), wk =   0.0277778
        k(   61) = (   0.0759209   0.1165123   0.0000000), wk =   0.0277778
        k(   62) = (   0.0759209  -0.0543724   0.0000000), wk =   0.0277778
        k(   63) = (   0.0759209  -0.0388375   0.0000000), wk =   0.0277778
        k(   64) = (   0.0759209  -0.0233025   0.0000000), wk =   0.0277778
        k(   65) = (   0.0759209  -0.0077675   0.0000000), wk =   0.0277778
        k(   66) = (   0.0759209   0.0077675   0.0000000), wk =   0.0277778
        k(   67) = (   0.0759209   0.0233025   0.0000000), wk =   0.0277778
        k(   68) = (  -0.0911051  -0.0466049   0.0000000), wk =   0.0138889
        k(   69) = (  -0.0911051  -0.0310700   0.0000000), wk =   0.0277778
        k(   70) = (  -0.0911051  -0.0155350   0.0000000), wk =   0.0277778
        k(   71) = (  -0.0911051   0.0000000   0.0000000), wk =   0.0277778
        k(   72) = (  -0.0911051   0.0155350   0.0000000), wk =   0.0277778
        k(   73) = (  -0.0911051   0.0310700   0.0000000), wk =   0.0277778
        k(   74) = (  -0.0911051  -0.1398148   0.0000000), wk =   0.0138889

     Check: negative core charge=   -0.000001

     Initial potential from superposition of free atoms

     starting charge  155.98283, renormalised to  156.00000

     negative rho (up, down):  4.594E-04 0.000E+00

     %%%%%%%%%%%%%%%%%%%%%%%%%%%%%%%%%%%%%%%%%%%%%%%%%%%%%%%%%%%%%%%%%%%%%%%%
     %                                                                      %
     % You are using vdW-DF, which was implemented by the Thonhauser group. %
     % Please cite the following two papers that made this development      %
     % possible and the two reviews that describe the various versions:     %
     %                                                                      %
     %   T. Thonhauser et al., PRL 115, 136402 (2015).                      %
     %   T. Thonhauser et al., PRB 76, 125112 (2007).                       %
     %   K. Berland et al., Rep. Prog. Phys. 78, 066501 (2015).             %
     %   D.C. Langreth et al., J. Phys.: Condens. Matter 21, 084203 (2009). %
     %                                                                      %
     %                                                                      %
     % If you are calculating the stress with vdW-DF, please also cite:     %
     %                                                                      %
     %   R. Sabatini et al., J. Phys.: Condens. Matter 24, 424209 (2012).   %
     %                                                                      %
     %%%%%%%%%%%%%%%%%%%%%%%%%%%%%%%%%%%%%%%%%%%%%%%%%%%%%%%%%%%%%%%%%%%%%%%%

     Adding external electric field

     Computed dipole along edir(3) :
        Dipole                0.0023 Ry au,          0.0059 Debye
        Dipole field          0.0000 Ry au,

        Potential amp.       -0.0005 Ry
        Total length         45.5383 bohr

     Starting wfcs are  120 randomized atomic wfcs

     Self-consistent Calculation

     iteration #  1     ecut=    55.12 Ry     beta= 0.10
     Davidson diagonalization with overlap
     ethr =  1.00E-02,  avg # of iterations =  2.1

[...]

     total energy              =   -1666.09085521 Ry
     estimated scf accuracy    <       3.90983098 Ry

[...]

     iteration #  6     ecut=    55.12 Ry     beta= 0.10
     Davidson diagonalization with overlap
     c_bands:  1 eigenvalues not converged
     ethr =  1.47E-04,  avg # of iterations =  5.9

[...]

     iteration # 13     ecut=    55.12 Ry     beta= 0.10
     Davidson diagonalization with overlap
     c_bands:  1 eigenvalues not converged
     c_bands:  1 eigenvalues not converged
     c_bands:  1 eigenvalues not converged
     ethr =  3.41E-07,  avg # of iterations =  8.4

[...]

     total energy              =   -1666.74501313 Ry
     estimated scf accuracy    <       0.00014435 Ry

     iteration # 16     ecut=    55.12 Ry     beta= 0.10
     Davidson diagonalization with overlap
     ethr =  9.25E-08,  avg # of iterations =  2.0

[...]

     Adding external electric field

     Computed dipole along edir(3) :
        Dipole                0.2055 Ry au,          0.5223 Debye
        Dipole field          0.0005 Ry au,

        Potential amp.       -0.0479 Ry
        Total length         45.5383 bohr

     End of self-consistent calculation

          k = 0.0000 0.0000 0.0000 ( 33953 PWs)   bands (ev):

   -78.5744 -78.5365 -78.1582 -78.1274 -78.1200 -78.0893 -47.9318 -47.7930
   -47.7756 -47.6353 -47.3948 -47.2530 -40.6289 -40.5549 -40.5324 -40.2576
   -40.1904 -40.1588 -40.1443 -39.9097 -39.8872 -39.8508 -39.8389 -39.8200
   -39.7858 -39.7718 -39.6604 -39.6039 -39.5364 -39.5244 -26.9669 -26.8765
   -26.6726 -26.5491 -26.5436 -26.5304 -26.4193 -26.4181 -26.3032 -26.2641
   -26.1459 -26.0378 -25.9418 -25.9315 -25.9088 -25.8231 -25.7893 -25.5910
    -5.1596  -3.5315  -2.7727  -2.6607  -2.1462  -2.0775  -1.9895  -1.9698
    -1.7356  -1.3154  -1.2966  -1.2919  -1.0551  -1.0382  -0.7243  -0.6352
    -0.0839  -0.0190   0.1505   0.2708   0.5614   1.2850   1.3654   1.4958
     1.7678   1.8209   1.8541   1.8772   2.1188   2.3292   2.3725   2.5269
     2.6025   2.7287   2.7727   2.7962   2.9079   2.9743   3.0094   3.0415
     3.0932   3.5475   3.5853   3.8469   3.8830   4.0094

[...]

          k = 0.0759 0.0233 0.0000 ( 33972 PWs)   bands (ev):

[...]

          k =-0.0911-0.0466 0.0000 ( 33936 PWs)   bands (ev):

[...]

          k =-0.0911-0.1398 0.0000 ( 33936 PWs)   bands (ev):

   -78.5555 -78.5555 -78.1392 -78.1391 -78.1084 -78.1084 -47.8633 -47.8631
   -47.7064 -47.7063 -47.3248 -47.3248 -40.5915 -40.5915 -40.2267 -40.2267
   -40.2230 -40.2230 -39.8543 -39.8542 -39.8525 -39.8525 -39.8400 -39.8400
   -39.8183 -39.8183 -39.8047 -39.8047 -39.6322 -39.6321 -26.6123 -26.6121
   -26.5159 -26.5158 -26.4825 -26.4824 -26.4228 -26.4227 -26.3656 -26.3655
   -26.2097 -26.2095 -26.0746 -26.0745 -25.8764 -25.8764 -25.8540 -25.8539
    -3.3782  -3.3781  -2.0506  -2.0505  -1.4070  -1.4070  -1.2412  -1.2412
    -1.0614  -1.0613  -0.7416  -0.7416  -0.4015  -0.4015  -0.2630  -0.2630
     0.1361   0.1361   0.4252   0.4252   0.5999   0.5999   0.7024   0.7024
     0.8015   0.8016   0.9362   0.9363   1.3151   1.3151   1.7672   1.7672
     2.1118   2.1118   2.2564   2.2564   2.5899   2.5899   2.9435   2.9435
     3.1084   3.1084   3.3029   3.3031   3.5975   3.5986

     the Fermi energy is     1.8623 ev

!    total energy              =   -1666.74502617 Ry
     estimated scf accuracy    <       0.00000896 Ry
     smearing contrib. (-TS)   =      -0.06994489 Ry
     internal energy E=F+TS    =   -1666.67508128 Ry

     The total energy is F=E-TS. E is the sum of the following terms:
     one-electron contribution =  -12358.46833297 Ry
     hartree contribution      =    6164.93549229 Ry
     xc contribution           =    -354.79331744 Ry
     ewald contribution        =    4881.65096878 Ry
     electric field correction =       0.00010807 Ry

     convergence has been achieved in  16 iterations

     negative rho (up, down):  2.717E-04 0.000E+00

     Forces acting on atoms (cartesian axes, Ry/au):

     atom    1 type  1   force =    -0.00000147   -0.02293160   -0.03836842
     atom    2 type  1   force =     0.00000807   -0.02293778   -0.03837074
     atom    3 type  2   force =    -0.00000188    0.01041466    0.05295978
     atom    4 type  2   force =    -0.00000291    0.01042734    0.05293950
     atom    5 type  1   force =    -0.00001209    0.02509374   -0.00244125
     atom    6 type  1   force =     0.00000824    0.02509732   -0.00245522
     atom    7 type  2   force =    -0.00000843   -0.01032679   -0.01051157
     atom    8 type  2   force =     0.00002001   -0.01034254   -0.01052070
     atom    9 type  1   force =    -0.00001507   -0.00051888   -0.00155254
     atom   10 type  1   force =    -0.00001834   -0.00050821   -0.00156499
     atom   11 type  2   force =     0.00000663   -0.00173535   -0.00005564
     atom   12 type  2   force =     0.00001723   -0.00173190   -0.00005822

     Total force =     0.107418     Total SCF correction =     0.012184
     SCF correction compared to forces is large: reduce conv_thr to get better values

     Writing output data file ./Sc2Re2/Sc2Re2_beef.save/

     General routines

     Parallel routines

   This run was terminated on:   0:22:28  25Jun2022

   JOB DONE.