     Program PWSCF v.6.6 starts on 11Jul2022 at  4:55: 8

     R & G space division:  proc/nbgrp/npool/nimage =      37
     Fft bands division:     nmany     =       1
     Reading input from Sc2Ru2.in
Warning: card &CELL ignored
Warning: card / ignored

     Current dimensions of program PWSCF are:
     Max number of different atomic species (ntypx) = 10
     Max number of k-points (npk) =  40000
     Max angular momentum in pseudopotentials (lmaxx) =  3
     Presently stress not available with electric field and gates

     Message from routine cell_base_init:
     DEPRECATED: use true lattice parameter, not A to a.u. conversion factor
     file Sc.pbe-spn-rrkjus_psl.1.0.0.UPF: wavefunction(s)  3S 3P renormalized

     IMPORTANT: XC functional enforced from input :
     Exchange-correlation= BEEF-VDW
                           (   1   4  43  14   2   0   0)
     Any further DFT definition will be discarded
     Please, verify this is what you really want

     Subspace diagonalization in iterative solution of the eigenvalue problem:
     a serial algorithm will be used

     Found symmetry operation: I + ( -0.5000  0.5000  0.0000)
     This is a supercell, fractional translations are disabled

     bravais-lattice index     =            0
     lattice parameter (alat)  =       1.8897  a.u.
     unit-cell volume          =    4848.5303 (a.u.)^3
     number of atoms/cell      =           12
     number of atomic types    =            2
     number of electrons       =       162.00
     number of Kohn-Sham states=           97
     kinetic-energy cutoff     =      55.1240  Ry
     charge density cutoff     =     551.2396  Ry
     convergence threshold     =      1.0E-05
     mixing beta               =       0.1000
     number of iterations used =           10  plain     mixing
     Exchange-correlation= BEEF-VDW
                           (   1   4  43  14   2   0   0)

     celldm(1)=   1.889726  celldm(2)=   0.000000  celldm(3)=   0.000000
     celldm(4)=   0.000000  celldm(5)=   0.000000  celldm(6)=   0.000000

     crystal axes: (cart. coord. in units of alat)
               a(1) = (   5.569533   0.000000   0.000000 )
               a(2) = (   1.841883   5.256155   0.000000 )
               a(3) = (   0.000000   0.000000  24.542944 )

     reciprocal axes: (cart. coord. in units 2 pi/alat)
               b(1) = (  0.179548 -0.062918  0.000000 )
               b(2) = (  0.000000  0.190253  0.000000 )
               b(3) = (  0.000000  0.000000  0.040745 )

     PseudoPot. # 1 for Sc read from file:
     ../pseudo/Sc.pbe-spn-rrkjus_psl.1.0.0.UPF
     MD5 check sum: f739f74c200e509e5c24cbe053202ee5
     Pseudo is Ultrasoft + core correction, Zval = 11.0
     Generated using "atomic" code by A. Dal Corso v.6.2.2
     Using radial grid of 1173 points,  6 beta functions with:
                l(1) =   0
                l(2) =   0
                l(3) =   1
                l(4) =   1
                l(5) =   2
                l(6) =   2
     Q(r) pseudized with 0 coefficients

     PseudoPot. # 2 for Ru read from file:
     ../pseudo/Ru.pbe-spn-rrkjus_psl.1.0.0.UPF
     MD5 check sum: fbaca725316a1a65f98761fd4ac95971
     Pseudo is Ultrasoft + core correction, Zval = 16.0
     Generated using "atomic" code by A. Dal Corso v.6.2.2
     Using radial grid of 1233 points,  6 beta functions with:
                l(1) =   0
                l(2) =   0
                l(3) =   1
                l(4) =   1
                l(5) =   2
                l(6) =   2
     Q(r) pseudized with 0 coefficients

     atomic species   valence    mass     pseudopotential
        Sc            11.00    44.95591     Sc( 1.00)
        Ru            16.00   101.07000     Ru( 1.00)

     No symmetry found

   Cartesian axes

     site n.     atom                  positions (alat units)
         1           Sc  tau(   1) = (   0.0000000   0.0000000  10.0000000  )
         2           Sc  tau(   2) = (   3.7057080   2.6280773  10.0000000  )
         3           Ru  tau(   3) = (   2.7847664   0.0000000  10.0000000  )
         4           Ru  tau(   4) = (   0.9209416   2.6280773  10.0000000  )
         5           Sc  tau(   5) = (   5.5695328   3.9498964  12.2714719  )
         6           Sc  tau(   6) = (   1.8638248   1.3218191  12.2714719  )
         7           Ru  tau(   7) = (   2.7847664   3.9498964  12.2714719  )
         8           Ru  tau(   8) = (   4.6485912   1.3218191  12.2714719  )
         9           Sc  tau(   9) = (   3.7213126   2.6391437  14.5276606  )
        10           Sc  tau(  10) = (   0.0156146   0.0110699  14.5276635  )
        11           Ru  tau(  11) = (   0.9399342   2.6415449  14.4618443  )
        12           Ru  tau(  12) = (   2.8037570   0.0134684  14.4618485  )

     number of k points=    74  Fermi-Dirac smearing, width (Ry)=  0.0100
                       cart. coord. in units 2pi/alat
        k(    1) = (   0.0000000   0.0000000   0.0000000), wk =   0.0138889
        k(    2) = (   0.0000000   0.0158544   0.0000000), wk =   0.0277778
        k(    3) = (   0.0000000   0.0317089   0.0000000), wk =   0.0277778
        k(    4) = (   0.0000000   0.0475633   0.0000000), wk =   0.0277778
        k(    5) = (   0.0000000   0.0634177   0.0000000), wk =   0.0277778
        k(    6) = (   0.0000000   0.0792721   0.0000000), wk =   0.0277778
        k(    7) = (   0.0000000  -0.0951266   0.0000000), wk =   0.0138889
        k(    8) = (   0.0149624  -0.0052432   0.0000000), wk =   0.0277778
        k(    9) = (   0.0149624   0.0106113   0.0000000), wk =   0.0277778
        k(   10) = (   0.0149624   0.0264657   0.0000000), wk =   0.0277778
        k(   11) = (   0.0149624   0.0423201   0.0000000), wk =   0.0277778
        k(   12) = (   0.0149624   0.0581745   0.0000000), wk =   0.0277778
        k(   13) = (   0.0149624   0.0740290   0.0000000), wk =   0.0277778
        k(   14) = (   0.0149624  -0.1003697   0.0000000), wk =   0.0277778
        k(   15) = (   0.0149624  -0.0845153   0.0000000), wk =   0.0277778
        k(   16) = (   0.0149624  -0.0686609   0.0000000), wk =   0.0277778
        k(   17) = (   0.0149624  -0.0528065   0.0000000), wk =   0.0277778
        k(   18) = (   0.0149624  -0.0369520   0.0000000), wk =   0.0277778
        k(   19) = (   0.0149624  -0.0210976   0.0000000), wk =   0.0277778
        k(   20) = (   0.0299247  -0.0104863   0.0000000), wk =   0.0277778
        k(   21) = (   0.0299247   0.0053681   0.0000000), wk =   0.0277778
        k(   22) = (   0.0299247   0.0212225   0.0000000), wk =   0.0277778
        k(   23) = (   0.0299247   0.0370769   0.0000000), wk =   0.0277778
        k(   24) = (   0.0299247   0.0529314   0.0000000), wk =   0.0277778
        k(   25) = (   0.0299247   0.0687858   0.0000000), wk =   0.0277778
        k(   26) = (   0.0299247  -0.1056129   0.0000000), wk =   0.0277778
        k(   27) = (   0.0299247  -0.0897585   0.0000000), wk =   0.0277778
        k(   28) = (   0.0299247  -0.0739041   0.0000000), wk =   0.0277778
        k(   29) = (   0.0299247  -0.0580496   0.0000000), wk =   0.0277778
        k(   30) = (   0.0299247  -0.0421952   0.0000000), wk =   0.0277778
        k(   31) = (   0.0299247  -0.0263408   0.0000000), wk =   0.0277778
        k(   32) = (   0.0448871  -0.0157295   0.0000000), wk =   0.0277778
        k(   33) = (   0.0448871   0.0001249   0.0000000), wk =   0.0277778
        k(   34) = (   0.0448871   0.0159794   0.0000000), wk =   0.0277778
        k(   35) = (   0.0448871   0.0318338   0.0000000), wk =   0.0277778
        k(   36) = (   0.0448871   0.0476882   0.0000000), wk =   0.0277778
        k(   37) = (   0.0448871   0.0635426   0.0000000), wk =   0.0277778
        k(   38) = (   0.0448871  -0.1108561   0.0000000), wk =   0.0277778
        k(   39) = (   0.0448871  -0.0950016   0.0000000), wk =   0.0277778
        k(   40) = (   0.0448871  -0.0791472   0.0000000), wk =   0.0277778
        k(   41) = (   0.0448871  -0.0632928   0.0000000), wk =   0.0277778
        k(   42) = (   0.0448871  -0.0474384   0.0000000), wk =   0.0277778
        k(   43) = (   0.0448871  -0.0315839   0.0000000), wk =   0.0277778
        k(   44) = (   0.0598494  -0.0209727   0.0000000), wk =   0.0277778
        k(   45) = (   0.0598494  -0.0051182   0.0000000), wk =   0.0277778
        k(   46) = (   0.0598494   0.0107362   0.0000000), wk =   0.0277778
        k(   47) = (   0.0598494   0.0265906   0.0000000), wk =   0.0277778
        k(   48) = (   0.0598494   0.0424450   0.0000000), wk =   0.0277778
        k(   49) = (   0.0598494   0.0582995   0.0000000), wk =   0.0277778
        k(   50) = (   0.0598494  -0.1160992   0.0000000), wk =   0.0277778
        k(   51) = (   0.0598494  -0.1002448   0.0000000), wk =   0.0277778
        k(   52) = (   0.0598494  -0.0843904   0.0000000), wk =   0.0277778
        k(   53) = (   0.0598494  -0.0685360   0.0000000), wk =   0.0277778
        k(   54) = (   0.0598494  -0.0526815   0.0000000), wk =   0.0277778
        k(   55) = (   0.0598494  -0.0368271   0.0000000), wk =   0.0277778
        k(   56) = (   0.0748118  -0.0262158   0.0000000), wk =   0.0277778
        k(   57) = (   0.0748118  -0.0103614   0.0000000), wk =   0.0277778
        k(   58) = (   0.0748118   0.0054930   0.0000000), wk =   0.0277778
        k(   59) = (   0.0748118   0.0213474   0.0000000), wk =   0.0277778
        k(   60) = (   0.0748118   0.0372019   0.0000000), wk =   0.0277778
        k(   61) = (   0.0748118   0.0530563   0.0000000), wk =   0.0277778
        k(   62) = (   0.0748118  -0.1213424   0.0000000), wk =   0.0277778
        k(   63) = (   0.0748118  -0.1054880   0.0000000), wk =   0.0277778
        k(   64) = (   0.0748118  -0.0896336   0.0000000), wk =   0.0277778
        k(   65) = (   0.0748118  -0.0737791   0.0000000), wk =   0.0277778
        k(   66) = (   0.0748118  -0.0579247   0.0000000), wk =   0.0277778
        k(   67) = (   0.0748118  -0.0420703   0.0000000), wk =   0.0277778
        k(   68) = (  -0.0897741   0.0314590   0.0000000), wk =   0.0138889
        k(   69) = (  -0.0897741   0.0473134   0.0000000), wk =   0.0277778
        k(   70) = (  -0.0897741   0.0631679   0.0000000), wk =   0.0277778
        k(   71) = (  -0.0897741   0.0790223   0.0000000), wk =   0.0277778
        k(   72) = (  -0.0897741   0.0948767   0.0000000), wk =   0.0277778
        k(   73) = (  -0.0897741   0.1107312   0.0000000), wk =   0.0277778
        k(   74) = (  -0.0897741  -0.0636676   0.0000000), wk =   0.0138889

     Check: negative core charge=   -0.000002

     Initial potential from superposition of free atoms

     starting charge  161.98081, renormalised to  162.00000

     negative rho (up, down):  1.408E-03 0.000E+00

     %%%%%%%%%%%%%%%%%%%%%%%%%%%%%%%%%%%%%%%%%%%%%%%%%%%%%%%%%%%%%%%%%%%%%%%%
     %                                                                      %
     % You are using vdW-DF, which was implemented by the Thonhauser group. %
     % Please cite the following two papers that made this development      %
     % possible and the two reviews that describe the various versions:     %
     %                                                                      %
     %   T. Thonhauser et al., PRL 115, 136402 (2015).                      %
     %   T. Thonhauser et al., PRB 76, 125112 (2007).                       %
     %   K. Berland et al., Rep. Prog. Phys. 78, 066501 (2015).             %
     %   D.C. Langreth et al., J. Phys.: Condens. Matter 21, 084203 (2009). %
     %                                                                      %
     %                                                                      %
     % If you are calculating the stress with vdW-DF, please also cite:     %
     %                                                                      %
     %   R. Sabatini et al., J. Phys.: Condens. Matter 24, 424209 (2012).   %
     %                                                                      %
     %%%%%%%%%%%%%%%%%%%%%%%%%%%%%%%%%%%%%%%%%%%%%%%%%%%%%%%%%%%%%%%%%%%%%%%%

     Adding external electric field

     Computed dipole along edir(3) :
        Dipole                0.0003 Ry au,          0.0008 Debye
        Dipole field          0.0000 Ry au,

        Potential amp.       -0.0001 Ry
        Total length         45.2200 bohr

     Starting wfcs are  120 randomized atomic wfcs

     Self-consistent Calculation

     iteration #  1     ecut=    55.12 Ry     beta= 0.10
     Davidson diagonalization with overlap
     ethr =  1.00E-02,  avg # of iterations =  2.8

[...]

     total energy              =   -1779.23953928 Ry
     estimated scf accuracy    <       8.46583097 Ry

[...]

     iteration #  6     ecut=    55.12 Ry     beta= 0.10
     Davidson diagonalization with overlap
     c_bands:  1 eigenvalues not converged
     ethr =  2.22E-04,  avg # of iterations =  3.4

[...]

     iteration # 21     ecut=    55.12 Ry     beta= 0.10
     Davidson diagonalization with overlap
     c_bands:  2 eigenvalues not converged
     ethr =  4.16E-08,  avg # of iterations =  2.3

[...]

     total energy              =   -1779.79283668 Ry
     estimated scf accuracy    <       0.00005285 Ry

     iteration # 24     ecut=    55.12 Ry     beta= 0.10
     Davidson diagonalization with overlap
     ethr =  3.26E-08,  avg # of iterations =  4.4

[...]

     Adding external electric field

     Computed dipole along edir(3) :
        Dipole                0.0175 Ry au,          0.0444 Debye
        Dipole field          0.0000 Ry au,

        Potential amp.       -0.0041 Ry
        Total length         45.2200 bohr

     End of self-consistent calculation

          k = 0.0000 0.0000 0.0000 ( 33571 PWs)   bands (ev):

   -70.6087 -70.6033 -70.3016 -70.2964 -70.2961 -70.2908 -48.0470 -48.0456
   -48.0234 -48.0224 -47.2730 -47.2488 -40.6341 -40.6187 -40.6158 -40.6149
   -40.6086 -40.5473 -40.3656 -40.3620 -40.3204 -40.3153 -40.3118 -40.3056
   -40.2896 -40.2825 -40.2795 -40.2778 -40.2773 -40.2725 -26.7342 -26.7262
   -26.7212 -26.7131 -26.6981 -26.6928 -26.5856 -26.5766 -26.5713 -26.5600
   -26.5040 -26.5014 -25.9946 -25.9049 -25.8858 -25.8852 -25.8583 -25.7582
    -3.7707  -2.4249  -1.9840  -1.7348  -1.7313  -1.6791  -1.6183  -1.6156
    -1.5868  -1.5187  -1.1889  -1.0513  -0.6196  -0.4091  -0.3826  -0.2774
    -0.2566  -0.2384  -0.2204  -0.1175  -0.0666   0.0032   0.2489   0.5041
     0.5148   0.7165   0.7936   1.1707   1.1952   1.2320   1.4028   1.4995
     1.9739   2.0277   2.6096   2.7158   2.9143   3.1120   3.1527   3.2755
     3.3836   3.5246   3.5973   3.6209   3.6772   3.7974   3.8777   3.9535
     4.1821

[...]

          k = 0.0748-0.0421 0.0000 ( 33489 PWs)   bands (ev):

[...]

          k =-0.0898 0.0315 0.0000 ( 33502 PWs)   bands (ev):

[...]

          k =-0.0898-0.0637 0.0000 ( 33462 PWs)   bands (ev):

   -70.6086 -70.6033 -70.3016 -70.2964 -70.2960 -70.2907 -48.0497 -48.0480
   -48.0251 -48.0237 -47.2767 -47.2499 -40.6288 -40.6191 -40.6125 -40.6069
   -40.6045 -40.5466 -40.3604 -40.3569 -40.3122 -40.3090 -40.3068 -40.3041
   -40.2909 -40.2837 -40.2775 -40.2774 -40.2768 -40.2736 -26.7507 -26.7419
   -26.7337 -26.7077 -26.7026 -26.6872 -26.6167 -26.6020 -26.5845 -26.5741
   -26.5090 -26.5062 -26.0103 -25.9274 -25.9011 -25.8786 -25.8625 -25.7637
    -2.1653  -1.8408  -1.3891  -1.3771  -1.1506  -1.0312  -0.8438  -0.8347
    -0.7363  -0.6422  -0.6380  -0.5907  -0.5296  -0.3384  -0.2264  -0.1804
     0.0481   0.1791   0.2023   0.2301   0.2685   0.3685   0.5530   0.5857
     0.6627   0.7152   0.7779   0.7824   0.8386   1.0477   1.2538   1.3725
     1.4321   1.5138   1.5211   1.6208   1.6712   1.7432   1.8521   1.9230
     2.4013   2.7756   2.8049   3.1650   3.2547   3.2625   3.2901   3.3531
     3.4991

     the Fermi energy is     1.4139 ev

!    total energy              =   -1779.79284440 Ry
     estimated scf accuracy    <       0.00000113 Ry
     smearing contrib. (-TS)   =      -0.06115491 Ry
     internal energy E=F+TS    =   -1779.73168950 Ry

     The total energy is F=E-TS. E is the sum of the following terms:
     one-electron contribution =  -13682.58971410 Ry
     hartree contribution      =    6837.74164762 Ry
     xc contribution           =    -289.65399925 Ry
     ewald contribution        =    5354.77037544 Ry
     electric field correction =       0.00000079 Ry

     convergence has been achieved in  24 iterations

     negative rho (up, down):  1.134E-03 0.000E+00

     Forces acting on atoms (cartesian axes, Ry/au):

     atom    1 type  1   force =     0.00085488    0.00061119   -0.00154789
     atom    2 type  1   force =     0.00086433    0.00060435   -0.00153172
     atom    3 type  2   force =     0.00015616    0.00010761    0.01211714
     atom    4 type  2   force =     0.00013925    0.00009920    0.01209865
     atom    5 type  1   force =    -0.00038408   -0.00026446   -0.00831191
     atom    6 type  1   force =    -0.00037347   -0.00026897   -0.00831443
     atom    7 type  2   force =    -0.00012512   -0.00008420   -0.00410081
     atom    8 type  2   force =    -0.00013073   -0.00007928   -0.00411912
     atom    9 type  1   force =    -0.00024499   -0.00017813    0.00151926
     atom   10 type  1   force =    -0.00023278   -0.00016995    0.00152982
     atom   11 type  2   force =    -0.00026006   -0.00019687    0.00032870
     atom   12 type  2   force =    -0.00026337   -0.00018049    0.00033230

     Total force =     0.021862     Total SCF correction =     0.004116
     SCF correction compared to forces is large: reduce conv_thr to get better values

     Writing output data file ./Sc2Ru2/Sc2Ru2_beef.save/

     General routines

     Parallel routines

   This run was terminated on:   6:36:32  11Jul2022

   JOB DONE.