     Program PWSCF v.6.6 starts on 25Jun2022 at 23: 9:53

     R & G space division:  proc/nbgrp/npool/nimage =      37
     Fft bands division:     nmany     =       1
     Reading input from Sc2Ta2.in
Warning: card &CELL ignored
Warning: card / ignored

     Current dimensions of program PWSCF are:
     Max number of different atomic species (ntypx) = 10
     Max number of k-points (npk) =  40000
     Max angular momentum in pseudopotentials (lmaxx) =  3
     Presently stress not available with electric field and gates

     Message from routine cell_base_init:
     DEPRECATED: use true lattice parameter, not A to a.u. conversion factor
     file Sc.pbe-spn-rrkjus_psl.1.0.0.UPF: wavefunction(s)  3S 3P renormalized
     file Ta.pbe-spfn-rrkjus_psl.1.0.0.UPF: wavefunction(s)  5S 5P renormalized

     IMPORTANT: XC functional enforced from input :
     Exchange-correlation= BEEF-VDW
                           (   1   4  43  14   2   0   0)
     Any further DFT definition will be discarded
     Please, verify this is what you really want

     Subspace diagonalization in iterative solution of the eigenvalue problem:
     a serial algorithm will be used

     bravais-lattice index     =            0
     lattice parameter (alat)  =       1.8897  a.u.
     unit-cell volume          =    5527.8878 (a.u.)^3
     number of atoms/cell      =           12
     number of atomic types    =            2
     number of electrons       =       228.00
     number of Kohn-Sham states=          137
     kinetic-energy cutoff     =      55.1240  Ry
     charge density cutoff     =     551.2396  Ry
     convergence threshold     =      1.0E-05
     mixing beta               =       0.1000
     number of iterations used =           10  plain     mixing
     Exchange-correlation= BEEF-VDW
                           (   1   4  43  14   2   0   0)

     celldm(1)=   1.889726  celldm(2)=   0.000000  celldm(3)=   0.000000
     celldm(4)=   0.000000  celldm(5)=   0.000000  celldm(6)=   0.000000

     crystal axes: (cart. coord. in units of alat)
               a(1) = (   5.745038   0.000000   0.000000 )
               a(2) = (  -2.872519   5.711230   0.000000 )
               a(3) = (   0.000000   0.000000  24.965493 )

     reciprocal axes: (cart. coord. in units 2 pi/alat)
               b(1) = (  0.174063  0.087547 -0.000000 )
               b(2) = (  0.000000  0.175094  0.000000 )
               b(3) = (  0.000000 -0.000000  0.040055 )

     PseudoPot. # 1 for Sc read from file:
     ../pseudo/Sc.pbe-spn-rrkjus_psl.1.0.0.UPF
     MD5 check sum: f739f74c200e509e5c24cbe053202ee5
     Pseudo is Ultrasoft + core correction, Zval = 11.0
     Generated using "atomic" code by A. Dal Corso v.6.2.2
     Using radial grid of 1173 points,  6 beta functions with:
                l(1) =   0
                l(2) =   0
                l(3) =   1
                l(4) =   1
                l(5) =   2
                l(6) =   2
     Q(r) pseudized with 0 coefficients

     PseudoPot. # 2 for Ta read from file:
     ../pseudo/Ta.pbe-spfn-rrkjus_psl.1.0.0.UPF
     MD5 check sum: 39d7d349fe394e56adf8454eb9315fbb
     Pseudo is Ultrasoft + core correction, Zval = 27.0
     Generated using "atomic" code by A. Dal Corso v.6.3
     Using radial grid of 1273 points,  8 beta functions with:
                l(1) =   0
                l(2) =   0
                l(3) =   1
                l(4) =   1
                l(5) =   2
                l(6) =   2
                l(7) =   3
                l(8) =   3
     Q(r) pseudized with 0 coefficients

     atomic species   valence    mass     pseudopotential
        Sc            11.00    44.95591     Sc( 1.00)
        Ta            27.00   180.94788     Ta( 1.00)

     No symmetry found

   Cartesian axes

     site n.     atom                  positions (alat units)
         1           Sc  tau(   1) = (   0.0000000   0.0000000  10.0000000  )
         2           Sc  tau(   2) = (   2.8725191   0.0000000  10.0000000  )
         3           Ta  tau(   3) = (   1.4362595   2.8556149  10.0000000  )
         4           Ta  tau(   4) = (  -1.4362595   2.8556149  10.0000000  )
         5           Sc  tau(   5) = (   2.8725191   1.4447617  12.4827464  )
         6           Sc  tau(   6) = (   0.0000000   1.4447617  12.4827464  )
         7           Ta  tau(   7) = (  -1.4362595   4.3003765  12.4827464  )
         8           Ta  tau(   8) = (   1.4362595   4.3003765  12.4827464  )
         9           Sc  tau(   9) = (  -0.0000994   3.1037620  14.9904022  )
        10           Sc  tau(  10) = (   2.8723909   3.1037811  14.9903996  )
        11           Ta  tau(  11) = (   4.3087859   0.1132187  14.7474590  )
        12           Ta  tau(  12) = (   1.4363330   0.1132057  14.7474532  )

     number of k points=    74  Fermi-Dirac smearing, width (Ry)=  0.0100
                       cart. coord. in units 2pi/alat
        k(    1) = (   0.0000000   0.0000000   0.0000000), wk =   0.0138889
        k(    2) = (   0.0000000   0.0145911   0.0000000), wk =   0.0277778
        k(    3) = (   0.0000000   0.0291823   0.0000000), wk =   0.0277778
        k(    4) = (   0.0000000   0.0437734   0.0000000), wk =   0.0277778
        k(    5) = (   0.0000000   0.0583645   0.0000000), wk =   0.0277778
        k(    6) = (   0.0000000   0.0729557   0.0000000), wk =   0.0277778
        k(    7) = (   0.0000000  -0.0875468   0.0000000), wk =   0.0138889
        k(    8) = (   0.0145053   0.0072956   0.0000000), wk =   0.0277778
        k(    9) = (   0.0145053   0.0218867   0.0000000), wk =   0.0277778
        k(   10) = (   0.0145053   0.0364778   0.0000000), wk =   0.0277778
        k(   11) = (   0.0145053   0.0510690   0.0000000), wk =   0.0277778
        k(   12) = (   0.0145053   0.0656601   0.0000000), wk =   0.0277778
        k(   13) = (   0.0145053   0.0802512   0.0000000), wk =   0.0277778
        k(   14) = (   0.0145053  -0.0802512   0.0000000), wk =   0.0277778
        k(   15) = (   0.0145053  -0.0656601   0.0000000), wk =   0.0277778
        k(   16) = (   0.0145053  -0.0510690   0.0000000), wk =   0.0277778
        k(   17) = (   0.0145053  -0.0364778   0.0000000), wk =   0.0277778
        k(   18) = (   0.0145053  -0.0218867   0.0000000), wk =   0.0277778
        k(   19) = (   0.0145053  -0.0072956   0.0000000), wk =   0.0277778
        k(   20) = (   0.0290105   0.0145911   0.0000000), wk =   0.0277778
        k(   21) = (   0.0290105   0.0291823   0.0000000), wk =   0.0277778
        k(   22) = (   0.0290105   0.0437734   0.0000000), wk =   0.0277778
        k(   23) = (   0.0290105   0.0583645   0.0000000), wk =   0.0277778
        k(   24) = (   0.0290105   0.0729557   0.0000000), wk =   0.0277778
        k(   25) = (   0.0290105   0.0875468   0.0000000), wk =   0.0277778
        k(   26) = (   0.0290105  -0.0729557   0.0000000), wk =   0.0277778
        k(   27) = (   0.0290105  -0.0583645   0.0000000), wk =   0.0277778
        k(   28) = (   0.0290105  -0.0437734   0.0000000), wk =   0.0277778
        k(   29) = (   0.0290105  -0.0291823   0.0000000), wk =   0.0277778
        k(   30) = (   0.0290105  -0.0145911   0.0000000), wk =   0.0277778
        k(   31) = (   0.0290105  -0.0000000   0.0000000), wk =   0.0277778
        k(   32) = (   0.0435158   0.0218867   0.0000000), wk =   0.0277778
        k(   33) = (   0.0435158   0.0364778   0.0000000), wk =   0.0277778
        k(   34) = (   0.0435158   0.0510690   0.0000000), wk =   0.0277778
        k(   35) = (   0.0435158   0.0656601   0.0000000), wk =   0.0277778
        k(   36) = (   0.0435158   0.0802512   0.0000000), wk =   0.0277778
        k(   37) = (   0.0435158   0.0948424   0.0000000), wk =   0.0277778
        k(   38) = (   0.0435158  -0.0656601   0.0000000), wk =   0.0277778
        k(   39) = (   0.0435158  -0.0510690   0.0000000), wk =   0.0277778
        k(   40) = (   0.0435158  -0.0364778   0.0000000), wk =   0.0277778
        k(   41) = (   0.0435158  -0.0218867   0.0000000), wk =   0.0277778
        k(   42) = (   0.0435158  -0.0072956   0.0000000), wk =   0.0277778
        k(   43) = (   0.0435158   0.0072956   0.0000000), wk =   0.0277778
        k(   44) = (   0.0580211   0.0291823   0.0000000), wk =   0.0277778
        k(   45) = (   0.0580211   0.0437734   0.0000000), wk =   0.0277778
        k(   46) = (   0.0580211   0.0583645   0.0000000), wk =   0.0277778
        k(   47) = (   0.0580211   0.0729557   0.0000000), wk =   0.0277778
        k(   48) = (   0.0580211   0.0875468   0.0000000), wk =   0.0277778
        k(   49) = (   0.0580211   0.1021380   0.0000000), wk =   0.0277778
        k(   50) = (   0.0580211  -0.0583645   0.0000000), wk =   0.0277778
        k(   51) = (   0.0580211  -0.0437734   0.0000000), wk =   0.0277778
        k(   52) = (   0.0580211  -0.0291823   0.0000000), wk =   0.0277778
        k(   53) = (   0.0580211  -0.0145911   0.0000000), wk =   0.0277778
        k(   54) = (   0.0580211   0.0000000   0.0000000), wk =   0.0277778
        k(   55) = (   0.0580211   0.0145911   0.0000000), wk =   0.0277778
        k(   56) = (   0.0725264   0.0364778   0.0000000), wk =   0.0277778
        k(   57) = (   0.0725264   0.0510690   0.0000000), wk =   0.0277778
        k(   58) = (   0.0725264   0.0656601   0.0000000), wk =   0.0277778
        k(   59) = (   0.0725264   0.0802512   0.0000000), wk =   0.0277778
        k(   60) = (   0.0725264   0.0948424   0.0000000), wk =   0.0277778
        k(   61) = (   0.0725264   0.1094335   0.0000000), wk =   0.0277778
        k(   62) = (   0.0725264  -0.0510690   0.0000000), wk =   0.0277778
        k(   63) = (   0.0725264  -0.0364778   0.0000000), wk =   0.0277778
        k(   64) = (   0.0725264  -0.0218867   0.0000000), wk =   0.0277778
        k(   65) = (   0.0725264  -0.0072956   0.0000000), wk =   0.0277778
        k(   66) = (   0.0725264   0.0072956   0.0000000), wk =   0.0277778
        k(   67) = (   0.0725264   0.0218867   0.0000000), wk =   0.0277778
        k(   68) = (  -0.0870316  -0.0437734   0.0000000), wk =   0.0138889
        k(   69) = (  -0.0870316  -0.0291823   0.0000000), wk =   0.0277778
        k(   70) = (  -0.0870316  -0.0145911   0.0000000), wk =   0.0277778
        k(   71) = (  -0.0870316   0.0000000   0.0000000), wk =   0.0277778
        k(   72) = (  -0.0870316   0.0145911   0.0000000), wk =   0.0277778
        k(   73) = (  -0.0870316   0.0291823   0.0000000), wk =   0.0277778
        k(   74) = (  -0.0870316  -0.1313202   0.0000000), wk =   0.0138889

     Check: negative core charge=   -0.000001

     Initial potential from superposition of free atoms

     starting charge  227.97957, renormalised to  228.00000

     negative rho (up, down):  3.968E-04 0.000E+00

     %%%%%%%%%%%%%%%%%%%%%%%%%%%%%%%%%%%%%%%%%%%%%%%%%%%%%%%%%%%%%%%%%%%%%%%%
     %                                                                      %
     % You are using vdW-DF, which was implemented by the Thonhauser group. %
     % Please cite the following two papers that made this development      %
     % possible and the two reviews that describe the various versions:     %
     %                                                                      %
     %   T. Thonhauser et al., PRL 115, 136402 (2015).                      %
     %   T. Thonhauser et al., PRB 76, 125112 (2007).                       %
     %   K. Berland et al., Rep. Prog. Phys. 78, 066501 (2015).             %
     %   D.C. Langreth et al., J. Phys.: Condens. Matter 21, 084203 (2009). %
     %                                                                      %
     %                                                                      %
     % If you are calculating the stress with vdW-DF, please also cite:     %
     %                                                                      %
     %   R. Sabatini et al., J. Phys.: Condens. Matter 24, 424209 (2012).   %
     %                                                                      %
     %%%%%%%%%%%%%%%%%%%%%%%%%%%%%%%%%%%%%%%%%%%%%%%%%%%%%%%%%%%%%%%%%%%%%%%%

     Adding external electric field

     Computed dipole along edir(3) :
        Dipole                0.0014 Ry au,          0.0037 Debye
        Dipole field          0.0000 Ry au,

        Potential amp.       -0.0003 Ry
        Total length         45.9985 bohr

     Starting wfcs are  162 randomized atomic wfcs

     Self-consistent Calculation

     iteration #  1     ecut=    55.12 Ry     beta= 0.10
     Davidson diagonalization with overlap
     ethr =  1.00E-02,  avg # of iterations =  2.2

[...]

     total energy              =   -4681.81943886 Ry
     estimated scf accuracy    <       7.04488998 Ry

[...]

     iteration #  7     ecut=    55.12 Ry     beta= 0.10
     Davidson diagonalization with overlap
     c_bands:  1 eigenvalues not converged
     c_bands:  1 eigenvalues not converged
     ethr =  3.83E-05,  avg # of iterations =  8.1

[...]

     iteration # 16     ecut=    55.12 Ry     beta= 0.10
     Davidson diagonalization with overlap
     ethr =  2.91E-08,  avg # of iterations =  2.1

[...]

     total energy              =   -4682.76411084 Ry
     estimated scf accuracy    <       0.00001402 Ry

     iteration # 18     ecut=    55.12 Ry     beta= 0.10
     Davidson diagonalization with overlap
     c_bands:  1 eigenvalues not converged
     ethr =  6.15E-09,  avg # of iterations =  2.2

[...]

     Adding external electric field

     Computed dipole along edir(3) :
        Dipole                0.0627 Ry au,          0.1594 Debye
        Dipole field          0.0001 Ry au,

        Potential amp.       -0.0131 Ry
        Total length         45.9985 bohr

     End of self-consistent calculation

          k = 0.0000 0.0000 0.0000 ( 38207 PWs)   bands (ev):

   -66.6700 -66.6253 -66.5340 -66.4887 -66.3483 -66.3029 -48.1495 -48.1183
   -48.0643 -48.0333 -47.5612 -47.4754 -33.2289 -33.1640 -33.1610 -33.0740
   -33.0158 -32.9826 -32.9259 -32.9033 -32.8431 -32.8210 -32.7365 -32.6292
   -32.5442 -32.5112 -32.4311 -32.4075 -32.3372 -32.2961 -27.0851 -27.0638
   -26.8211 -26.7734 -26.7415 -26.6969 -26.6571 -26.6038 -26.5844 -26.5301
   -26.5179 -26.4530 -26.4326 -26.1610 -26.0902 -26.0624 -25.9880 -25.8822
   -18.3766 -18.3760 -18.3684 -18.3680 -18.3665 -18.3584 -18.3559 -18.3551
   -18.3477 -18.3335 -18.3302 -18.3270 -18.2987 -18.2927 -18.2303 -18.2281
   -18.2115 -18.2107 -18.2095 -18.2092 -18.2076 -18.2040 -18.2010 -18.1954
   -18.1929 -18.1911 -18.1642 -18.1592 -18.0380 -18.0354 -18.0265 -18.0208
   -18.0143 -18.0135 -18.0088 -18.0058 -17.9985 -17.9891 -17.9835 -17.9818
   -17.9816 -17.9783  -4.4794  -3.1186  -1.9236  -1.3953  -1.1373  -1.1203
    -1.0251  -0.9544  -0.6003  -0.5061  -0.4396  -0.1993  -0.1444  -0.0274
     0.0542   0.2921   0.9008   0.9527   1.0823   1.2063   1.5639   1.5992
     1.8889   1.9386   2.0727   2.1113   2.1804   2.3081   2.3676   2.4848
     2.5856   2.6142   2.7484   2.9090   3.2571   3.3298   3.4751   3.5958
     3.7301   3.7361   3.7647   3.7752   3.8041   3.9840   3.9911   4.0593
     4.3879

[...]

          k = 0.0725 0.0219 0.0000 ( 38248 PWs)   bands (ev):

[...]

          k =-0.0870-0.0438 0.0000 ( 38260 PWs)   bands (ev):

[...]

          k =-0.0870-0.1313 0.0000 ( 38260 PWs)   bands (ev):

   -66.6477 -66.6477 -66.5114 -66.5114 -66.3257 -66.3256 -48.1072 -48.1072
   -48.0761 -48.0761 -47.5186 -47.5185 -33.1183 -33.1183 -32.9437 -32.9437
   -32.8832 -32.8832 -32.8782 -32.8782 -32.8048 -32.8046 -32.7777 -32.7777
   -32.6647 -32.6646 -32.5862 -32.5862 -32.3724 -32.3723 -26.7837 -26.7837
   -26.7764 -26.7764 -26.7556 -26.7556 -26.7342 -26.7342 -26.6244 -26.6244
   -26.5701 -26.5701 -26.2075 -26.2075 -26.1255 -26.1255 -26.0280 -26.0279
   -18.3712 -18.3712 -18.3672 -18.3672 -18.3663 -18.3663 -18.3518 -18.3518
   -18.3460 -18.3459 -18.3142 -18.3142 -18.3132 -18.3132 -18.2195 -18.2195
   -18.2170 -18.2170 -18.2083 -18.2083 -18.2053 -18.2053 -18.2003 -18.2003
   -18.1806 -18.1805 -18.1791 -18.1790 -18.0220 -18.0219 -18.0209 -18.0209
   -18.0133 -18.0133 -18.0125 -18.0125 -18.0085 -18.0084 -17.9829 -17.9828
   -17.9806 -17.9805  -2.7593  -2.7593  -1.5420  -1.5420  -0.7212  -0.7212
    -0.3417  -0.3417  -0.1977  -0.1977   0.2958   0.2958   0.6791   0.6791
     0.8466   0.8467   0.9611   0.9612   1.0834   1.0835   1.3109   1.3109
     1.4263   1.4263   1.6325   1.6325   1.7822   1.7822   1.9999   1.9999
     2.3030   2.3030   2.4757   2.4757   2.5660   2.5661   2.8248   2.8248
     3.3521   3.3522   3.6423   3.6425   3.7748   3.7752   3.9424   3.9452
     4.0709

     the Fermi energy is     1.6261 ev

!    total energy              =   -4682.76411300 Ry
     estimated scf accuracy    <       0.00000237 Ry
     smearing contrib. (-TS)   =      -0.08939062 Ry
     internal energy E=F+TS    =   -4682.67472238 Ry

     The total energy is F=E-TS. E is the sum of the following terms:
     one-electron contribution =  -26428.43816461 Ry
     hartree contribution      =   13305.88247073 Ry
     xc contribution           =    -522.60689856 Ry
     ewald contribution        =    8962.48786112 Ry
     electric field correction =       0.00000894 Ry

     convergence has been achieved in  18 iterations

     negative rho (up, down):  3.848E-04 0.000E+00

     Forces acting on atoms (cartesian axes, Ry/au):

     atom    1 type  1   force =    -0.00000176   -0.01495022   -0.01108279
     atom    2 type  1   force =     0.00000049   -0.01495083   -0.01108795
     atom    3 type  2   force =     0.00001030    0.00822985    0.03836114
     atom    4 type  2   force =    -0.00001991    0.00824065    0.03833692
     atom    5 type  1   force =    -0.00000400    0.01235982   -0.00576600
     atom    6 type  1   force =     0.00001015    0.01236501   -0.00577349
     atom    7 type  2   force =    -0.00003249   -0.00701661   -0.01661489
     atom    8 type  2   force =     0.00003654   -0.00701061   -0.01664591
     atom    9 type  1   force =     0.00000699    0.00237102   -0.00242959
     atom   10 type  1   force =     0.00001391    0.00236777   -0.00241670
     atom   11 type  2   force =    -0.00001216   -0.00098553   -0.00244264
     atom   12 type  2   force =    -0.00000805   -0.00102033   -0.00243809

     Total force =     0.069501     Total SCF correction =     0.008496
     SCF correction compared to forces is large: reduce conv_thr to get better values

     Writing output data file ./Sc2Ta2/Sc2Ta2_beef.save/

     General routines

     Parallel routines

   This run was terminated on:   2:12:36  26Jun2022

   JOB DONE.