     Program PWSCF v.6.6 starts on 24Jun2022 at 20: 0:44

     R & G space division:  proc/nbgrp/npool/nimage =      37
     Fft bands division:     nmany     =       1
     Reading input from Sc2Tc2.in
Warning: card &CELL ignored
Warning: card / ignored

     Current dimensions of program PWSCF are:
     Max number of different atomic species (ntypx) = 10
     Max number of k-points (npk) =  40000
     Max angular momentum in pseudopotentials (lmaxx) =  3
     Presently stress not available with electric field and gates

     Message from routine cell_base_init:
     DEPRECATED: use true lattice parameter, not A to a.u. conversion factor
     file Sc.pbe-spn-rrkjus_psl.1.0.0.UPF: wavefunction(s)  3S 3P renormalized
     file Tc.pbe-spn-rrkjus_psl.0.3.0.UPF: wavefunction(s)  4S 4P renormalized

     IMPORTANT: XC functional enforced from input :
     Exchange-correlation= BEEF-VDW
                           (   1   4  43  14   2   0   0)
     Any further DFT definition will be discarded
     Please, verify this is what you really want

     Subspace diagonalization in iterative solution of the eigenvalue problem:
     a serial algorithm will be used

     bravais-lattice index     =            0
     lattice parameter (alat)  =       1.8897  a.u.
     unit-cell volume          =    4913.1036 (a.u.)^3
     number of atoms/cell      =           12
     number of atomic types    =            2
     number of electrons       =       156.00
     number of Kohn-Sham states=           94
     kinetic-energy cutoff     =      55.1240  Ry
     charge density cutoff     =     551.2396  Ry
     convergence threshold     =      1.0E-05
     mixing beta               =       0.1000
     number of iterations used =           10  plain     mixing
     Exchange-correlation= BEEF-VDW
                           (   1   4  43  14   2   0   0)

     celldm(1)=   1.889726  celldm(2)=   0.000000  celldm(3)=   0.000000
     celldm(4)=   0.000000  celldm(5)=   0.000000  celldm(6)=   0.000000

     crystal axes: (cart. coord. in units of alat)
               a(1) = (   5.593993   0.000000   0.000000 )
               a(2) = (   1.777930   5.303934   0.000000 )
               a(3) = (   0.000000   0.000000  24.538012 )

     reciprocal axes: (cart. coord. in units 2 pi/alat)
               b(1) = (  0.178763 -0.059923  0.000000 )
               b(2) = (  0.000000  0.188539  0.000000 )
               b(3) = (  0.000000  0.000000  0.040753 )

     PseudoPot. # 1 for Sc read from file:
     ../pseudo/Sc.pbe-spn-rrkjus_psl.1.0.0.UPF
     MD5 check sum: f739f74c200e509e5c24cbe053202ee5
     Pseudo is Ultrasoft + core correction, Zval = 11.0
     Generated using "atomic" code by A. Dal Corso v.6.2.2
     Using radial grid of 1173 points,  6 beta functions with:
                l(1) =   0
                l(2) =   0
                l(3) =   1
                l(4) =   1
                l(5) =   2
                l(6) =   2
     Q(r) pseudized with 0 coefficients

     PseudoPot. # 2 for Tc read from file:
     ../pseudo/Tc.pbe-spn-rrkjus_psl.0.3.0.UPF
     MD5 check sum: 5f147c0bf103030af994b79b1f5562e4
     Pseudo is Ultrasoft + core correction, Zval = 15.0
     Generated using "atomic" code by A. Dal Corso v.6.2.2
     Using radial grid of 1231 points,  6 beta functions with:
                l(1) =   0
                l(2) =   0
                l(3) =   1
                l(4) =   1
                l(5) =   2
                l(6) =   2
     Q(r) pseudized with 0 coefficients

     atomic species   valence    mass     pseudopotential
        Sc            11.00    44.95591     Sc( 1.00)
        Tc            15.00    97.90721     Tc( 1.00)

     No symmetry found

   Cartesian axes

     site n.     atom                  positions (alat units)
         1           Sc  tau(   1) = (   0.0000000   0.0000000  10.0000000  )
         2           Sc  tau(   2) = (   3.6859617   2.6519672  10.0000000  )
         3           Tc  tau(   3) = (   2.7969965   0.0000000  10.0000000  )
         4           Tc  tau(   4) = (   0.8889652   2.6519672  10.0000000  )
         5           Sc  tau(   5) = (   5.5939930   4.0247532  12.2690061  )
         6           Sc  tau(   6) = (   1.9080313   1.3727859  12.2690061  )
         7           Tc  tau(   7) = (   2.7969965   4.0247532  12.2690061  )
         8           Tc  tau(   8) = (   4.7050277   1.3727859  12.2690061  )
         9           Sc  tau(   9) = (   3.7506261   2.6986118  14.5711078  )
        10           Sc  tau(  10) = (   0.0647729   0.0464846  14.5711166  )
        11           Tc  tau(  11) = (   0.9580628   2.7016754  14.4681622  )
        12           Tc  tau(  12) = (   2.8661577   0.0497675  14.4682717  )

     number of k points=    74  Fermi-Dirac smearing, width (Ry)=  0.0100
                       cart. coord. in units 2pi/alat
        k(    1) = (   0.0000000   0.0000000   0.0000000), wk =   0.0138889
        k(    2) = (   0.0000000   0.0157116   0.0000000), wk =   0.0277778
        k(    3) = (   0.0000000   0.0314232   0.0000000), wk =   0.0277778
        k(    4) = (   0.0000000   0.0471348   0.0000000), wk =   0.0277778
        k(    5) = (   0.0000000   0.0628464   0.0000000), wk =   0.0277778
        k(    6) = (   0.0000000   0.0785580   0.0000000), wk =   0.0277778
        k(    7) = (   0.0000000  -0.0942696   0.0000000), wk =   0.0138889
        k(    8) = (   0.0148969  -0.0049936   0.0000000), wk =   0.0277778
        k(    9) = (   0.0148969   0.0107180   0.0000000), wk =   0.0277778
        k(   10) = (   0.0148969   0.0264296   0.0000000), wk =   0.0277778
        k(   11) = (   0.0148969   0.0421412   0.0000000), wk =   0.0277778
        k(   12) = (   0.0148969   0.0578528   0.0000000), wk =   0.0277778
        k(   13) = (   0.0148969   0.0735644   0.0000000), wk =   0.0277778
        k(   14) = (   0.0148969  -0.0992632   0.0000000), wk =   0.0277778
        k(   15) = (   0.0148969  -0.0835516   0.0000000), wk =   0.0277778
        k(   16) = (   0.0148969  -0.0678400   0.0000000), wk =   0.0277778
        k(   17) = (   0.0148969  -0.0521284   0.0000000), wk =   0.0277778
        k(   18) = (   0.0148969  -0.0364168   0.0000000), wk =   0.0277778
        k(   19) = (   0.0148969  -0.0207052   0.0000000), wk =   0.0277778
        k(   20) = (   0.0297939  -0.0099872   0.0000000), wk =   0.0277778
        k(   21) = (   0.0297939   0.0057244   0.0000000), wk =   0.0277778
        k(   22) = (   0.0297939   0.0214360   0.0000000), wk =   0.0277778
        k(   23) = (   0.0297939   0.0371476   0.0000000), wk =   0.0277778
        k(   24) = (   0.0297939   0.0528592   0.0000000), wk =   0.0277778
        k(   25) = (   0.0297939   0.0685708   0.0000000), wk =   0.0277778
        k(   26) = (   0.0297939  -0.1042568   0.0000000), wk =   0.0277778
        k(   27) = (   0.0297939  -0.0885452   0.0000000), wk =   0.0277778
        k(   28) = (   0.0297939  -0.0728336   0.0000000), wk =   0.0277778
        k(   29) = (   0.0297939  -0.0571220   0.0000000), wk =   0.0277778
        k(   30) = (   0.0297939  -0.0414104   0.0000000), wk =   0.0277778
        k(   31) = (   0.0297939  -0.0256988   0.0000000), wk =   0.0277778
        k(   32) = (   0.0446908  -0.0149808   0.0000000), wk =   0.0277778
        k(   33) = (   0.0446908   0.0007308   0.0000000), wk =   0.0277778
        k(   34) = (   0.0446908   0.0164424   0.0000000), wk =   0.0277778
        k(   35) = (   0.0446908   0.0321540   0.0000000), wk =   0.0277778
        k(   36) = (   0.0446908   0.0478656   0.0000000), wk =   0.0277778
        k(   37) = (   0.0446908   0.0635773   0.0000000), wk =   0.0277778
        k(   38) = (   0.0446908  -0.1092504   0.0000000), wk =   0.0277778
        k(   39) = (   0.0446908  -0.0935388   0.0000000), wk =   0.0277778
        k(   40) = (   0.0446908  -0.0778272   0.0000000), wk =   0.0277778
        k(   41) = (   0.0446908  -0.0621156   0.0000000), wk =   0.0277778
        k(   42) = (   0.0446908  -0.0464040   0.0000000), wk =   0.0277778
        k(   43) = (   0.0446908  -0.0306924   0.0000000), wk =   0.0277778
        k(   44) = (   0.0595877  -0.0199744   0.0000000), wk =   0.0277778
        k(   45) = (   0.0595877  -0.0042628   0.0000000), wk =   0.0277778
        k(   46) = (   0.0595877   0.0114488   0.0000000), wk =   0.0277778
        k(   47) = (   0.0595877   0.0271604   0.0000000), wk =   0.0277778
        k(   48) = (   0.0595877   0.0428721   0.0000000), wk =   0.0277778
        k(   49) = (   0.0595877   0.0585837   0.0000000), wk =   0.0277778
        k(   50) = (   0.0595877  -0.1142440   0.0000000), wk =   0.0277778
        k(   51) = (   0.0595877  -0.0985324   0.0000000), wk =   0.0277778
        k(   52) = (   0.0595877  -0.0828208   0.0000000), wk =   0.0277778
        k(   53) = (   0.0595877  -0.0671092   0.0000000), wk =   0.0277778
        k(   54) = (   0.0595877  -0.0513976   0.0000000), wk =   0.0277778
        k(   55) = (   0.0595877  -0.0356860   0.0000000), wk =   0.0277778
        k(   56) = (   0.0744847  -0.0249680   0.0000000), wk =   0.0277778
        k(   57) = (   0.0744847  -0.0092564   0.0000000), wk =   0.0277778
        k(   58) = (   0.0744847   0.0064552   0.0000000), wk =   0.0277778
        k(   59) = (   0.0744847   0.0221668   0.0000000), wk =   0.0277778
        k(   60) = (   0.0744847   0.0378785   0.0000000), wk =   0.0277778
        k(   61) = (   0.0744847   0.0535901   0.0000000), wk =   0.0277778
        k(   62) = (   0.0744847  -0.1192376   0.0000000), wk =   0.0277778
        k(   63) = (   0.0744847  -0.1035260   0.0000000), wk =   0.0277778
        k(   64) = (   0.0744847  -0.0878144   0.0000000), wk =   0.0277778
        k(   65) = (   0.0744847  -0.0721028   0.0000000), wk =   0.0277778
        k(   66) = (   0.0744847  -0.0563912   0.0000000), wk =   0.0277778
        k(   67) = (   0.0744847  -0.0406796   0.0000000), wk =   0.0277778
        k(   68) = (  -0.0893816   0.0299616   0.0000000), wk =   0.0138889
        k(   69) = (  -0.0893816   0.0456732   0.0000000), wk =   0.0277778
        k(   70) = (  -0.0893816   0.0613848   0.0000000), wk =   0.0277778
        k(   71) = (  -0.0893816   0.0770964   0.0000000), wk =   0.0277778
        k(   72) = (  -0.0893816   0.0928080   0.0000000), wk =   0.0277778
        k(   73) = (  -0.0893816   0.1085196   0.0000000), wk =   0.0277778
        k(   74) = (  -0.0893816  -0.0643081   0.0000000), wk =   0.0138889

     Check: negative core charge=   -0.000002

     Initial potential from superposition of free atoms

     starting charge  155.98084, renormalised to  156.00000

     negative rho (up, down):  6.034E-03 0.000E+00

     %%%%%%%%%%%%%%%%%%%%%%%%%%%%%%%%%%%%%%%%%%%%%%%%%%%%%%%%%%%%%%%%%%%%%%%%
     %                                                                      %
     % You are using vdW-DF, which was implemented by the Thonhauser group. %
     % Please cite the following two papers that made this development      %
     % possible and the two reviews that describe the various versions:     %
     %                                                                      %
     %   T. Thonhauser et al., PRL 115, 136402 (2015).                      %
     %   T. Thonhauser et al., PRB 76, 125112 (2007).                       %
     %   K. Berland et al., Rep. Prog. Phys. 78, 066501 (2015).             %
     %   D.C. Langreth et al., J. Phys.: Condens. Matter 21, 084203 (2009). %
     %                                                                      %
     %                                                                      %
     % If you are calculating the stress with vdW-DF, please also cite:     %
     %                                                                      %
     %   R. Sabatini et al., J. Phys.: Condens. Matter 24, 424209 (2012).   %
     %                                                                      %
     %%%%%%%%%%%%%%%%%%%%%%%%%%%%%%%%%%%%%%%%%%%%%%%%%%%%%%%%%%%%%%%%%%%%%%%%

     Adding external electric field

     Computed dipole along edir(3) :
        Dipole                0.0005 Ry au,          0.0012 Debye
        Dipole field          0.0000 Ry au,

        Potential amp.       -0.0001 Ry
        Total length         45.2109 bohr

     Starting wfcs are  138 randomized atomic wfcs

     Self-consistent Calculation

     iteration #  1     ecut=    55.12 Ry     beta= 0.10
     Davidson diagonalization with overlap
     ethr =  1.00E-02,  avg # of iterations =  2.0

[...]

     total energy              =   -1678.33700784 Ry
     estimated scf accuracy    <       7.50791221 Ry

[...]

     iteration #  9     ecut=    55.12 Ry     beta= 0.10
     Davidson diagonalization with overlap
     c_bands:  1 eigenvalues not converged
     c_bands:  2 eigenvalues not converged
     c_bands:  4 eigenvalues not converged
     c_bands:  5 eigenvalues not converged
     c_bands:  1 eigenvalues not converged
     c_bands:  2 eigenvalues not converged
     c_bands:  2 eigenvalues not converged
     c_bands:  2 eigenvalues not converged
     c_bands:  4 eigenvalues not converged
     c_bands:  3 eigenvalues not converged
     c_bands:  1 eigenvalues not converged
     c_bands:  2 eigenvalues not converged
     c_bands:  1 eigenvalues not converged
     c_bands:  2 eigenvalues not converged
     c_bands:  1 eigenvalues not converged
     c_bands:  3 eigenvalues not converged
     c_bands:  4 eigenvalues not converged
     c_bands:  3 eigenvalues not converged
     c_bands:  4 eigenvalues not converged
     c_bands:  4 eigenvalues not converged
     c_bands:  4 eigenvalues not converged
     c_bands:  4 eigenvalues not converged
     c_bands:  2 eigenvalues not converged
     c_bands:  4 eigenvalues not converged
     c_bands:  3 eigenvalues not converged
     c_bands:  5 eigenvalues not converged
     c_bands:  2 eigenvalues not converged
     c_bands:  4 eigenvalues not converged
     c_bands:  3 eigenvalues not converged
     c_bands:  1 eigenvalues not converged
     c_bands:  2 eigenvalues not converged
     c_bands:  2 eigenvalues not converged
     c_bands:  2 eigenvalues not converged
     c_bands:  3 eigenvalues not converged
     c_bands:  1 eigenvalues not converged
     c_bands:  4 eigenvalues not converged
     c_bands:  3 eigenvalues not converged
     c_bands:  1 eigenvalues not converged
     c_bands:  1 eigenvalues not converged
     c_bands:  1 eigenvalues not converged
     c_bands:  1 eigenvalues not converged
     c_bands:  3 eigenvalues not converged
     c_bands:  5 eigenvalues not converged
     c_bands:  3 eigenvalues not converged
     c_bands:  2 eigenvalues not converged
     c_bands:  2 eigenvalues not converged
     c_bands:  1 eigenvalues not converged
     c_bands:  2 eigenvalues not converged
     c_bands:  4 eigenvalues not converged
     c_bands:  1 eigenvalues not converged
     c_bands:  5 eigenvalues not converged
     c_bands:  4 eigenvalues not converged
     c_bands:  2 eigenvalues not converged
     ethr =  1.82E-05,  avg # of iterations = 22.5

[...]

     iteration # 28     ecut=    55.12 Ry     beta= 0.10
     Davidson diagonalization with overlap
     ethr =  6.92E-08,  avg # of iterations =  3.9

[...]

     total energy              =   -1678.87221374 Ry
     estimated scf accuracy    <       0.00001008 Ry

     iteration # 31     ecut=    55.12 Ry     beta= 0.10
     Davidson diagonalization with overlap
     c_bands:  1 eigenvalues not converged
     ethr =  6.46E-09,  avg # of iterations =  6.9

[...]

     Adding external electric field

     Computed dipole along edir(3) :
        Dipole                0.0231 Ry au,          0.0587 Debye
        Dipole field          0.0001 Ry au,

        Potential amp.       -0.0053 Ry
        Total length         45.2109 bohr

     End of self-consistent calculation

          k = 0.0000 0.0000 0.0000 ( 34047 PWs)   bands (ev):

   -64.8509 -64.8432 -64.6427 -64.6373 -64.6355 -64.6300 -47.8313 -47.8115
   -47.7554 -47.7355 -46.9678 -46.9475 -36.8366 -36.8297 -36.8103 -36.8079
   -36.7999 -36.6832 -36.6771 -36.6718 -36.6288 -36.6197 -36.6168 -36.5991
   -36.5724 -36.5608 -36.5600 -36.5587 -36.5563 -36.5451 -26.5206 -26.5116
   -26.4926 -26.4471 -26.4367 -26.4186 -26.3760 -26.3656 -26.3223 -26.3065
   -26.2963 -26.2492 -25.6834 -25.6162 -25.6066 -25.5970 -25.5911 -25.4781
    -3.6571  -2.3495  -1.7850  -1.5105  -1.5103  -1.4662  -1.4289  -1.3642
    -1.3582  -1.2604  -0.9927  -0.8058  -0.3427  -0.0181  -0.0006   0.0446
     0.0458   0.0480   0.1755   0.2173   0.2635   0.3685   0.5783   0.7661
     0.8124   1.1573   1.1760   1.4581   1.6526   1.7509   1.7624   2.0491
     2.2065   2.5838   2.6865   2.7580   3.3899   3.5130   3.5951   3.6053
     3.6565   3.7098   3.7586   3.9928   4.1242   4.2171

[...]

          k = 0.0745-0.0407 0.0000 ( 33927 PWs)   bands (ev):

[...]

          k =-0.0894 0.0300 0.0000 ( 33892 PWs)   bands (ev):

[...]

          k =-0.0894-0.0643 0.0000 ( 33886 PWs)   bands (ev):

   -64.8506 -64.8435 -64.6427 -64.6373 -64.6354 -64.6299 -47.8334 -47.8126
   -47.7575 -47.7367 -46.9708 -46.9482 -36.8353 -36.8256 -36.8036 -36.7920
   -36.7920 -36.6810 -36.6687 -36.6631 -36.6335 -36.6233 -36.6076 -36.6058
   -36.5606 -36.5580 -36.5557 -36.5541 -36.5477 -36.5425 -26.5429 -26.5168
   -26.4936 -26.4697 -26.4388 -26.4179 -26.4124 -26.3862 -26.3426 -26.3293
   -26.3168 -26.2563 -25.7052 -25.6375 -25.6155 -25.6092 -25.5965 -25.4856
    -1.9780  -1.7089  -1.2193  -1.1946  -0.8131  -0.7227  -0.6380  -0.6085
    -0.3800  -0.3403  -0.3021  -0.3004  -0.2786  -0.0593   0.0125   0.1109
     0.2247   0.5327   0.5426   0.5637   0.7232   0.7280   0.8794   0.9633
     1.1158   1.1329   1.1723   1.1952   1.3068   1.5407   1.6016   1.6504
     1.7651   1.7776   1.8206   1.8296   1.9800   2.0962   2.1561   2.2590
     2.5320   2.9660   3.4394   3.4424   3.5755   3.7440

     the Fermi energy is     1.4178 ev

!    total energy              =   -1678.87221710 Ry
     estimated scf accuracy    <       0.00000050 Ry
     smearing contrib. (-TS)   =      -0.07896794 Ry
     internal energy E=F+TS    =   -1678.79324916 Ry

     The total energy is F=E-TS. E is the sum of the following terms:
     one-electron contribution =  -12405.35121202 Ry
     hartree contribution      =    6200.12616661 Ry
     xc contribution           =    -346.53692253 Ry
     ewald contribution        =    4872.96871742 Ry
     electric field correction =       0.00000136 Ry

     convergence has been achieved in  31 iterations

     negative rho (up, down):  5.654E-03 0.000E+00

     Forces acting on atoms (cartesian axes, Ry/au):

     atom    1 type  1   force =     0.00396679    0.00285405   -0.00864521
     atom    2 type  1   force =     0.00396764    0.00285081   -0.00864972
     atom    3 type  2   force =     0.00033789    0.00024460    0.00980191
     atom    4 type  2   force =     0.00033346    0.00024413    0.00979742
     atom    5 type  1   force =    -0.00464017   -0.00334513   -0.00737271
     atom    6 type  1   force =    -0.00465088   -0.00333875   -0.00737443
     atom    7 type  2   force =     0.00032391    0.00023970    0.00371376
     atom    8 type  2   force =     0.00033775    0.00024100    0.00372961
     atom    9 type  1   force =     0.00028864    0.00017391    0.00064350
     atom   10 type  1   force =     0.00026616    0.00021873    0.00063597
     atom   11 type  2   force =    -0.00026640   -0.00018919    0.00186738
     atom   12 type  2   force =    -0.00026479   -0.00019387    0.00185250

     Total force =     0.024499     Total SCF correction =     0.001650

     Writing output data file ./Sc2Tc2/Sc2Tc2_beef.save/

     General routines

     Parallel routines

   This run was terminated on:  22:20: 0  24Jun2022

   JOB DONE.