     Program PWSCF v.6.6 starts on 24Jun2022 at 18:23:56

     R & G space division:  proc/nbgrp/npool/nimage =      37
     Fft bands division:     nmany     =       1
     Reading input from Sc2V2.in
Warning: card &CELL ignored
Warning: card / ignored

     Current dimensions of program PWSCF are:
     Max number of different atomic species (ntypx) = 10
     Max number of k-points (npk) =  40000
     Max angular momentum in pseudopotentials (lmaxx) =  3
     Presently stress not available with electric field and gates

     Message from routine cell_base_init:
     DEPRECATED: use true lattice parameter, not A to a.u. conversion factor
     file Sc.pbe-spn-rrkjus_psl.1.0.0.UPF: wavefunction(s)  3S 3P renormalized
     file V.pbe-spnl-rrkjus_psl.1.0.0.UPF: wavefunction(s)  3P 3D renormalized

     IMPORTANT: XC functional enforced from input :
     Exchange-correlation= BEEF-VDW
                           (   1   4  43  14   2   0   0)
     Any further DFT definition will be discarded
     Please, verify this is what you really want

     Subspace diagonalization in iterative solution of the eigenvalue problem:
     a serial algorithm will be used

     bravais-lattice index     =            0
     lattice parameter (alat)  =       1.8897  a.u.
     unit-cell volume          =    4996.5335 (a.u.)^3
     number of atoms/cell      =           12
     number of atomic types    =            2
     number of electrons       =       144.00
     number of Kohn-Sham states=           86
     kinetic-energy cutoff     =      55.1240  Ry
     charge density cutoff     =     551.2396  Ry
     convergence threshold     =      1.0E-05
     mixing beta               =       0.1000
     number of iterations used =           10  plain     mixing
     Exchange-correlation= BEEF-VDW
                           (   1   4  43  14   2   0   0)

     celldm(1)=   1.889726  celldm(2)=   0.000000  celldm(3)=   0.000000
     celldm(4)=   0.000000  celldm(5)=   0.000000  celldm(6)=   0.000000

     crystal axes: (cart. coord. in units of alat)
               a(1) = (   5.573666   0.000000   0.000000 )
               a(2) = (  -2.786833   5.364578   0.000000 )
               a(3) = (   0.000000   0.000000  24.762574 )

     reciprocal axes: (cart. coord. in units 2 pi/alat)
               b(1) = (  0.179415  0.093204 -0.000000 )
               b(2) = (  0.000000  0.186408  0.000000 )
               b(3) = (  0.000000 -0.000000  0.040384 )

     PseudoPot. # 1 for Sc read from file:
     ../pseudo/Sc.pbe-spn-rrkjus_psl.1.0.0.UPF
     MD5 check sum: f739f74c200e509e5c24cbe053202ee5
     Pseudo is Ultrasoft + core correction, Zval = 11.0
     Generated using "atomic" code by A. Dal Corso v.6.2.2
     Using radial grid of 1173 points,  6 beta functions with:
                l(1) =   0
                l(2) =   0
                l(3) =   1
                l(4) =   1
                l(5) =   2
                l(6) =   2
     Q(r) pseudized with 0 coefficients

     PseudoPot. # 2 for V  read from file:
     ../pseudo/V.pbe-spnl-rrkjus_psl.1.0.0.UPF
     MD5 check sum: 79b3eb63147daf0b665d9f1bcc691206
     Pseudo is Ultrasoft + core correction, Zval = 13.0
     Generated using "atomic" code by A. Dal Corso v.6.2.2
     Using radial grid of 1181 points,  6 beta functions with:
                l(1) =   0
                l(2) =   0
                l(3) =   1
                l(4) =   1
                l(5) =   2
                l(6) =   2
     Q(r) pseudized with 0 coefficients

     atomic species   valence    mass     pseudopotential
        Sc            11.00    44.95591     Sc( 1.00)
        V             13.00    50.94150     V ( 1.00)

     No symmetry found

   Cartesian axes

     site n.     atom                  positions (alat units)
         1           Sc  tau(   1) = (   0.0000000   0.0000000  10.0000000  )
         2           Sc  tau(   2) = (   2.7868328   0.0000000  10.0000000  )
         3           V   tau(   3) = (   1.3934164   2.6822890  10.0000000  )
         4           V   tau(   4) = (  -1.3934164   2.6822890  10.0000000  )
         5           Sc  tau(   5) = (   2.7868328   1.4477256  12.3812869  )
         6           Sc  tau(   6) = (  -0.0000000   1.4477256  12.3812869  )
         7           V   tau(   7) = (  -1.3934164   4.1300146  12.3812869  )
         8           V   tau(   8) = (   1.3934164   4.1300146  12.3812869  )
         9           Sc  tau(   9) = (   0.0000959   2.9559023  14.8760745  )
        10           Sc  tau(  10) = (   2.7867332   2.9559129  14.8760701  )
        11           V   tau(  11) = (   4.1802443   0.0430289  14.4180347  )
        12           V   tau(  12) = (   1.3934165   0.0431552  14.4181939  )

     number of k points=    74  Fermi-Dirac smearing, width (Ry)=  0.0100
                       cart. coord. in units 2pi/alat
        k(    1) = (   0.0000000   0.0000000   0.0000000), wk =   0.0138889
        k(    2) = (   0.0000000   0.0155340   0.0000000), wk =   0.0277778
        k(    3) = (   0.0000000   0.0310680   0.0000000), wk =   0.0277778
        k(    4) = (   0.0000000   0.0466020   0.0000000), wk =   0.0277778
        k(    5) = (   0.0000000   0.0621360   0.0000000), wk =   0.0277778
        k(    6) = (   0.0000000   0.0776700   0.0000000), wk =   0.0277778
        k(    7) = (   0.0000000  -0.0932040   0.0000000), wk =   0.0138889
        k(    8) = (   0.0149513   0.0077670   0.0000000), wk =   0.0277778
        k(    9) = (   0.0149513   0.0233010   0.0000000), wk =   0.0277778
        k(   10) = (   0.0149513   0.0388350   0.0000000), wk =   0.0277778
        k(   11) = (   0.0149513   0.0543690   0.0000000), wk =   0.0277778
        k(   12) = (   0.0149513   0.0699030   0.0000000), wk =   0.0277778
        k(   13) = (   0.0149513   0.0854370   0.0000000), wk =   0.0277778
        k(   14) = (   0.0149513  -0.0854370   0.0000000), wk =   0.0277778
        k(   15) = (   0.0149513  -0.0699030   0.0000000), wk =   0.0277778
        k(   16) = (   0.0149513  -0.0543690   0.0000000), wk =   0.0277778
        k(   17) = (   0.0149513  -0.0388350   0.0000000), wk =   0.0277778
        k(   18) = (   0.0149513  -0.0233010   0.0000000), wk =   0.0277778
        k(   19) = (   0.0149513  -0.0077670   0.0000000), wk =   0.0277778
        k(   20) = (   0.0299025   0.0155340   0.0000000), wk =   0.0277778
        k(   21) = (   0.0299025   0.0310680   0.0000000), wk =   0.0277778
        k(   22) = (   0.0299025   0.0466020   0.0000000), wk =   0.0277778
        k(   23) = (   0.0299025   0.0621360   0.0000000), wk =   0.0277778
        k(   24) = (   0.0299025   0.0776700   0.0000000), wk =   0.0277778
        k(   25) = (   0.0299025   0.0932040   0.0000000), wk =   0.0277778
        k(   26) = (   0.0299025  -0.0776700   0.0000000), wk =   0.0277778
        k(   27) = (   0.0299025  -0.0621360   0.0000000), wk =   0.0277778
        k(   28) = (   0.0299025  -0.0466020   0.0000000), wk =   0.0277778
        k(   29) = (   0.0299025  -0.0310680   0.0000000), wk =   0.0277778
        k(   30) = (   0.0299025  -0.0155340   0.0000000), wk =   0.0277778
        k(   31) = (   0.0299025  -0.0000000   0.0000000), wk =   0.0277778
        k(   32) = (   0.0448538   0.0233010   0.0000000), wk =   0.0277778
        k(   33) = (   0.0448538   0.0388350   0.0000000), wk =   0.0277778
        k(   34) = (   0.0448538   0.0543690   0.0000000), wk =   0.0277778
        k(   35) = (   0.0448538   0.0699030   0.0000000), wk =   0.0277778
        k(   36) = (   0.0448538   0.0854370   0.0000000), wk =   0.0277778
        k(   37) = (   0.0448538   0.1009710   0.0000000), wk =   0.0277778
        k(   38) = (   0.0448538  -0.0699030   0.0000000), wk =   0.0277778
        k(   39) = (   0.0448538  -0.0543690   0.0000000), wk =   0.0277778
        k(   40) = (   0.0448538  -0.0388350   0.0000000), wk =   0.0277778
        k(   41) = (   0.0448538  -0.0233010   0.0000000), wk =   0.0277778
        k(   42) = (   0.0448538  -0.0077670   0.0000000), wk =   0.0277778
        k(   43) = (   0.0448538   0.0077670   0.0000000), wk =   0.0277778
        k(   44) = (   0.0598050   0.0310680   0.0000000), wk =   0.0277778
        k(   45) = (   0.0598050   0.0466020   0.0000000), wk =   0.0277778
        k(   46) = (   0.0598050   0.0621360   0.0000000), wk =   0.0277778
        k(   47) = (   0.0598050   0.0776700   0.0000000), wk =   0.0277778
        k(   48) = (   0.0598050   0.0932040   0.0000000), wk =   0.0277778
        k(   49) = (   0.0598050   0.1087380   0.0000000), wk =   0.0277778
        k(   50) = (   0.0598050  -0.0621360   0.0000000), wk =   0.0277778
        k(   51) = (   0.0598050  -0.0466020   0.0000000), wk =   0.0277778
        k(   52) = (   0.0598050  -0.0310680   0.0000000), wk =   0.0277778
        k(   53) = (   0.0598050  -0.0155340   0.0000000), wk =   0.0277778
        k(   54) = (   0.0598050   0.0000000   0.0000000), wk =   0.0277778
        k(   55) = (   0.0598050   0.0155340   0.0000000), wk =   0.0277778
        k(   56) = (   0.0747563   0.0388350   0.0000000), wk =   0.0277778
        k(   57) = (   0.0747563   0.0543690   0.0000000), wk =   0.0277778
        k(   58) = (   0.0747563   0.0699030   0.0000000), wk =   0.0277778
        k(   59) = (   0.0747563   0.0854370   0.0000000), wk =   0.0277778
        k(   60) = (   0.0747563   0.1009710   0.0000000), wk =   0.0277778
        k(   61) = (   0.0747563   0.1165050   0.0000000), wk =   0.0277778
        k(   62) = (   0.0747563  -0.0543690   0.0000000), wk =   0.0277778
        k(   63) = (   0.0747563  -0.0388350   0.0000000), wk =   0.0277778
        k(   64) = (   0.0747563  -0.0233010   0.0000000), wk =   0.0277778
        k(   65) = (   0.0747563  -0.0077670   0.0000000), wk =   0.0277778
        k(   66) = (   0.0747563   0.0077670   0.0000000), wk =   0.0277778
        k(   67) = (   0.0747563   0.0233010   0.0000000), wk =   0.0277778
        k(   68) = (  -0.0897076  -0.0466020   0.0000000), wk =   0.0138889
        k(   69) = (  -0.0897076  -0.0310680   0.0000000), wk =   0.0277778
        k(   70) = (  -0.0897076  -0.0155340   0.0000000), wk =   0.0277778
        k(   71) = (  -0.0897076   0.0000000   0.0000000), wk =   0.0277778
        k(   72) = (  -0.0897076   0.0155340   0.0000000), wk =   0.0277778
        k(   73) = (  -0.0897076   0.0310680   0.0000000), wk =   0.0277778
        k(   74) = (  -0.0897076  -0.1398060   0.0000000), wk =   0.0138889

     Check: negative core charge=   -0.000002

     Initial potential from superposition of free atoms

     starting charge  143.97918, renormalised to  144.00000

     negative rho (up, down):  1.125E-03 0.000E+00

     %%%%%%%%%%%%%%%%%%%%%%%%%%%%%%%%%%%%%%%%%%%%%%%%%%%%%%%%%%%%%%%%%%%%%%%%
     %                                                                      %
     % You are using vdW-DF, which was implemented by the Thonhauser group. %
     % Please cite the following two papers that made this development      %
     % possible and the two reviews that describe the various versions:     %
     %                                                                      %
     %   T. Thonhauser et al., PRL 115, 136402 (2015).                      %
     %   T. Thonhauser et al., PRB 76, 125112 (2007).                       %
     %   K. Berland et al., Rep. Prog. Phys. 78, 066501 (2015).             %
     %   D.C. Langreth et al., J. Phys.: Condens. Matter 21, 084203 (2009). %
     %                                                                      %
     %                                                                      %
     % If you are calculating the stress with vdW-DF, please also cite:     %
     %                                                                      %
     %   R. Sabatini et al., J. Phys.: Condens. Matter 24, 424209 (2012).   %
     %                                                                      %
     %%%%%%%%%%%%%%%%%%%%%%%%%%%%%%%%%%%%%%%%%%%%%%%%%%%%%%%%%%%%%%%%%%%%%%%%

     Adding external electric field

     Computed dipole along edir(3) :
        Dipole                0.0017 Ry au,          0.0043 Debye
        Dipole field          0.0000 Ry au,

        Potential amp.       -0.0004 Ry
        Total length         45.6246 bohr

     Starting wfcs are  120 randomized atomic wfcs

     Self-consistent Calculation

     iteration #  1     ecut=    55.12 Ry     beta= 0.10
     Davidson diagonalization with overlap
     ethr =  1.00E-02,  avg # of iterations =  2.0

[...]

     total energy              =   -1466.21722716 Ry
     estimated scf accuracy    <      12.98928933 Ry

[...]

     iteration # 10     ecut=    55.12 Ry     beta= 0.10
     Davidson diagonalization with overlap
     c_bands:  1 eigenvalues not converged
     c_bands:  1 eigenvalues not converged
     c_bands:  1 eigenvalues not converged
     c_bands:  1 eigenvalues not converged
     c_bands:  1 eigenvalues not converged
     c_bands:  1 eigenvalues not converged
     c_bands:  4 eigenvalues not converged
     c_bands:  1 eigenvalues not converged
     c_bands:  1 eigenvalues not converged
     c_bands:  4 eigenvalues not converged
     c_bands:  5 eigenvalues not converged
     c_bands:  1 eigenvalues not converged
     c_bands:  2 eigenvalues not converged
     c_bands:  4 eigenvalues not converged
     c_bands:  5 eigenvalues not converged
     c_bands:  5 eigenvalues not converged
     c_bands:  5 eigenvalues not converged
     c_bands:  3 eigenvalues not converged
     c_bands:  5 eigenvalues not converged
     c_bands:  2 eigenvalues not converged
     c_bands:  1 eigenvalues not converged
     c_bands:  3 eigenvalues not converged
     c_bands:  2 eigenvalues not converged
     c_bands:  3 eigenvalues not converged
     c_bands:  1 eigenvalues not converged
     c_bands:  1 eigenvalues not converged
     c_bands:  1 eigenvalues not converged
     c_bands:  4 eigenvalues not converged
     c_bands:  4 eigenvalues not converged
     c_bands:  5 eigenvalues not converged
     c_bands:  4 eigenvalues not converged
     c_bands:  3 eigenvalues not converged
     c_bands:  3 eigenvalues not converged
     c_bands:  3 eigenvalues not converged
     ethr =  2.23E-05,  avg # of iterations = 29.0

[...]

     iteration # 25     ecut=    55.12 Ry     beta= 0.10
     Davidson diagonalization with overlap
     ethr =  9.10E-08,  avg # of iterations =  2.5

[...]

     total energy              =   -1468.22475141 Ry
     estimated scf accuracy    <       0.00002259 Ry

     iteration # 28     ecut=    55.12 Ry     beta= 0.10
     Davidson diagonalization with overlap
     c_bands:  1 eigenvalues not converged
     ethr =  1.57E-08,  avg # of iterations =  8.0

[...]

     Adding external electric field

     Computed dipole along edir(3) :
        Dipole                0.1435 Ry au,          0.3647 Debye
        Dipole field          0.0004 Ry au,

        Potential amp.       -0.0329 Ry
        Total length         45.6246 bohr

     End of self-consistent calculation

          k = 0.0000 0.0000 0.0000 ( 34637 PWs)   bands (ev):

   -63.3699 -63.3342 -63.2500 -63.2132 -63.1511 -63.1156 -48.8277 -48.7415
   -48.7095 -48.6227 -48.2192 -48.0994 -37.3094 -37.2702 -37.2668 -37.2263
   -37.2057 -37.1722 -37.1435 -37.1217 -37.0868 -37.0122 -36.9765 -36.9592
   -36.9303 -36.9122 -36.8955 -36.8417 -36.6960 -36.6687 -27.8375 -27.7856
   -27.5468 -27.4567 -27.4364 -27.3555 -27.3516 -27.2860 -27.2541 -27.2468
   -27.1438 -27.0171 -26.9629 -26.8048 -26.7386 -26.7106 -26.6337 -26.4576
    -4.4460  -3.1091  -1.8710  -1.4052  -1.3446  -1.3319  -1.2154  -1.1797
    -1.0841  -0.8244  -0.7066  -0.6645  -0.5873  -0.4545  -0.3878  -0.0586
     0.1214   0.2623   0.4016   0.5753   0.5960   0.7750   1.0382   1.1696
     1.2570   1.3618   1.3797   1.4219   1.5506   1.6631   1.7205   1.8180
     1.9036   1.9649   2.0312   2.0363   2.1009   2.1545

[...]

          k = 0.0748 0.0233 0.0000 ( 34523 PWs)   bands (ev):

[...]

          k =-0.0897-0.0466 0.0000 ( 34466 PWs)   bands (ev):

[...]

          k =-0.0897-0.1398 0.0000 ( 34466 PWs)   bands (ev):

   -63.3523 -63.3519 -63.2317 -63.2316 -63.1335 -63.1333 -48.7698 -48.7684
   -48.6826 -48.6826 -48.1599 -48.1598 -37.2894 -37.2893 -37.1892 -37.1891
   -37.1142 -37.1137 -37.1036 -37.1031 -37.0700 -37.0699 -36.9939 -36.9939
   -36.9935 -36.9935 -36.9128 -36.9126 -36.6826 -36.6820 -27.4933 -27.4924
   -27.4385 -27.4371 -27.4048 -27.4043 -27.3848 -27.3847 -27.3079 -27.3066
   -27.1978 -27.1977 -26.8826 -26.8825 -26.7576 -26.7576 -26.6885 -26.6884
    -2.8447  -2.8446  -1.7112  -1.7112  -1.0638  -1.0638  -0.7163  -0.7163
    -0.5838  -0.5837  -0.2478  -0.2477   0.0261   0.0262   0.1906   0.1907
     0.2541   0.2541   0.3723   0.3724   0.5855   0.5857   0.6930   0.6932
     0.8340   0.8342   0.8901   0.8902   1.1508   1.1510   1.3337   1.3338
     1.4691   1.4692   1.5780   1.5783   1.8686   1.8690

     the Fermi energy is     0.8244 ev

!    total energy              =   -1468.22476236 Ry
     estimated scf accuracy    <       0.00000738 Ry
     smearing contrib. (-TS)   =      -0.10689341 Ry
     internal energy E=F+TS    =   -1468.11786894 Ry

     The total energy is F=E-TS. E is the sum of the following terms:
     one-electron contribution =  -10678.39894520 Ry
     hartree contribution      =    5326.82874336 Ry
     xc contribution           =    -235.62031098 Ry
     ewald contribution        =    4119.07259211 Ry
     electric field correction =       0.00005177 Ry

     convergence has been achieved in  28 iterations

     negative rho (up, down):  9.319E-04 0.000E+00

     Forces acting on atoms (cartesian axes, Ry/au):

     atom    1 type  1   force =     0.00000719   -0.01603284   -0.02194496
     atom    2 type  1   force =    -0.00001531   -0.01604622   -0.02195392
     atom    3 type  2   force =    -0.00000467    0.01566459    0.03848860
     atom    4 type  2   force =     0.00000087    0.01564253    0.03846633
     atom    5 type  1   force =    -0.00013270    0.01242822   -0.00931338
     atom    6 type  1   force =     0.00010171    0.01245032   -0.00931198
     atom    7 type  2   force =     0.00003688   -0.01134962   -0.00883249
     atom    8 type  2   force =    -0.00003132   -0.01147483   -0.00905553
     atom    9 type  1   force =    -0.00007367   -0.00098175    0.00155714
     atom   10 type  1   force =     0.00011699   -0.00099532    0.00157285
     atom   11 type  2   force =    -0.00000190    0.00035577    0.00019463
     atom   12 type  2   force =    -0.00000408    0.00033915    0.00013271

     Total force =     0.076419     Total SCF correction =     0.010113
     SCF correction compared to forces is large: reduce conv_thr to get better values

     Writing output data file ./Sc2V2/Sc2V2_beef.save/

     General routines

     Parallel routines

   This run was terminated on:  20: 9:56  24Jun2022

   JOB DONE.