     Program PWSCF v.6.6 starts on 24Jun2022 at 20: 9:59

     R & G space division:  proc/nbgrp/npool/nimage =      37
     Fft bands division:     nmany     =       1
     Reading input from Sc2W2.in
Warning: card &CELL ignored
Warning: card / ignored

     Current dimensions of program PWSCF are:
     Max number of different atomic species (ntypx) = 10
     Max number of k-points (npk) =  40000
     Max angular momentum in pseudopotentials (lmaxx) =  3
     Presently stress not available with electric field and gates

     Message from routine cell_base_init:
     DEPRECATED: use true lattice parameter, not A to a.u. conversion factor
     Message from routine emend_upf/check:
     BEWARE !!! Possible out of bounds while fixing pseudo
     Message from routine emend_upf/check:
     BEWARE !!! Possible out of bounds while fixing pseudo
     Message from routine read_upf:
     Pseudo file W.pbe-spn-rrkjus_psl.0.2.3.UPF has been fixed on the fly.
     To avoid this message in the future, permanently fix
     your pseudo files following these instructions:
     file Sc.pbe-spn-rrkjus_psl.1.0.0.UPF: wavefunction(s)  3S 3P renormalized

     IMPORTANT: XC functional enforced from input :
     Exchange-correlation= BEEF-VDW
                           (   1   4  43  14   2   0   0)
     Any further DFT definition will be discarded
     Please, verify this is what you really want

     Subspace diagonalization in iterative solution of the eigenvalue problem:
     a serial algorithm will be used

     Found symmetry operation: I + (  0.5000  0.0000  0.0000)
     This is a supercell, fractional translations are disabled

     bravais-lattice index     =            0
     lattice parameter (alat)  =       1.8897  a.u.
     unit-cell volume          =    5133.1178 (a.u.)^3
     number of atoms/cell      =           12
     number of atomic types    =            2
     number of electrons       =       150.00
     number of Kohn-Sham states=           90
     kinetic-energy cutoff     =      55.1240  Ry
     charge density cutoff     =     551.2396  Ry
     convergence threshold     =      1.0E-05
     mixing beta               =       0.1000
     number of iterations used =           10  plain     mixing
     Exchange-correlation= BEEF-VDW
                           (   1   4  43  14   2   0   0)

     celldm(1)=   1.889726  celldm(2)=   0.000000  celldm(3)=   0.000000
     celldm(4)=   0.000000  celldm(5)=   0.000000  celldm(6)=   0.000000

     crystal axes: (cart. coord. in units of alat)
               a(1) = (   5.568252   0.000000   0.000000 )
               a(2) = (  -2.784126   5.507296   0.000000 )
               a(3) = (   0.000000   0.000000  24.804325 )

     reciprocal axes: (cart. coord. in units 2 pi/alat)
               b(1) = (  0.179590  0.090789 -0.000000 )
               b(2) = (  0.000000  0.181577  0.000000 )
               b(3) = (  0.000000 -0.000000  0.040316 )

     PseudoPot. # 1 for Sc read from file:
     ../pseudo/Sc.pbe-spn-rrkjus_psl.1.0.0.UPF
     MD5 check sum: f739f74c200e509e5c24cbe053202ee5
     Pseudo is Ultrasoft + core correction, Zval = 11.0
     Generated using "atomic" code by A. Dal Corso v.6.2.2
     Using radial grid of 1173 points,  6 beta functions with:
                l(1) =   0
                l(2) =   0
                l(3) =   1
                l(4) =   1
                l(5) =   2
                l(6) =   2
     Q(r) pseudized with 0 coefficients

     PseudoPot. # 2 for W  read from file:
     ../pseudo/W.pbe-spn-rrkjus_psl.0.2.3.UPF
     MD5 check sum: 25b665cf2bbae626ad8d9f1bc024df95
     Pseudo is Ultrasoft + core correction, Zval = 14.0
     Generated using "atomic" code by A. Dal Corso v.5.0.2 svn rev. 10551
     Using radial grid of 1273 points,  6 beta functions with:
                l(1) =   0
                l(2) =   0
                l(3) =   1
                l(4) =   1
                l(5) =   2
                l(6) =   2
     Q(r) pseudized with 0 coefficients

     atomic species   valence    mass     pseudopotential
        Sc            11.00    44.95591     Sc( 1.00)
        W             14.00   183.84000     W ( 1.00)

     No symmetry found

   Cartesian axes

     site n.     atom                  positions (alat units)
         1           Sc  tau(   1) = (   0.0000000   0.0000000  10.0000000  )
         2           Sc  tau(   2) = (   2.7841259   0.0000000  10.0000000  )
         3           W   tau(   3) = (   1.3920630   2.7536481  10.0000000  )
         4           W   tau(   4) = (  -1.3920630   2.7536481  10.0000000  )
         5           Sc  tau(   5) = (   2.7841259   1.4074705  12.4021623  )
         6           Sc  tau(   6) = (   0.0000000   1.4074705  12.4021623  )
         7           W   tau(   7) = (  -1.3920630   4.1611186  12.4021623  )
         8           W   tau(   8) = (   1.3920630   4.1611186  12.4021623  )
         9           Sc  tau(   9) = (   0.0000030   2.9083377  14.9500631  )
        10           Sc  tau(  10) = (   2.7841278   2.9083313  14.9500424  )
        11           W   tau(  11) = (   4.1761872   0.0266378  14.5758848  )
        12           W   tau(  12) = (   1.3920637   0.0266378  14.5758946  )

     number of k points=    74  Fermi-Dirac smearing, width (Ry)=  0.0100
                       cart. coord. in units 2pi/alat
        k(    1) = (   0.0000000   0.0000000   0.0000000), wk =   0.0138889
        k(    2) = (   0.0000000   0.0151314   0.0000000), wk =   0.0277778
        k(    3) = (   0.0000000   0.0302629   0.0000000), wk =   0.0277778
        k(    4) = (   0.0000000   0.0453943   0.0000000), wk =   0.0277778
        k(    5) = (   0.0000000   0.0605258   0.0000000), wk =   0.0277778
        k(    6) = (   0.0000000   0.0756572   0.0000000), wk =   0.0277778
        k(    7) = (   0.0000000  -0.0907887   0.0000000), wk =   0.0138889
        k(    8) = (   0.0149658   0.0075657   0.0000000), wk =   0.0277778
        k(    9) = (   0.0149658   0.0226972   0.0000000), wk =   0.0277778
        k(   10) = (   0.0149658   0.0378286   0.0000000), wk =   0.0277778
        k(   11) = (   0.0149658   0.0529600   0.0000000), wk =   0.0277778
        k(   12) = (   0.0149658   0.0680915   0.0000000), wk =   0.0277778
        k(   13) = (   0.0149658   0.0832229   0.0000000), wk =   0.0277778
        k(   14) = (   0.0149658  -0.0832229   0.0000000), wk =   0.0277778
        k(   15) = (   0.0149658  -0.0680915   0.0000000), wk =   0.0277778
        k(   16) = (   0.0149658  -0.0529600   0.0000000), wk =   0.0277778
        k(   17) = (   0.0149658  -0.0378286   0.0000000), wk =   0.0277778
        k(   18) = (   0.0149658  -0.0226972   0.0000000), wk =   0.0277778
        k(   19) = (   0.0149658  -0.0075657   0.0000000), wk =   0.0277778
        k(   20) = (   0.0299316   0.0151314   0.0000000), wk =   0.0277778
        k(   21) = (   0.0299316   0.0302629   0.0000000), wk =   0.0277778
        k(   22) = (   0.0299316   0.0453943   0.0000000), wk =   0.0277778
        k(   23) = (   0.0299316   0.0605258   0.0000000), wk =   0.0277778
        k(   24) = (   0.0299316   0.0756572   0.0000000), wk =   0.0277778
        k(   25) = (   0.0299316   0.0907887   0.0000000), wk =   0.0277778
        k(   26) = (   0.0299316  -0.0756572   0.0000000), wk =   0.0277778
        k(   27) = (   0.0299316  -0.0605258   0.0000000), wk =   0.0277778
        k(   28) = (   0.0299316  -0.0453943   0.0000000), wk =   0.0277778
        k(   29) = (   0.0299316  -0.0302629   0.0000000), wk =   0.0277778
        k(   30) = (   0.0299316  -0.0151314   0.0000000), wk =   0.0277778
        k(   31) = (   0.0299316  -0.0000000   0.0000000), wk =   0.0277778
        k(   32) = (   0.0448974   0.0226972   0.0000000), wk =   0.0277778
        k(   33) = (   0.0448974   0.0378286   0.0000000), wk =   0.0277778
        k(   34) = (   0.0448974   0.0529600   0.0000000), wk =   0.0277778
        k(   35) = (   0.0448974   0.0680915   0.0000000), wk =   0.0277778
        k(   36) = (   0.0448974   0.0832229   0.0000000), wk =   0.0277778
        k(   37) = (   0.0448974   0.0983544   0.0000000), wk =   0.0277778
        k(   38) = (   0.0448974  -0.0680915   0.0000000), wk =   0.0277778
        k(   39) = (   0.0448974  -0.0529600   0.0000000), wk =   0.0277778
        k(   40) = (   0.0448974  -0.0378286   0.0000000), wk =   0.0277778
        k(   41) = (   0.0448974  -0.0226972   0.0000000), wk =   0.0277778
        k(   42) = (   0.0448974  -0.0075657   0.0000000), wk =   0.0277778
        k(   43) = (   0.0448974   0.0075657   0.0000000), wk =   0.0277778
        k(   44) = (   0.0598632   0.0302629   0.0000000), wk =   0.0277778
        k(   45) = (   0.0598632   0.0453943   0.0000000), wk =   0.0277778
        k(   46) = (   0.0598632   0.0605258   0.0000000), wk =   0.0277778
        k(   47) = (   0.0598632   0.0756572   0.0000000), wk =   0.0277778
        k(   48) = (   0.0598632   0.0907887   0.0000000), wk =   0.0277778
        k(   49) = (   0.0598632   0.1059201   0.0000000), wk =   0.0277778
        k(   50) = (   0.0598632  -0.0605258   0.0000000), wk =   0.0277778
        k(   51) = (   0.0598632  -0.0453943   0.0000000), wk =   0.0277778
        k(   52) = (   0.0598632  -0.0302629   0.0000000), wk =   0.0277778
        k(   53) = (   0.0598632  -0.0151314   0.0000000), wk =   0.0277778
        k(   54) = (   0.0598632   0.0000000   0.0000000), wk =   0.0277778
        k(   55) = (   0.0598632   0.0151314   0.0000000), wk =   0.0277778
        k(   56) = (   0.0748290   0.0378286   0.0000000), wk =   0.0277778
        k(   57) = (   0.0748290   0.0529600   0.0000000), wk =   0.0277778
        k(   58) = (   0.0748290   0.0680915   0.0000000), wk =   0.0277778
        k(   59) = (   0.0748290   0.0832229   0.0000000), wk =   0.0277778
        k(   60) = (   0.0748290   0.0983544   0.0000000), wk =   0.0277778
        k(   61) = (   0.0748290   0.1134858   0.0000000), wk =   0.0277778
        k(   62) = (   0.0748290  -0.0529600   0.0000000), wk =   0.0277778
        k(   63) = (   0.0748290  -0.0378286   0.0000000), wk =   0.0277778
        k(   64) = (   0.0748290  -0.0226972   0.0000000), wk =   0.0277778
        k(   65) = (   0.0748290  -0.0075657   0.0000000), wk =   0.0277778
        k(   66) = (   0.0748290   0.0075657   0.0000000), wk =   0.0277778
        k(   67) = (   0.0748290   0.0226972   0.0000000), wk =   0.0277778
        k(   68) = (  -0.0897948  -0.0453943   0.0000000), wk =   0.0138889
        k(   69) = (  -0.0897948  -0.0302629   0.0000000), wk =   0.0277778
        k(   70) = (  -0.0897948  -0.0151314   0.0000000), wk =   0.0277778
        k(   71) = (  -0.0897948   0.0000000   0.0000000), wk =   0.0277778
        k(   72) = (  -0.0897948   0.0151314   0.0000000), wk =   0.0277778
        k(   73) = (  -0.0897948   0.0302629   0.0000000), wk =   0.0277778
        k(   74) = (  -0.0897948  -0.1361830   0.0000000), wk =   0.0138889

     Check: negative core charge=   -0.000001

     Initial potential from superposition of free atoms

     starting charge  149.98129, renormalised to  150.00000

     negative rho (up, down):  8.655E-04 0.000E+00

     %%%%%%%%%%%%%%%%%%%%%%%%%%%%%%%%%%%%%%%%%%%%%%%%%%%%%%%%%%%%%%%%%%%%%%%%
     %                                                                      %
     % You are using vdW-DF, which was implemented by the Thonhauser group. %
     % Please cite the following two papers that made this development      %
     % possible and the two reviews that describe the various versions:     %
     %                                                                      %
     %   T. Thonhauser et al., PRL 115, 136402 (2015).                      %
     %   T. Thonhauser et al., PRB 76, 125112 (2007).                       %
     %   K. Berland et al., Rep. Prog. Phys. 78, 066501 (2015).             %
     %   D.C. Langreth et al., J. Phys.: Condens. Matter 21, 084203 (2009). %
     %                                                                      %
     %                                                                      %
     % If you are calculating the stress with vdW-DF, please also cite:     %
     %                                                                      %
     %   R. Sabatini et al., J. Phys.: Condens. Matter 24, 424209 (2012).   %
     %                                                                      %
     %%%%%%%%%%%%%%%%%%%%%%%%%%%%%%%%%%%%%%%%%%%%%%%%%%%%%%%%%%%%%%%%%%%%%%%%

     Adding external electric field

     Computed dipole along edir(3) :
        Dipole                0.0017 Ry au,          0.0043 Debye
        Dipole field          0.0000 Ry au,

        Potential amp.       -0.0004 Ry
        Total length         45.7015 bohr

     Starting wfcs are  138 randomized atomic wfcs

     Self-consistent Calculation

     iteration #  1     ecut=    55.12 Ry     beta= 0.10
     Davidson diagonalization with overlap
     ethr =  1.00E-02,  avg # of iterations =  2.0

[...]

     total energy              =   -1545.09531753 Ry
     estimated scf accuracy    <       5.59983998 Ry

[...]

     iteration #  7     ecut=    55.12 Ry     beta= 0.10
     Davidson diagonalization with overlap
     c_bands:  1 eigenvalues not converged
     c_bands:  1 eigenvalues not converged
     c_bands:  2 eigenvalues not converged
     c_bands:  4 eigenvalues not converged
     c_bands:  2 eigenvalues not converged
     c_bands:  2 eigenvalues not converged
     c_bands:  1 eigenvalues not converged
     c_bands:  1 eigenvalues not converged
     c_bands:  1 eigenvalues not converged
     c_bands:  4 eigenvalues not converged
     c_bands:  1 eigenvalues not converged
     c_bands:  1 eigenvalues not converged
     ethr =  5.98E-05,  avg # of iterations = 15.0

[...]

     iteration # 18     ecut=    55.12 Ry     beta= 0.10
     Davidson diagonalization with overlap
     c_bands:  1 eigenvalues not converged
     ethr =  2.90E-08,  avg # of iterations =  7.6

[...]

     total energy              =   -1545.86964494 Ry
     estimated scf accuracy    <       0.00009023 Ry

     iteration # 19     ecut=    55.12 Ry     beta= 0.10
     Davidson diagonalization with overlap
     ethr =  2.90E-08,  avg # of iterations =  3.0

[...]

     Adding external electric field

     Computed dipole along edir(3) :
        Dipole                0.1452 Ry au,          0.3690 Debye
        Dipole field          0.0004 Ry au,

        Potential amp.       -0.0325 Ry
        Total length         45.7015 bohr

     End of self-consistent calculation

          k = 0.0000 0.0000 0.0000 ( 35535 PWs)   bands (ev):

   -72.6517 -72.6054 -72.5973 -72.5517 -72.4542 -72.4082 -48.2451 -48.1340
   -48.1259 -48.0139 -47.6573 -47.5365 -37.1097 -37.0839 -37.0192 -36.9470
   -36.8541 -36.7017 -36.6823 -36.6252 -36.6184 -36.6000 -36.5383 -36.4988
   -36.4178 -36.3564 -36.2665 -36.2333 -36.1996 -36.1361 -27.2620 -27.1943
   -26.9418 -26.8464 -26.8338 -26.7394 -26.7369 -26.7330 -26.6363 -26.6172
   -26.5150 -26.4392 -26.3679 -26.2246 -26.1587 -26.1301 -26.0549 -25.9029
    -5.0960  -3.5721  -2.5377  -2.3901  -1.8674  -1.8185  -1.7313  -1.7041
    -1.2310  -1.1667  -1.1184  -1.0754  -0.7771  -0.7565  -0.6784  -0.4278
     0.2878   0.3426   0.4045   0.4594   0.6295   1.2580   1.5436   1.6162
     1.7063   1.7852   1.8158   1.8940   2.1087   2.1711   2.5471   2.6040
     2.6097   2.6336   2.7323   2.7740   2.8972   3.0356   3.1034   3.4078
     3.4706   3.5487

[...]

          k = 0.0748 0.0227 0.0000 ( 35439 PWs)   bands (ev):

[...]

          k =-0.0898-0.0454 0.0000 ( 35446 PWs)   bands (ev):

[...]

          k =-0.0898-0.1362 0.0000 ( 35446 PWs)   bands (ev):

   -72.6286 -72.6286 -72.5746 -72.5745 -72.4313 -72.4313 -48.1862 -48.1859
   -48.0746 -48.0744 -47.5976 -47.5974 -37.0641 -37.0641 -36.7288 -36.7287
   -36.6630 -36.6630 -36.6398 -36.6397 -36.5982 -36.5981 -36.5779 -36.5779
   -36.5034 -36.5034 -36.4580 -36.4580 -36.2331 -36.2330 -26.8896 -26.8893
   -26.8617 -26.8615 -26.7954 -26.7953 -26.7905 -26.7904 -26.6909 -26.6907
   -26.5702 -26.5700 -26.3293 -26.3291 -26.1772 -26.1771 -26.1108 -26.1106
    -3.3065  -3.3065  -1.9983  -1.9983  -1.1895  -1.1895  -1.0136  -1.0136
    -0.8452  -0.8452  -0.4653  -0.4653  -0.0600  -0.0600   0.0121   0.0121
     0.3813   0.3814   0.5566   0.5566   0.7972   0.7972   0.8988   0.8988
     1.0562   1.0562   1.1796   1.1796   1.5677   1.5677   1.8031   1.8031
     2.0709   2.0709   2.1720   2.1721   2.5369   2.5369   2.9257   2.9257
     3.2768   3.2770

     the Fermi energy is     1.5223 ev

!    total energy              =   -1545.86964923 Ry
     estimated scf accuracy    <       0.00000438 Ry
     smearing contrib. (-TS)   =      -0.07748032 Ry
     internal energy E=F+TS    =   -1545.79216891 Ry

     The total energy is F=E-TS. E is the sum of the following terms:
     one-electron contribution =  -10879.89427753 Ry
     hartree contribution      =    5424.57825309 Ry
     xc contribution           =    -356.79814819 Ry
     ewald contribution        =    4266.32195214 Ry
     electric field correction =       0.00005159 Ry

     convergence has been achieved in  19 iterations

     negative rho (up, down):  1.301E-03 0.000E+00

     Forces acting on atoms (cartesian axes, Ry/au):

     atom    1 type  1   force =    -0.00000401   -0.01527449   -0.02499120
     atom    2 type  1   force =    -0.00000953   -0.01530283   -0.02500923
     atom    3 type  2   force =    -0.00000458    0.01136284    0.05223500
     atom    4 type  2   force =    -0.00000062    0.01136410    0.05223659
     atom    5 type  1   force =     0.00000878    0.01412571   -0.00289193
     atom    6 type  1   force =     0.00001183    0.01411948   -0.00288959
     atom    7 type  2   force =    -0.00001270   -0.01307545   -0.02229038
     atom    8 type  2   force =    -0.00000585   -0.01308987   -0.02229564
     atom    9 type  1   force =     0.00000961    0.00185088   -0.00180221
     atom   10 type  1   force =     0.00001363    0.00187211   -0.00180823
     atom   11 type  2   force =     0.00000124    0.00102474   -0.00024122
     atom   12 type  2   force =    -0.00000779    0.00102277   -0.00025195

     Total force =     0.095919     Total SCF correction =     0.009906
     SCF correction compared to forces is large: reduce conv_thr to get better values

     Writing output data file ./Sc2W2/Sc2W2_beef.save/

     General routines

     Parallel routines

   This run was terminated on:  21:32: 4  24Jun2022

   JOB DONE.