     Program PWSCF v.6.6 starts on 11Jul2022 at  5:14: 6

     R & G space division:  proc/nbgrp/npool/nimage =      37
     Fft bands division:     nmany     =       1
     Reading input from Sc2Y2.in
Warning: card &CELL ignored
Warning: card / ignored

     Current dimensions of program PWSCF are:
     Max number of different atomic species (ntypx) = 10
     Max number of k-points (npk) =  40000
     Max angular momentum in pseudopotentials (lmaxx) =  3
     Presently stress not available with electric field and gates

     Message from routine cell_base_init:
     DEPRECATED: use true lattice parameter, not A to a.u. conversion factor
     file Sc.pbe-spn-rrkjus_psl.1.0.0.UPF: wavefunction(s)  3S 3P renormalized
     file Y.pbe-spn-rrkjus_psl.1.0.0.UPF: wavefunction(s)  4S renormalized

     IMPORTANT: XC functional enforced from input :
     Exchange-correlation= BEEF-VDW
                           (   1   4  43  14   2   0   0)
     Any further DFT definition will be discarded
     Please, verify this is what you really want

     Subspace diagonalization in iterative solution of the eigenvalue problem:
     a serial algorithm will be used

     Found symmetry operation: I + ( -0.5000 -0.5000  0.0000)
     This is a supercell, fractional translations are disabled

     bravais-lattice index     =            0
     lattice parameter (alat)  =       1.8897  a.u.
     unit-cell volume          =    7005.4880 (a.u.)^3
     number of atoms/cell      =           12
     number of atomic types    =            2
     number of electrons       =       132.00
     number of Kohn-Sham states=           79
     kinetic-energy cutoff     =      55.1240  Ry
     charge density cutoff     =     551.2396  Ry
     convergence threshold     =      1.0E-05
     mixing beta               =       0.1000
     number of iterations used =           10  plain     mixing
     Exchange-correlation= BEEF-VDW
                           (   1   4  43  14   2   0   0)

     celldm(1)=   1.889726  celldm(2)=   0.000000  celldm(3)=   0.000000
     celldm(4)=   0.000000  celldm(5)=   0.000000  celldm(6)=   0.000000

     crystal axes: (cart. coord. in units of alat)
               a(1) = (   6.780062   0.000000   0.000000 )
               a(2) = (   3.185598   5.985082   0.000000 )
               a(3) = (   0.000000   0.000000  25.582213 )

     reciprocal axes: (cart. coord. in units 2 pi/alat)
               b(1) = (  0.147491 -0.078503  0.000000 )
               b(2) = (  0.000000  0.167082  0.000000 )
               b(3) = (  0.000000  0.000000  0.039090 )

     PseudoPot. # 1 for Sc read from file:
     ../pseudo/Sc.pbe-spn-rrkjus_psl.1.0.0.UPF
     MD5 check sum: f739f74c200e509e5c24cbe053202ee5
     Pseudo is Ultrasoft + core correction, Zval = 11.0
     Generated using "atomic" code by A. Dal Corso v.6.2.2
     Using radial grid of 1173 points,  6 beta functions with:
                l(1) =   0
                l(2) =   0
                l(3) =   1
                l(4) =   1
                l(5) =   2
                l(6) =   2
     Q(r) pseudized with 0 coefficients

     PseudoPot. # 2 for Y  read from file:
     ../pseudo/Y.pbe-spn-rrkjus_psl.1.0.0.UPF
     MD5 check sum: 5fe32e6a006803c2ec2edff47948a3c8
     Pseudo is Ultrasoft + core correction, Zval = 11.0
     Generated using "atomic" code by A. Dal Corso v.6.2.2
     Using radial grid of 1223 points,  6 beta functions with:
                l(1) =   0
                l(2) =   0
                l(3) =   1
                l(4) =   1
                l(5) =   2
                l(6) =   2
     Q(r) pseudized with 0 coefficients

     atomic species   valence    mass     pseudopotential
        Sc            11.00    44.95591     Sc( 1.00)
        Y             11.00    88.90584     Y ( 1.00)

     No symmetry found

   Cartesian axes

     site n.     atom                  positions (alat units)
         1           Sc  tau(   1) = (   0.0000000   0.0000000  10.0000000  )
         2           Sc  tau(   2) = (   4.9828303   2.9925411  10.0000000  )
         3           Y   tau(   3) = (   3.3900312   0.0000000  10.0000000  )
         4           Y   tau(   4) = (   1.5927992   2.9925411  10.0000000  )
         5           Sc  tau(   5) = (   6.7800623   4.0719056  12.7911063  )
         6           Sc  tau(   6) = (   1.7972320   1.0793646  12.7911063  )
         7           Y   tau(   7) = (   3.3900312   4.0719056  12.7911063  )
         8           Y   tau(   8) = (   5.1872631   1.0793646  12.7911063  )
         9           Sc  tau(   9) = (   3.5632711   2.1399892  15.4364506  )
        10           Sc  tau(  10) = (   8.5460788   5.1325240  15.4363958  )
        11           Y   tau(  11) = (   6.9770921   2.1542865  15.5504188  )
        12           Y   tau(  12) = (   5.1798647   5.1468191  15.5504302  )

     number of k points=    74  Fermi-Dirac smearing, width (Ry)=  0.0100
                       cart. coord. in units 2pi/alat
        k(    1) = (   0.0000000   0.0000000   0.0000000), wk =   0.0138889
        k(    2) = (   0.0000000   0.0139235   0.0000000), wk =   0.0277778
        k(    3) = (   0.0000000   0.0278470   0.0000000), wk =   0.0277778
        k(    4) = (   0.0000000   0.0417705   0.0000000), wk =   0.0277778
        k(    5) = (   0.0000000   0.0556940   0.0000000), wk =   0.0277778
        k(    6) = (   0.0000000   0.0696175   0.0000000), wk =   0.0277778
        k(    7) = (   0.0000000  -0.0835410   0.0000000), wk =   0.0138889
        k(    8) = (   0.0122909  -0.0065419   0.0000000), wk =   0.0277778
        k(    9) = (   0.0122909   0.0073816   0.0000000), wk =   0.0277778
        k(   10) = (   0.0122909   0.0213051   0.0000000), wk =   0.0277778
        k(   11) = (   0.0122909   0.0352286   0.0000000), wk =   0.0277778
        k(   12) = (   0.0122909   0.0491521   0.0000000), wk =   0.0277778
        k(   13) = (   0.0122909   0.0630756   0.0000000), wk =   0.0277778
        k(   14) = (   0.0122909  -0.0900830   0.0000000), wk =   0.0277778
        k(   15) = (   0.0122909  -0.0761595   0.0000000), wk =   0.0277778
        k(   16) = (   0.0122909  -0.0622360   0.0000000), wk =   0.0277778
        k(   17) = (   0.0122909  -0.0483125   0.0000000), wk =   0.0277778
        k(   18) = (   0.0122909  -0.0343889   0.0000000), wk =   0.0277778
        k(   19) = (   0.0122909  -0.0204654   0.0000000), wk =   0.0277778
        k(   20) = (   0.0245819  -0.0130839   0.0000000), wk =   0.0277778
        k(   21) = (   0.0245819   0.0008396   0.0000000), wk =   0.0277778
        k(   22) = (   0.0245819   0.0147632   0.0000000), wk =   0.0277778
        k(   23) = (   0.0245819   0.0286867   0.0000000), wk =   0.0277778
        k(   24) = (   0.0245819   0.0426102   0.0000000), wk =   0.0277778
        k(   25) = (   0.0245819   0.0565337   0.0000000), wk =   0.0277778
        k(   26) = (   0.0245819  -0.0966249   0.0000000), wk =   0.0277778
        k(   27) = (   0.0245819  -0.0827014   0.0000000), wk =   0.0277778
        k(   28) = (   0.0245819  -0.0687779   0.0000000), wk =   0.0277778
        k(   29) = (   0.0245819  -0.0548544   0.0000000), wk =   0.0277778
        k(   30) = (   0.0245819  -0.0409309   0.0000000), wk =   0.0277778
        k(   31) = (   0.0245819  -0.0270074   0.0000000), wk =   0.0277778
        k(   32) = (   0.0368728  -0.0196258   0.0000000), wk =   0.0277778
        k(   33) = (   0.0368728  -0.0057023   0.0000000), wk =   0.0277778
        k(   34) = (   0.0368728   0.0082212   0.0000000), wk =   0.0277778
        k(   35) = (   0.0368728   0.0221447   0.0000000), wk =   0.0277778
        k(   36) = (   0.0368728   0.0360682   0.0000000), wk =   0.0277778
        k(   37) = (   0.0368728   0.0499917   0.0000000), wk =   0.0277778
        k(   38) = (   0.0368728  -0.1031668   0.0000000), wk =   0.0277778
        k(   39) = (   0.0368728  -0.0892433   0.0000000), wk =   0.0277778
        k(   40) = (   0.0368728  -0.0753198   0.0000000), wk =   0.0277778
        k(   41) = (   0.0368728  -0.0613963   0.0000000), wk =   0.0277778
        k(   42) = (   0.0368728  -0.0474728   0.0000000), wk =   0.0277778
        k(   43) = (   0.0368728  -0.0335493   0.0000000), wk =   0.0277778
        k(   44) = (   0.0491638  -0.0261677   0.0000000), wk =   0.0277778
        k(   45) = (   0.0491638  -0.0122442   0.0000000), wk =   0.0277778
        k(   46) = (   0.0491638   0.0016793   0.0000000), wk =   0.0277778
        k(   47) = (   0.0491638   0.0156028   0.0000000), wk =   0.0277778
        k(   48) = (   0.0491638   0.0295263   0.0000000), wk =   0.0277778
        k(   49) = (   0.0491638   0.0434498   0.0000000), wk =   0.0277778
        k(   50) = (   0.0491638  -0.1097088   0.0000000), wk =   0.0277778
        k(   51) = (   0.0491638  -0.0957853   0.0000000), wk =   0.0277778
        k(   52) = (   0.0491638  -0.0818618   0.0000000), wk =   0.0277778
        k(   53) = (   0.0491638  -0.0679382   0.0000000), wk =   0.0277778
        k(   54) = (   0.0491638  -0.0540147   0.0000000), wk =   0.0277778
        k(   55) = (   0.0491638  -0.0400912   0.0000000), wk =   0.0277778
        k(   56) = (   0.0614547  -0.0327097   0.0000000), wk =   0.0277778
        k(   57) = (   0.0614547  -0.0187861   0.0000000), wk =   0.0277778
        k(   58) = (   0.0614547  -0.0048626   0.0000000), wk =   0.0277778
        k(   59) = (   0.0614547   0.0090609   0.0000000), wk =   0.0277778
        k(   60) = (   0.0614547   0.0229844   0.0000000), wk =   0.0277778
        k(   61) = (   0.0614547   0.0369079   0.0000000), wk =   0.0277778
        k(   62) = (   0.0614547  -0.1162507   0.0000000), wk =   0.0277778
        k(   63) = (   0.0614547  -0.1023272   0.0000000), wk =   0.0277778
        k(   64) = (   0.0614547  -0.0884037   0.0000000), wk =   0.0277778
        k(   65) = (   0.0614547  -0.0744802   0.0000000), wk =   0.0277778
        k(   66) = (   0.0614547  -0.0605567   0.0000000), wk =   0.0277778
        k(   67) = (   0.0614547  -0.0466332   0.0000000), wk =   0.0277778
        k(   68) = (  -0.0737456   0.0392516   0.0000000), wk =   0.0138889
        k(   69) = (  -0.0737456   0.0531751   0.0000000), wk =   0.0277778
        k(   70) = (  -0.0737456   0.0670986   0.0000000), wk =   0.0277778
        k(   71) = (  -0.0737456   0.0810221   0.0000000), wk =   0.0277778
        k(   72) = (  -0.0737456   0.0949456   0.0000000), wk =   0.0277778
        k(   73) = (  -0.0737456   0.1088691   0.0000000), wk =   0.0277778
        k(   74) = (  -0.0737456  -0.0442895   0.0000000), wk =   0.0138889

     Check: negative core charge=   -0.000001

     Initial potential from superposition of free atoms

     starting charge  131.96013, renormalised to  132.00000

     negative rho (up, down):  4.689E-04 0.000E+00

     %%%%%%%%%%%%%%%%%%%%%%%%%%%%%%%%%%%%%%%%%%%%%%%%%%%%%%%%%%%%%%%%%%%%%%%%
     %                                                                      %
     % You are using vdW-DF, which was implemented by the Thonhauser group. %
     % Please cite the following two papers that made this development      %
     % possible and the two reviews that describe the various versions:     %
     %                                                                      %
     %   T. Thonhauser et al., PRL 115, 136402 (2015).                      %
     %   T. Thonhauser et al., PRB 76, 125112 (2007).                       %
     %   K. Berland et al., Rep. Prog. Phys. 78, 066501 (2015).             %
     %   D.C. Langreth et al., J. Phys.: Condens. Matter 21, 084203 (2009). %
     %                                                                      %
     %                                                                      %
     % If you are calculating the stress with vdW-DF, please also cite:     %
     %                                                                      %
     %   R. Sabatini et al., J. Phys.: Condens. Matter 24, 424209 (2012).   %
     %                                                                      %
     %%%%%%%%%%%%%%%%%%%%%%%%%%%%%%%%%%%%%%%%%%%%%%%%%%%%%%%%%%%%%%%%%%%%%%%%

     Adding external electric field

     Computed dipole along edir(3) :
        Dipole                0.0003 Ry au,          0.0008 Debye
        Dipole field          0.0000 Ry au,

        Potential amp.       -0.0001 Ry
        Total length         47.1348 bohr

     Starting wfcs are  138 randomized atomic wfcs

     Self-consistent Calculation

     iteration #  1     ecut=    55.12 Ry     beta= 0.10
     Davidson diagonalization with overlap
     ethr =  1.00E-02,  avg # of iterations =  1.8

[...]

     total energy              =   -1094.84234782 Ry
     estimated scf accuracy    <       5.59052162 Ry

[...]

     iteration #  5     ecut=    55.12 Ry     beta= 0.10
     Davidson diagonalization with overlap
     c_bands:  5 eigenvalues not converged
     c_bands:  2 eigenvalues not converged
     c_bands:  1 eigenvalues not converged
     c_bands:  1 eigenvalues not converged
     c_bands:  1 eigenvalues not converged
     c_bands:  1 eigenvalues not converged
     ethr =  3.72E-04,  avg # of iterations = 14.3

[...]

     iteration #  9     ecut=    55.12 Ry     beta= 0.10
     Davidson diagonalization with overlap
     ethr =  1.46E-04,  avg # of iterations =  2.6

[...]

     total energy              =   -1095.61840366 Ry
     estimated scf accuracy    <       0.00001801 Ry

     iteration # 25     ecut=    55.12 Ry     beta= 0.10
     Davidson diagonalization with overlap
     c_bands:  1 eigenvalues not converged
     c_bands:  1 eigenvalues not converged
     ethr =  1.36E-08,  avg # of iterations = 10.0

[...]

     Adding external electric field

     Computed dipole along edir(3) :
        Dipole                0.0237 Ry au,          0.0602 Debye
        Dipole field          0.0000 Ry au,

        Potential amp.       -0.0040 Ry
        Total length         47.1348 bohr

     End of self-consistent calculation

          k = 0.0000 0.0000 0.0000 ( 48361 PWs)   bands (ev):

   -49.4677 -49.4597 -49.3586 -49.3504 -49.0255 -49.0173 -42.4183 -42.3980
   -42.3897 -42.3693 -41.7687 -41.7392 -28.1085 -28.0980 -28.0576 -28.0163
   -28.0040 -28.0005 -27.9897 -27.9601 -27.9535 -27.9181 -27.9056 -27.8544
   -27.6374 -27.6312 -27.6184 -27.5825 -27.5713 -27.5310 -22.4828 -22.4647
   -22.4268 -22.4081 -22.3878 -22.3679 -22.3238 -22.3055 -22.2869 -22.2683
   -22.1231 -22.1044 -21.9010 -21.7267 -21.7078 -21.6858 -21.6700 -21.5310
    -3.7139  -2.7424  -1.5812  -1.0079  -0.9229  -0.7650  -0.6283  -0.6024
    -0.5997  -0.4693  -0.3631  -0.2301   0.0617   0.1639   0.2611   0.4099
     0.4431   0.6026   0.8647   0.9598   1.2602   1.3005   1.3577   1.3606
     1.4624   1.4665   1.5993   1.8751   1.9250   1.9444   1.9971

[...]

          k = 0.0615-0.0466 0.0000 ( 48416 PWs)   bands (ev):

[...]

          k =-0.0737 0.0393 0.0000 ( 48402 PWs)   bands (ev):

[...]

          k =-0.0737-0.0443 0.0000 ( 48518 PWs)   bands (ev):

   -49.4677 -49.4597 -49.3585 -49.3504 -49.0254 -49.0173 -42.4185 -42.3982
   -42.3897 -42.3694 -41.7689 -41.7392 -28.1084 -28.0980 -28.0559 -28.0127
   -28.0024 -28.0003 -27.9896 -27.9583 -27.9533 -27.9144 -27.9038 -27.8542
   -27.6357 -27.6289 -27.6177 -27.5813 -27.5709 -27.5309 -22.4876 -22.4694
   -22.4323 -22.4045 -22.3900 -22.3663 -22.3350 -22.3158 -22.2912 -22.2725
   -22.1239 -22.1052 -21.9057 -21.7266 -21.7159 -21.6863 -21.6739 -21.5318
    -2.4424  -2.4111  -1.6347  -1.4442  -0.8618  -0.7245  -0.5111  -0.4592
    -0.3908  -0.1155   0.2369   0.4364   0.5032   0.5363   0.5667   0.6629
     0.7228   0.7527   0.7800   0.8039   0.8816   0.9144   0.9152   1.1201
     1.1373   1.2018   1.2129   1.2505   1.3765   1.4517   1.6581

     the Fermi energy is     0.7573 ev

!    total energy              =   -1095.61840285 Ry
     estimated scf accuracy    <       0.00000439 Ry
     smearing contrib. (-TS)   =      -0.11709917 Ry
     internal energy E=F+TS    =   -1095.50130368 Ry

     The total energy is F=E-TS. E is the sum of the following terms:
     one-electron contribution =   -6155.69416614 Ry
     hartree contribution      =    3065.56724543 Ry
     xc contribution           =    -219.61254123 Ry
     ewald contribution        =    2214.23815726 Ry
     electric field correction =       0.00000101 Ry

     convergence has been achieved in  25 iterations

     negative rho (up, down):  2.608E-04 0.000E+00

     Forces acting on atoms (cartesian axes, Ry/au):

     atom    1 type  1   force =     0.00292539    0.00175640    0.00713225
     atom    2 type  1   force =     0.00292051    0.00175239    0.00712071
     atom    3 type  2   force =    -0.00149643   -0.00089403    0.00042057
     atom    4 type  2   force =    -0.00149157   -0.00090260    0.00042173
     atom    5 type  1   force =     0.00040874    0.00024327   -0.00149826
     atom    6 type  1   force =     0.00041131    0.00024327   -0.00149802
     atom    7 type  2   force =     0.00025287    0.00015082   -0.00830056
     atom    8 type  2   force =     0.00024900    0.00015127   -0.00829910
     atom    9 type  1   force =    -0.00098458   -0.00058011    0.00116874
     atom   10 type  1   force =    -0.00097005   -0.00058313    0.00117025
     atom   11 type  2   force =    -0.00110809   -0.00067287    0.00108233
     atom   12 type  2   force =    -0.00111711   -0.00066468    0.00107937

     Total force =     0.016887     Total SCF correction =     0.009966
     SCF correction compared to forces is large: reduce conv_thr to get better values

     Writing output data file ./Sc2Y2/Sc2Y2_beef.save/

     General routines

     Parallel routines

   This run was terminated on:   7:13: 9  11Jul2022

   JOB DONE.