     Program PWSCF v.6.6 starts on 10Jul2022 at  0:14:36

     R & G space division:  proc/nbgrp/npool/nimage =      37
     Fft bands division:     nmany     =       1
     Reading input from Sc2Zn2.in
Warning: card &CELL ignored
Warning: card / ignored

     Current dimensions of program PWSCF are:
     Max number of different atomic species (ntypx) = 10
     Max number of k-points (npk) =  40000
     Max angular momentum in pseudopotentials (lmaxx) =  3
     Presently stress not available with electric field and gates

     Message from routine cell_base_init:
     DEPRECATED: use true lattice parameter, not A to a.u. conversion factor
     file Sc.pbe-spn-rrkjus_psl.1.0.0.UPF: wavefunction(s)  3S 3P renormalized
     file Zn.pbe-dnl-rrkjus_psl.1.0.0.UPF: wavefunction(s)  3D renormalized

     IMPORTANT: XC functional enforced from input :
     Exchange-correlation= BEEF-VDW
                           (   1   4  43  14   2   0   0)
     Any further DFT definition will be discarded
     Please, verify this is what you really want

     Subspace diagonalization in iterative solution of the eigenvalue problem:
     a serial algorithm will be used

     Found symmetry operation: I + (  0.5000  0.5000  0.0000)
     This is a supercell, fractional translations are disabled

     bravais-lattice index     =            0
     lattice parameter (alat)  =       1.8897  a.u.
     unit-cell volume          =    5317.9497 (a.u.)^3
     number of atoms/cell      =           12
     number of atomic types    =            2
     number of electrons       =       138.00
     number of Kohn-Sham states=           83
     kinetic-energy cutoff     =      55.1240  Ry
     charge density cutoff     =     551.2396  Ry
     convergence threshold     =      1.0E-05
     mixing beta               =       0.1000
     number of iterations used =           10  plain     mixing
     Exchange-correlation= BEEF-VDW
                           (   1   4  43  14   2   0   0)

     celldm(1)=   1.889726  celldm(2)=   0.000000  celldm(3)=   0.000000
     celldm(4)=   0.000000  celldm(5)=   0.000000  celldm(6)=   0.000000

     crystal axes: (cart. coord. in units of alat)
               a(1) = (   5.811491   0.000000   0.000000 )
               a(2) = (   1.934499   5.480068   0.000000 )
               a(3) = (   0.000000   0.000000  24.744244 )

     reciprocal axes: (cart. coord. in units 2 pi/alat)
               b(1) = (  0.172073 -0.060743  0.000000 )
               b(2) = (  0.000000  0.182479  0.000000 )
               b(3) = (  0.000000  0.000000  0.040413 )

     PseudoPot. # 1 for Sc read from file:
     ../pseudo/Sc.pbe-spn-rrkjus_psl.1.0.0.UPF
     MD5 check sum: f739f74c200e509e5c24cbe053202ee5
     Pseudo is Ultrasoft + core correction, Zval = 11.0
     Generated using "atomic" code by A. Dal Corso v.6.2.2
     Using radial grid of 1173 points,  6 beta functions with:
                l(1) =   0
                l(2) =   0
                l(3) =   1
                l(4) =   1
                l(5) =   2
                l(6) =   2
     Q(r) pseudized with 0 coefficients

     PseudoPot. # 2 for Zn read from file:
     ../pseudo/Zn.pbe-dnl-rrkjus_psl.1.0.0.UPF
     MD5 check sum: 7f56cabf9682ed8c977c2f7d0c5985c5
     Pseudo is Ultrasoft + core correction, Zval = 12.0
     Generated using "atomic" code by A. Dal Corso v.6.2.2
     Using radial grid of 1201 points,  6 beta functions with:
                l(1) =   0
                l(2) =   0
                l(3) =   1
                l(4) =   1
                l(5) =   2
                l(6) =   2
     Q(r) pseudized with 0 coefficients

     atomic species   valence    mass     pseudopotential
        Sc            11.00    44.95591     Sc( 1.00)
        Zn            12.00    65.38000     Zn( 1.00)

     No symmetry found

   Cartesian axes

     site n.     atom                  positions (alat units)
         1           Sc  tau(   1) = (   0.0000000   0.0000000  10.0000000  )
         2           Sc  tau(   2) = (   3.8729949   2.7400339  10.0000000  )
         3           Zn  tau(   3) = (   2.9057455   0.0000000  10.0000000  )
         4           Zn  tau(   4) = (   0.9672494   2.7400339  10.0000000  )
         5           Sc  tau(   5) = (   5.8114910   4.1114648  12.3721220  )
         6           Sc  tau(   6) = (   1.9384961   1.3714310  12.3721220  )
         7           Zn  tau(   7) = (   2.9057455   4.1114648  12.3721220  )
         8           Zn  tau(   8) = (   4.8442417   1.3714310  12.3721220  )
         9           Sc  tau(   9) = (   3.8761792   2.7422806  14.7156059  )
        10           Sc  tau(  10) = (   0.0031762   0.0022405  14.7155928  )
        11           Zn  tau(  11) = (   0.9710925   2.7427637  14.7169976  )
        12           Zn  tau(  12) = (   2.9095600   0.0027076  14.7169700  )

     number of k points=    74  Fermi-Dirac smearing, width (Ry)=  0.0100
                       cart. coord. in units 2pi/alat
        k(    1) = (   0.0000000   0.0000000   0.0000000), wk =   0.0138889
        k(    2) = (   0.0000000   0.0152066   0.0000000), wk =   0.0277778
        k(    3) = (   0.0000000   0.0304132   0.0000000), wk =   0.0277778
        k(    4) = (   0.0000000   0.0456199   0.0000000), wk =   0.0277778
        k(    5) = (   0.0000000   0.0608265   0.0000000), wk =   0.0277778
        k(    6) = (   0.0000000   0.0760331   0.0000000), wk =   0.0277778
        k(    7) = (   0.0000000  -0.0912397   0.0000000), wk =   0.0138889
        k(    8) = (   0.0143394  -0.0050619   0.0000000), wk =   0.0277778
        k(    9) = (   0.0143394   0.0101447   0.0000000), wk =   0.0277778
        k(   10) = (   0.0143394   0.0253513   0.0000000), wk =   0.0277778
        k(   11) = (   0.0143394   0.0405580   0.0000000), wk =   0.0277778
        k(   12) = (   0.0143394   0.0557646   0.0000000), wk =   0.0277778
        k(   13) = (   0.0143394   0.0709712   0.0000000), wk =   0.0277778
        k(   14) = (   0.0143394  -0.0963016   0.0000000), wk =   0.0277778
        k(   15) = (   0.0143394  -0.0810950   0.0000000), wk =   0.0277778
        k(   16) = (   0.0143394  -0.0658884   0.0000000), wk =   0.0277778
        k(   17) = (   0.0143394  -0.0506818   0.0000000), wk =   0.0277778
        k(   18) = (   0.0143394  -0.0354752   0.0000000), wk =   0.0277778
        k(   19) = (   0.0143394  -0.0202685   0.0000000), wk =   0.0277778
        k(   20) = (   0.0286788  -0.0101238   0.0000000), wk =   0.0277778
        k(   21) = (   0.0286788   0.0050828   0.0000000), wk =   0.0277778
        k(   22) = (   0.0286788   0.0202894   0.0000000), wk =   0.0277778
        k(   23) = (   0.0286788   0.0354961   0.0000000), wk =   0.0277778
        k(   24) = (   0.0286788   0.0507027   0.0000000), wk =   0.0277778
        k(   25) = (   0.0286788   0.0659093   0.0000000), wk =   0.0277778
        k(   26) = (   0.0286788  -0.1013635   0.0000000), wk =   0.0277778
        k(   27) = (   0.0286788  -0.0861569   0.0000000), wk =   0.0277778
        k(   28) = (   0.0286788  -0.0709503   0.0000000), wk =   0.0277778
        k(   29) = (   0.0286788  -0.0557437   0.0000000), wk =   0.0277778
        k(   30) = (   0.0286788  -0.0405371   0.0000000), wk =   0.0277778
        k(   31) = (   0.0286788  -0.0253304   0.0000000), wk =   0.0277778
        k(   32) = (   0.0430182  -0.0151857   0.0000000), wk =   0.0277778
        k(   33) = (   0.0430182   0.0000209   0.0000000), wk =   0.0277778
        k(   34) = (   0.0430182   0.0152275   0.0000000), wk =   0.0277778
        k(   35) = (   0.0430182   0.0304342   0.0000000), wk =   0.0277778
        k(   36) = (   0.0430182   0.0456408   0.0000000), wk =   0.0277778
        k(   37) = (   0.0430182   0.0608474   0.0000000), wk =   0.0277778
        k(   38) = (   0.0430182  -0.1064255   0.0000000), wk =   0.0277778
        k(   39) = (   0.0430182  -0.0912188   0.0000000), wk =   0.0277778
        k(   40) = (   0.0430182  -0.0760122   0.0000000), wk =   0.0277778
        k(   41) = (   0.0430182  -0.0608056   0.0000000), wk =   0.0277778
        k(   42) = (   0.0430182  -0.0455990   0.0000000), wk =   0.0277778
        k(   43) = (   0.0430182  -0.0303923   0.0000000), wk =   0.0277778
        k(   44) = (   0.0573576  -0.0202476   0.0000000), wk =   0.0277778
        k(   45) = (   0.0573576  -0.0050410   0.0000000), wk =   0.0277778
        k(   46) = (   0.0573576   0.0101656   0.0000000), wk =   0.0277778
        k(   47) = (   0.0573576   0.0253723   0.0000000), wk =   0.0277778
        k(   48) = (   0.0573576   0.0405789   0.0000000), wk =   0.0277778
        k(   49) = (   0.0573576   0.0557855   0.0000000), wk =   0.0277778
        k(   50) = (   0.0573576  -0.1114874   0.0000000), wk =   0.0277778
        k(   51) = (   0.0573576  -0.0962807   0.0000000), wk =   0.0277778
        k(   52) = (   0.0573576  -0.0810741   0.0000000), wk =   0.0277778
        k(   53) = (   0.0573576  -0.0658675   0.0000000), wk =   0.0277778
        k(   54) = (   0.0573576  -0.0506609   0.0000000), wk =   0.0277778
        k(   55) = (   0.0573576  -0.0354542   0.0000000), wk =   0.0277778
        k(   56) = (   0.0716970  -0.0253095   0.0000000), wk =   0.0277778
        k(   57) = (   0.0716970  -0.0101029   0.0000000), wk =   0.0277778
        k(   58) = (   0.0716970   0.0051037   0.0000000), wk =   0.0277778
        k(   59) = (   0.0716970   0.0203104   0.0000000), wk =   0.0277778
        k(   60) = (   0.0716970   0.0355170   0.0000000), wk =   0.0277778
        k(   61) = (   0.0716970   0.0507236   0.0000000), wk =   0.0277778
        k(   62) = (   0.0716970  -0.1165493   0.0000000), wk =   0.0277778
        k(   63) = (   0.0716970  -0.1013426   0.0000000), wk =   0.0277778
        k(   64) = (   0.0716970  -0.0861360   0.0000000), wk =   0.0277778
        k(   65) = (   0.0716970  -0.0709294   0.0000000), wk =   0.0277778
        k(   66) = (   0.0716970  -0.0557228   0.0000000), wk =   0.0277778
        k(   67) = (   0.0716970  -0.0405161   0.0000000), wk =   0.0277778
        k(   68) = (  -0.0860364   0.0303714   0.0000000), wk =   0.0138889
        k(   69) = (  -0.0860364   0.0455780   0.0000000), wk =   0.0277778
        k(   70) = (  -0.0860364   0.0607847   0.0000000), wk =   0.0277778
        k(   71) = (  -0.0860364   0.0759913   0.0000000), wk =   0.0277778
        k(   72) = (  -0.0860364   0.0911979   0.0000000), wk =   0.0277778
        k(   73) = (  -0.0860364   0.1064045   0.0000000), wk =   0.0277778
        k(   74) = (  -0.0860364  -0.0608683   0.0000000), wk =   0.0138889

     Check: negative core charge=   -0.000001

     Initial potential from superposition of free atoms

     starting charge  137.96228, renormalised to  138.00000

     negative rho (up, down):  4.015E-04 0.000E+00

     %%%%%%%%%%%%%%%%%%%%%%%%%%%%%%%%%%%%%%%%%%%%%%%%%%%%%%%%%%%%%%%%%%%%%%%%
     %                                                                      %
     % You are using vdW-DF, which was implemented by the Thonhauser group. %
     % Please cite the following two papers that made this development      %
     % possible and the two reviews that describe the various versions:     %
     %                                                                      %
     %   T. Thonhauser et al., PRL 115, 136402 (2015).                      %
     %   T. Thonhauser et al., PRB 76, 125112 (2007).                       %
     %   K. Berland et al., Rep. Prog. Phys. 78, 066501 (2015).             %
     %   D.C. Langreth et al., J. Phys.: Condens. Matter 21, 084203 (2009). %
     %                                                                      %
     %                                                                      %
     % If you are calculating the stress with vdW-DF, please also cite:     %
     %                                                                      %
     %   R. Sabatini et al., J. Phys.: Condens. Matter 24, 424209 (2012).   %
     %                                                                      %
     %%%%%%%%%%%%%%%%%%%%%%%%%%%%%%%%%%%%%%%%%%%%%%%%%%%%%%%%%%%%%%%%%%%%%%%%

     Adding external electric field

     Computed dipole along edir(3) :
        Dipole                0.0000 Ry au,          0.0000 Debye
        Dipole field          0.0000 Ry au,

        Potential amp.       -0.0000 Ry
        Total length         45.5908 bohr

     Starting wfcs are  114 randomized atomic wfcs

     Self-consistent Calculation

     iteration #  1     ecut=    55.12 Ry     beta= 0.10
     Davidson diagonalization with overlap
     ethr =  1.00E-02,  avg # of iterations =  1.9

[...]

     total energy              =   -1488.65864694 Ry
     estimated scf accuracy    <       1.89457514 Ry

[...]

     iteration #  6     ecut=    55.12 Ry     beta= 0.10
     Davidson diagonalization with overlap
     c_bands:  1 eigenvalues not converged
     c_bands:  1 eigenvalues not converged
     c_bands:  1 eigenvalues not converged
     c_bands:  2 eigenvalues not converged
     c_bands:  2 eigenvalues not converged
     c_bands:  1 eigenvalues not converged
     c_bands:  1 eigenvalues not converged
     c_bands:  1 eigenvalues not converged
     c_bands:  2 eigenvalues not converged
     c_bands:  1 eigenvalues not converged
     c_bands:  1 eigenvalues not converged
     c_bands:  1 eigenvalues not converged
     c_bands:  1 eigenvalues not converged
     c_bands:  1 eigenvalues not converged
     c_bands:  1 eigenvalues not converged
     c_bands:  2 eigenvalues not converged
     c_bands:  1 eigenvalues not converged
     c_bands:  1 eigenvalues not converged
     c_bands:  3 eigenvalues not converged
     c_bands:  3 eigenvalues not converged
     c_bands:  1 eigenvalues not converged
     c_bands:  1 eigenvalues not converged
     c_bands:  1 eigenvalues not converged
     c_bands:  1 eigenvalues not converged
     c_bands:  2 eigenvalues not converged
     c_bands:  1 eigenvalues not converged
     c_bands:  3 eigenvalues not converged
     c_bands:  1 eigenvalues not converged
     c_bands:  3 eigenvalues not converged
     ethr =  3.14E-05,  avg # of iterations = 17.4

[...]

     iteration # 18     ecut=    55.12 Ry     beta= 0.10
     Davidson diagonalization with overlap
     ethr =  1.03E-07,  avg # of iterations =  3.4

[...]

     total energy              =   -1489.06499265 Ry
     estimated scf accuracy    <       0.00002321 Ry

     iteration # 20     ecut=    55.12 Ry     beta= 0.10
     Davidson diagonalization with overlap
     c_bands:  1 eigenvalues not converged
     ethr =  1.68E-08,  avg # of iterations =  3.4

[...]

     Adding external electric field

     Computed dipole along edir(3) :
        Dipole               -0.0018 Ry au,         -0.0045 Debye
        Dipole field         -0.0000 Ry au,

        Potential amp.        0.0004 Ry
        Total length         45.5908 bohr

     End of self-consistent calculation

          k = 0.0000 0.0000 0.0000 ( 36657 PWs)   bands (ev):

   -50.0738 -50.0624 -50.0602 -50.0487 -49.7975 -49.7839 -28.7387 -28.7270
   -28.7256 -28.7101 -28.6470 -28.6459 -28.6377 -28.6377 -28.6340 -28.6206
   -28.4926 -28.4839 -28.4587 -28.3963 -28.3701 -28.3679 -28.3528 -28.2981
    -7.1094  -7.1057  -7.1049  -7.0987  -7.0776  -7.0464  -7.0435  -7.0292
    -6.9969  -6.9958  -6.9767  -6.9616  -6.9559  -6.9545  -6.9538  -6.9513
    -6.9433  -6.9387  -6.9264  -6.9125  -6.9117  -6.9063  -6.8931  -6.8675
    -6.8391  -6.8207  -6.7800  -6.7745  -6.7520  -6.7205  -6.7135  -5.3263
    -3.7297  -3.4777  -3.1872  -3.0540  -1.2428  -1.0625  -0.6740  -0.3270
    -0.3037  -0.2365  -0.0704   0.0126   0.0800   0.2206   0.6967   0.7108
     0.7211   0.8989   0.9602   0.9815   1.0450   1.0633   1.4768   1.6283
     1.6431   1.9121   1.9686

[...]

          k = 0.0717-0.0405 0.0000 ( 36752 PWs)   bands (ev):

[...]

          k =-0.0860 0.0304 0.0000 ( 36754 PWs)   bands (ev):

[...]

          k =-0.0860-0.0609 0.0000 ( 36772 PWs)   bands (ev):

   -50.0735 -50.0620 -50.0605 -50.0489 -49.7977 -49.7836 -28.7435 -28.7259
   -28.7224 -28.7102 -28.6582 -28.6479 -28.6398 -28.6396 -28.6303 -28.6177
   -28.4926 -28.4839 -28.4587 -28.3869 -28.3786 -28.3715 -28.3518 -28.2990
    -7.0516  -7.0359  -7.0358  -7.0335  -7.0195  -7.0151  -7.0135  -6.9856
    -6.9820  -6.9620  -6.9485  -6.9359  -6.9354  -6.9350  -6.9256  -6.9150
    -6.9107  -6.9103  -6.9098  -6.8987  -6.8956  -6.8864  -6.8724  -6.8542
    -6.8426  -6.8407  -6.8133  -6.7817  -6.7443  -6.7025  -5.1551  -5.0989
    -4.0884  -4.0251  -3.1308  -2.9009  -2.7879  -1.7051  -1.4545  -1.2270
    -1.1767  -1.1578  -1.0510  -0.3119  -0.2213   0.0174   0.3916   0.4442
     0.7060   0.8382   1.2041   1.2178   1.2849   1.4949   1.5021   1.5152
     1.5322   1.6290   1.7939

     the Fermi energy is     0.1854 ev

!    total energy              =   -1489.06499642 Ry
     estimated scf accuracy    <       0.00000642 Ry
     smearing contrib. (-TS)   =      -0.06111514 Ry
     internal energy E=F+TS    =   -1489.00388127 Ry

     The total energy is F=E-TS. E is the sum of the following terms:
     one-electron contribution =   -9219.43898214 Ry
     hartree contribution      =    4673.66655779 Ry
     xc contribution           =    -399.59680015 Ry
     ewald contribution        =    3456.36534322 Ry
     electric field correction =       0.00000001 Ry

     convergence has been achieved in  20 iterations

     negative rho (up, down):  2.909E-04 0.000E+00

     Forces acting on atoms (cartesian axes, Ry/au):

     atom    1 type  1   force =     0.00008054    0.00001946    0.00084936
     atom    2 type  1   force =     0.00004885    0.00006871    0.00088042
     atom    3 type  2   force =     0.00002860    0.00001324    0.00148544
     atom    4 type  2   force =    -0.00001908   -0.00002683    0.00144862
     atom    5 type  1   force =    -0.00003558   -0.00003334   -0.00219196
     atom    6 type  1   force =    -0.00002887   -0.00001715   -0.00220040
     atom    7 type  2   force =    -0.00000789   -0.00000513   -0.00272037
     atom    8 type  2   force =     0.00001178    0.00001646   -0.00275478
     atom    9 type  1   force =     0.00006488    0.00002649    0.00254696
     atom   10 type  1   force =     0.00002097    0.00005527    0.00254941
     atom   11 type  2   force =    -0.00006827   -0.00005574    0.00006482
     atom   12 type  2   force =    -0.00009594   -0.00006145    0.00004248

     Total force =     0.006594     Total SCF correction =     0.005668
     SCF correction compared to forces is large: reduce conv_thr to get better values

     Writing output data file ./Sc2Zn2/Sc2Zn2_beef.save/

     General routines

     Parallel routines

   This run was terminated on:   1:35:26  10Jul2022

   JOB DONE.