     Program PWSCF v.6.6 starts on 10Jul2022 at 20:24:41

     R & G space division:  proc/nbgrp/npool/nimage =      37
     Fft bands division:     nmany     =       1
     Reading input from Sc2Zr2.in
Warning: card &CELL ignored
Warning: card / ignored

     Current dimensions of program PWSCF are:
     Max number of different atomic species (ntypx) = 10
     Max number of k-points (npk) =  40000
     Max angular momentum in pseudopotentials (lmaxx) =  3
     Presently stress not available with electric field and gates

     Message from routine cell_base_init:
     DEPRECATED: use true lattice parameter, not A to a.u. conversion factor
     file Sc.pbe-spn-rrkjus_psl.1.0.0.UPF: wavefunction(s)  3S 3P renormalized
     file Zr.pbe-spn-rrkjus_psl.1.0.0.UPF: wavefunction(s)  4S renormalized

     IMPORTANT: XC functional enforced from input :
     Exchange-correlation= BEEF-VDW
                           (   1   4  43  14   2   0   0)
     Any further DFT definition will be discarded
     Please, verify this is what you really want

     Subspace diagonalization in iterative solution of the eigenvalue problem:
     a serial algorithm will be used

     bravais-lattice index     =            0
     lattice parameter (alat)  =       1.8897  a.u.
     unit-cell volume          =    6081.9265 (a.u.)^3
     number of atoms/cell      =           12
     number of atomic types    =            2
     number of electrons       =       138.00
     number of Kohn-Sham states=           83
     kinetic-energy cutoff     =      55.1240  Ry
     charge density cutoff     =     551.2396  Ry
     convergence threshold     =      1.0E-05
     mixing beta               =       0.1000
     number of iterations used =           10  plain     mixing
     Exchange-correlation= BEEF-VDW
                           (   1   4  43  14   2   0   0)

     celldm(1)=   1.889726  celldm(2)=   0.000000  celldm(3)=   0.000000
     celldm(4)=   0.000000  celldm(5)=   0.000000  celldm(6)=   0.000000

     crystal axes: (cart. coord. in units of alat)
               a(1) = (   6.388562   0.000000   0.000000 )
               a(2) = (  -3.194281   5.588742   0.000000 )
               a(3) = (   0.000000   0.000000  25.242216 )

     reciprocal axes: (cart. coord. in units 2 pi/alat)
               b(1) = (  0.156530  0.089466 -0.000000 )
               b(2) = (  0.000000  0.178931  0.000000 )
               b(3) = (  0.000000 -0.000000  0.039616 )

     PseudoPot. # 1 for Sc read from file:
     ../pseudo/Sc.pbe-spn-rrkjus_psl.1.0.0.UPF
     MD5 check sum: f739f74c200e509e5c24cbe053202ee5
     Pseudo is Ultrasoft + core correction, Zval = 11.0
     Generated using "atomic" code by A. Dal Corso v.6.2.2
     Using radial grid of 1173 points,  6 beta functions with:
                l(1) =   0
                l(2) =   0
                l(3) =   1
                l(4) =   1
                l(5) =   2
                l(6) =   2
     Q(r) pseudized with 0 coefficients

     PseudoPot. # 2 for Zr read from file:
     ../pseudo/Zr.pbe-spn-rrkjus_psl.1.0.0.UPF
     MD5 check sum: 3d17ee99aa1707c2ccb6b09ed65e51a1
     Pseudo is Ultrasoft + core correction, Zval = 12.0
     Generated using "atomic" code by A. Dal Corso v.6.2.2
     Using radial grid of 1225 points,  6 beta functions with:
                l(1) =   0
                l(2) =   0
                l(3) =   1
                l(4) =   1
                l(5) =   2
                l(6) =   2
     Q(r) pseudized with 0 coefficients

     atomic species   valence    mass     pseudopotential
        Sc            11.00    44.95591     Sc( 1.00)
        Zr            12.00    91.22400     Zr( 1.00)

     No symmetry found

   Cartesian axes

     site n.     atom                  positions (alat units)
         1           Sc  tau(   1) = (   0.0000000   0.0000000  10.0000000  )
         2           Sc  tau(   2) = (   3.1942809   0.0000000  10.0000000  )
         3           Zr  tau(   3) = (   1.5971404   2.7943711  10.0000000  )
         4           Zr  tau(   4) = (  -1.5971404   2.7943711  10.0000000  )
         5           Sc  tau(   5) = (   3.1942809   1.8257114  12.6211082  )
         6           Sc  tau(   6) = (   0.0000000   1.8257114  12.6211082  )
         7           Zr  tau(   7) = (  -1.5971404   4.6200825  12.6211082  )
         8           Zr  tau(   8) = (   1.5971404   4.6200825  12.6211082  )
         9           Sc  tau(   9) = (  -0.0000034   3.6548078  15.2161083  )
        10           Sc  tau(  10) = (   3.1942916   3.6547443  15.2160466  )
        11           Zr  tau(  11) = (   4.7914522   0.8399397  15.0761942  )
        12           Zr  tau(  12) = (   1.5971099   0.8399556  15.0761990  )

     number of k points=    74  Fermi-Dirac smearing, width (Ry)=  0.0100
                       cart. coord. in units 2pi/alat
        k(    1) = (   0.0000000   0.0000000   0.0000000), wk =   0.0138889
        k(    2) = (   0.0000000   0.0149109   0.0000000), wk =   0.0277778
        k(    3) = (   0.0000000   0.0298219   0.0000000), wk =   0.0277778
        k(    4) = (   0.0000000   0.0447328   0.0000000), wk =   0.0277778
        k(    5) = (   0.0000000   0.0596437   0.0000000), wk =   0.0277778
        k(    6) = (   0.0000000   0.0745546   0.0000000), wk =   0.0277778
        k(    7) = (   0.0000000  -0.0894656   0.0000000), wk =   0.0138889
        k(    8) = (   0.0130441   0.0074555   0.0000000), wk =   0.0277778
        k(    9) = (   0.0130441   0.0223664   0.0000000), wk =   0.0277778
        k(   10) = (   0.0130441   0.0372773   0.0000000), wk =   0.0277778
        k(   11) = (   0.0130441   0.0521883   0.0000000), wk =   0.0277778
        k(   12) = (   0.0130441   0.0670992   0.0000000), wk =   0.0277778
        k(   13) = (   0.0130441   0.0820101   0.0000000), wk =   0.0277778
        k(   14) = (   0.0130441  -0.0820101   0.0000000), wk =   0.0277778
        k(   15) = (   0.0130441  -0.0670992   0.0000000), wk =   0.0277778
        k(   16) = (   0.0130441  -0.0521883   0.0000000), wk =   0.0277778
        k(   17) = (   0.0130441  -0.0372773   0.0000000), wk =   0.0277778
        k(   18) = (   0.0130441  -0.0223664   0.0000000), wk =   0.0277778
        k(   19) = (   0.0130441  -0.0074555   0.0000000), wk =   0.0277778
        k(   20) = (   0.0260883   0.0149109   0.0000000), wk =   0.0277778
        k(   21) = (   0.0260883   0.0298219   0.0000000), wk =   0.0277778
        k(   22) = (   0.0260883   0.0447328   0.0000000), wk =   0.0277778
        k(   23) = (   0.0260883   0.0596437   0.0000000), wk =   0.0277778
        k(   24) = (   0.0260883   0.0745546   0.0000000), wk =   0.0277778
        k(   25) = (   0.0260883   0.0894656   0.0000000), wk =   0.0277778
        k(   26) = (   0.0260883  -0.0745546   0.0000000), wk =   0.0277778
        k(   27) = (   0.0260883  -0.0596437   0.0000000), wk =   0.0277778
        k(   28) = (   0.0260883  -0.0447328   0.0000000), wk =   0.0277778
        k(   29) = (   0.0260883  -0.0298219   0.0000000), wk =   0.0277778
        k(   30) = (   0.0260883  -0.0149109   0.0000000), wk =   0.0277778
        k(   31) = (   0.0260883  -0.0000000   0.0000000), wk =   0.0277778
        k(   32) = (   0.0391324   0.0223664   0.0000000), wk =   0.0277778
        k(   33) = (   0.0391324   0.0372773   0.0000000), wk =   0.0277778
        k(   34) = (   0.0391324   0.0521883   0.0000000), wk =   0.0277778
        k(   35) = (   0.0391324   0.0670992   0.0000000), wk =   0.0277778
        k(   36) = (   0.0391324   0.0820101   0.0000000), wk =   0.0277778
        k(   37) = (   0.0391324   0.0969210   0.0000000), wk =   0.0277778
        k(   38) = (   0.0391324  -0.0670992   0.0000000), wk =   0.0277778
        k(   39) = (   0.0391324  -0.0521883   0.0000000), wk =   0.0277778
        k(   40) = (   0.0391324  -0.0372773   0.0000000), wk =   0.0277778
        k(   41) = (   0.0391324  -0.0223664   0.0000000), wk =   0.0277778
        k(   42) = (   0.0391324  -0.0074555   0.0000000), wk =   0.0277778
        k(   43) = (   0.0391324   0.0074555   0.0000000), wk =   0.0277778
        k(   44) = (   0.0521766   0.0298219   0.0000000), wk =   0.0277778
        k(   45) = (   0.0521766   0.0447328   0.0000000), wk =   0.0277778
        k(   46) = (   0.0521766   0.0596437   0.0000000), wk =   0.0277778
        k(   47) = (   0.0521766   0.0745546   0.0000000), wk =   0.0277778
        k(   48) = (   0.0521766   0.0894656   0.0000000), wk =   0.0277778
        k(   49) = (   0.0521766   0.1043765   0.0000000), wk =   0.0277778
        k(   50) = (   0.0521766  -0.0596437   0.0000000), wk =   0.0277778
        k(   51) = (   0.0521766  -0.0447328   0.0000000), wk =   0.0277778
        k(   52) = (   0.0521766  -0.0298219   0.0000000), wk =   0.0277778
        k(   53) = (   0.0521766  -0.0149109   0.0000000), wk =   0.0277778
        k(   54) = (   0.0521766   0.0000000   0.0000000), wk =   0.0277778
        k(   55) = (   0.0521766   0.0149109   0.0000000), wk =   0.0277778
        k(   56) = (   0.0652207   0.0372773   0.0000000), wk =   0.0277778
        k(   57) = (   0.0652207   0.0521883   0.0000000), wk =   0.0277778
        k(   58) = (   0.0652207   0.0670992   0.0000000), wk =   0.0277778
        k(   59) = (   0.0652207   0.0820101   0.0000000), wk =   0.0277778
        k(   60) = (   0.0652207   0.0969210   0.0000000), wk =   0.0277778
        k(   61) = (   0.0652207   0.1118320   0.0000000), wk =   0.0277778
        k(   62) = (   0.0652207  -0.0521883   0.0000000), wk =   0.0277778
        k(   63) = (   0.0652207  -0.0372773   0.0000000), wk =   0.0277778
        k(   64) = (   0.0652207  -0.0223664   0.0000000), wk =   0.0277778
        k(   65) = (   0.0652207  -0.0074555   0.0000000), wk =   0.0277778
        k(   66) = (   0.0652207   0.0074555   0.0000000), wk =   0.0277778
        k(   67) = (   0.0652207   0.0223664   0.0000000), wk =   0.0277778
        k(   68) = (  -0.0782649  -0.0447328   0.0000000), wk =   0.0138889
        k(   69) = (  -0.0782649  -0.0298219   0.0000000), wk =   0.0277778
        k(   70) = (  -0.0782649  -0.0149109   0.0000000), wk =   0.0277778
        k(   71) = (  -0.0782649   0.0000000   0.0000000), wk =   0.0277778
        k(   72) = (  -0.0782649   0.0149109   0.0000000), wk =   0.0277778
        k(   73) = (  -0.0782649   0.0298219   0.0000000), wk =   0.0277778
        k(   74) = (  -0.0782649  -0.1341984   0.0000000), wk =   0.0138889

     Check: negative core charge=   -0.000001

     Initial potential from superposition of free atoms

     starting charge  137.97173, renormalised to  138.00000

     negative rho (up, down):  4.992E-04 0.000E+00

     %%%%%%%%%%%%%%%%%%%%%%%%%%%%%%%%%%%%%%%%%%%%%%%%%%%%%%%%%%%%%%%%%%%%%%%%
     %                                                                      %
     % You are using vdW-DF, which was implemented by the Thonhauser group. %
     % Please cite the following two papers that made this development      %
     % possible and the two reviews that describe the various versions:     %
     %                                                                      %
     %   T. Thonhauser et al., PRL 115, 136402 (2015).                      %
     %   T. Thonhauser et al., PRB 76, 125112 (2007).                       %
     %   K. Berland et al., Rep. Prog. Phys. 78, 066501 (2015).             %
     %   D.C. Langreth et al., J. Phys.: Condens. Matter 21, 084203 (2009). %
     %                                                                      %
     %                                                                      %
     % If you are calculating the stress with vdW-DF, please also cite:     %
     %                                                                      %
     %   R. Sabatini et al., J. Phys.: Condens. Matter 24, 424209 (2012).   %
     %                                                                      %
     %%%%%%%%%%%%%%%%%%%%%%%%%%%%%%%%%%%%%%%%%%%%%%%%%%%%%%%%%%%%%%%%%%%%%%%%

     Adding external electric field

     Computed dipole along edir(3) :
        Dipole                0.0002 Ry au,          0.0004 Debye
        Dipole field          0.0000 Ry au,

        Potential amp.       -0.0000 Ry
        Total length         46.5084 bohr

     Starting wfcs are  138 randomized atomic wfcs

     Self-consistent Calculation

     iteration #  1     ecut=    55.12 Ry     beta= 0.10
     Davidson diagonalization with overlap
     ethr =  1.00E-02,  avg # of iterations =  2.0

[...]

     total energy              =   -1190.05388408 Ry
     estimated scf accuracy    <       7.12932363 Ry

[...]

     iteration #  8     ecut=    55.12 Ry     beta= 0.10
     Davidson diagonalization with overlap
     c_bands:  3 eigenvalues not converged
     ethr =  7.89E-05,  avg # of iterations =  3.2

[...]

     iteration # 15     ecut=    55.12 Ry     beta= 0.10
     Davidson diagonalization with overlap
     c_bands:  1 eigenvalues not converged
     c_bands:  1 eigenvalues not converged
     c_bands:  1 eigenvalues not converged
     c_bands:  3 eigenvalues not converged
     c_bands:  1 eigenvalues not converged
     c_bands:  1 eigenvalues not converged
     ethr =  1.60E-07,  avg # of iterations = 14.0

[...]

     total energy              =   -1190.99311737 Ry
     estimated scf accuracy    <       0.00005549 Ry

     iteration # 18     ecut=    55.12 Ry     beta= 0.10
     Davidson diagonalization with overlap
     ethr =  4.02E-08,  avg # of iterations =  7.3

[...]

     Adding external electric field

     Computed dipole along edir(3) :
        Dipole               -0.0189 Ry au,         -0.0481 Debye
        Dipole field         -0.0000 Ry au,

        Potential amp.        0.0036 Ry
        Total length         46.5084 bohr

     End of self-consistent calculation

          k = 0.0000 0.0000 0.0000 ( 42023 PWs)   bands (ev):

   -48.9703 -48.9694 -48.9437 -48.9429 -48.3927 -48.3599 -48.2977 -48.2559
   -48.1558 -48.1137 -47.8857 -47.8411 -27.6880 -27.6796 -27.6237 -27.5982
   -27.5880 -27.5734 -27.5706 -27.5633 -27.5254 -27.5174 -27.4212 -27.4173
   -27.1318 -27.0498 -27.0185 -26.9848 -26.9798 -26.8433 -26.4261 -26.3317
   -26.3057 -26.2939 -26.2441 -26.2071 -26.1912 -26.1600 -26.0965 -26.0702
   -26.0684 -25.9624 -25.8468 -25.8457 -25.8126 -25.7363 -25.6985 -25.6005
    -3.8989  -2.8065  -1.7138  -1.3413  -1.2264  -1.0757  -1.0362  -0.8402
    -0.8000  -0.7419  -0.6496  -0.3764  -0.2973  -0.2827  -0.1868   0.1376
     0.3673   0.4900   0.9291   0.9902   1.4259   1.4402   1.4592   1.5397
     1.5731   1.6695   1.8709   1.9676   2.0742   2.1053   2.1889   2.2688
     2.2804   2.3342   2.3966

[...]

          k = 0.0652 0.0224 0.0000 ( 42000 PWs)   bands (ev):

[...]

          k =-0.0783-0.0447 0.0000 ( 42068 PWs)   bands (ev):

[...]

          k =-0.0783-0.1342 0.0000 ( 42068 PWs)   bands (ev):

   -48.9569 -48.9565 -48.9559 -48.9558 -48.3758 -48.3757 -48.2774 -48.2772
   -48.1353 -48.1352 -47.8640 -47.8639 -27.6005 -27.6002 -27.5890 -27.5887
   -27.5548 -27.5545 -27.5493 -27.5492 -27.5288 -27.5284 -27.5242 -27.5240
   -27.0068 -27.0067 -26.9979 -26.9978 -26.9786 -26.9786 -26.3215 -26.3213
   -26.2317 -26.2316 -26.2118 -26.2116 -26.1821 -26.1820 -26.1022 -26.1022
   -26.0827 -26.0827 -25.8525 -25.8524 -25.8338 -25.8337 -25.7216 -25.7215
    -2.5052  -2.5052  -1.5442  -1.5442  -0.7991  -0.7991  -0.5379  -0.5379
    -0.3448  -0.3447   0.2036   0.2037   0.3033   0.3033   0.5050   0.5050
     0.6324   0.6324   0.7104   0.7104   0.7793   0.7793   0.9033   0.9033
     1.0347   1.0348   1.2083   1.2083   1.3314   1.3315   1.5554   1.5555
     1.9015   1.9062   1.9969

     the Fermi energy is     0.9270 ev

!    total energy              =   -1190.99312391 Ry
     estimated scf accuracy    <       0.00000603 Ry
     smearing contrib. (-TS)   =      -0.10135461 Ry
     internal energy E=F+TS    =   -1190.89176930 Ry

     The total energy is F=E-TS. E is the sum of the following terms:
     one-electron contribution =   -7757.38002745 Ry
     hartree contribution      =    3866.48589164 Ry
     xc contribution           =    -220.37867700 Ry
     ewald contribution        =    2920.38104277 Ry
     electric field correction =       0.00000074 Ry

     convergence has been achieved in  18 iterations

     negative rho (up, down):  4.212E-04 0.000E+00

     Forces acting on atoms (cartesian axes, Ry/au):

     atom    1 type  1   force =    -0.00000806   -0.00160738    0.00086633
     atom    2 type  1   force =     0.00000568   -0.00160144    0.00082659
     atom    3 type  2   force =    -0.00001511    0.00319250    0.01655383
     atom    4 type  2   force =     0.00001417    0.00319946    0.01657844
     atom    5 type  1   force =    -0.00001087    0.00204529   -0.01006258
     atom    6 type  1   force =     0.00000843    0.00204890   -0.01007719
     atom    7 type  2   force =    -0.00000430   -0.00256936   -0.00404585
     atom    8 type  2   force =     0.00001169   -0.00258915   -0.00403062
     atom    9 type  1   force =     0.00001401   -0.00142205   -0.00171257
     atom   10 type  1   force =    -0.00001758   -0.00140685   -0.00171261
     atom   11 type  2   force =    -0.00000997    0.00035248   -0.00158155
     atom   12 type  2   force =     0.00001192    0.00035759   -0.00160221

     Total force =     0.029124     Total SCF correction =     0.005868
     SCF correction compared to forces is large: reduce conv_thr to get better values

     Writing output data file ./Sc2Zr2/Sc2Zr2_beef.save/

     General routines

     Parallel routines

   This run was terminated on:  21:51: 3  10Jul2022

   JOB DONE.