     Program PWSCF v.6.6 starts on 26Jun2022 at  2:12:38

     R & G space division:  proc/nbgrp/npool/nimage =      37
     Fft bands division:     nmany     =       1
     Reading input from Ta2Au2.in
Warning: card &CELL ignored
Warning: card / ignored

     Current dimensions of program PWSCF are:
     Max number of different atomic species (ntypx) = 10
     Max number of k-points (npk) =  40000
     Max angular momentum in pseudopotentials (lmaxx) =  3
     Presently stress not available with electric field and gates

     Message from routine cell_base_init:
     DEPRECATED: use true lattice parameter, not A to a.u. conversion factor
     file Ta.pbe-spfn-rrkjus_psl.1.0.0.UPF: wavefunction(s)  5S 5P renormalized

     IMPORTANT: XC functional enforced from input :
     Exchange-correlation= BEEF-VDW
                           (   1   4  43  14   2   0   0)
     Any further DFT definition will be discarded
     Please, verify this is what you really want

     Subspace diagonalization in iterative solution of the eigenvalue problem:
     a serial algorithm will be used

     Found symmetry operation: I + (  0.5000  0.0000  0.0000)
     This is a supercell, fractional translations are disabled

     bravais-lattice index     =            0
     lattice parameter (alat)  =       1.8897  a.u.
     unit-cell volume          =    4974.5513 (a.u.)^3
     number of atoms/cell      =           12
     number of atomic types    =            2
     number of electrons       =       228.00
     number of Kohn-Sham states=          137
     kinetic-energy cutoff     =      55.1240  Ry
     charge density cutoff     =     551.2396  Ry
     convergence threshold     =      1.0E-05
     mixing beta               =       0.1000
     number of iterations used =           10  plain     mixing
     Exchange-correlation= BEEF-VDW
                           (   1   4  43  14   2   0   0)

     celldm(1)=   1.889726  celldm(2)=   0.000000  celldm(3)=   0.000000
     celldm(4)=   0.000000  celldm(5)=   0.000000  celldm(6)=   0.000000

     crystal axes: (cart. coord. in units of alat)
               a(1) = (   5.830239   0.000000   0.000000 )
               a(2) = (  -2.915119   5.101403   0.000000 )
               a(3) = (   0.000000   0.000000  24.784571 )

     reciprocal axes: (cart. coord. in units 2 pi/alat)
               b(1) = (  0.171520  0.098012 -0.000000 )
               b(2) = (  0.000000  0.196025  0.000000 )
               b(3) = (  0.000000 -0.000000  0.040348 )

     PseudoPot. # 1 for Ta read from file:
     ../pseudo/Ta.pbe-spfn-rrkjus_psl.1.0.0.UPF
     MD5 check sum: 39d7d349fe394e56adf8454eb9315fbb
     Pseudo is Ultrasoft + core correction, Zval = 27.0
     Generated using "atomic" code by A. Dal Corso v.6.3
     Using radial grid of 1273 points,  8 beta functions with:
                l(1) =   0
                l(2) =   0
                l(3) =   1
                l(4) =   1
                l(5) =   2
                l(6) =   2
                l(7) =   3
                l(8) =   3
     Q(r) pseudized with 0 coefficients

     PseudoPot. # 2 for Au read from file:
     ../pseudo/Au.pbe-n-rrkjus_psl.1.0.0.UPF
     MD5 check sum: d7e77ba19504afed2c9b41c931dde4f0
     Pseudo is Ultrasoft + core correction, Zval = 11.0
     Generated using "atomic" code by A. Dal Corso v.6.3
     Using radial grid of 1279 points,  6 beta functions with:
                l(1) =   0
                l(2) =   0
                l(3) =   1
                l(4) =   1
                l(5) =   2
                l(6) =   2
     Q(r) pseudized with 0 coefficients

     atomic species   valence    mass     pseudopotential
        Ta            27.00   180.94788     Ta( 1.00)
        Au            11.00   196.96657     Au( 1.00)

     No symmetry found

   Cartesian axes

     site n.     atom                  positions (alat units)
         1           Ta  tau(   1) = (   0.0000000   0.0000000  10.0000000  )
         2           Ta  tau(   2) = (   2.9151193   0.0000000  10.0000000  )
         3           Au  tau(   3) = (   1.4575596   2.5507016  10.0000000  )
         4           Au  tau(   4) = (  -1.4575596   2.5507016  10.0000000  )
         5           Ta  tau(   5) = (   2.9151193   1.6658006  12.3922853  )
         6           Ta  tau(   6) = (   0.0000000   1.6658006  12.3922853  )
         7           Au  tau(   7) = (  -1.4575596   4.2165022  12.3922853  )
         8           Au  tau(   8) = (   1.4575596   4.2165022  12.3922853  )
         9           Ta  tau(   9) = (  -0.0000019   3.2924413  14.6502967  )
        10           Ta  tau(  10) = (   2.9151196   3.2924453  14.6502980  )
        11           Au  tau(  11) = (   4.3726779   0.8001847  14.8362233  )
        12           Au  tau(  12) = (   1.4575606   0.8001845  14.8362171  )

     number of k points=    74  Fermi-Dirac smearing, width (Ry)=  0.0100
                       cart. coord. in units 2pi/alat
        k(    1) = (   0.0000000   0.0000000   0.0000000), wk =   0.0138889
        k(    2) = (   0.0000000   0.0163354   0.0000000), wk =   0.0277778
        k(    3) = (   0.0000000   0.0326708   0.0000000), wk =   0.0277778
        k(    4) = (   0.0000000   0.0490061   0.0000000), wk =   0.0277778
        k(    5) = (   0.0000000   0.0653415   0.0000000), wk =   0.0277778
        k(    6) = (   0.0000000   0.0816769   0.0000000), wk =   0.0277778
        k(    7) = (   0.0000000  -0.0980123   0.0000000), wk =   0.0138889
        k(    8) = (   0.0142933   0.0081677   0.0000000), wk =   0.0277778
        k(    9) = (   0.0142933   0.0245031   0.0000000), wk =   0.0277778
        k(   10) = (   0.0142933   0.0408384   0.0000000), wk =   0.0277778
        k(   11) = (   0.0142933   0.0571738   0.0000000), wk =   0.0277778
        k(   12) = (   0.0142933   0.0735092   0.0000000), wk =   0.0277778
        k(   13) = (   0.0142933   0.0898446   0.0000000), wk =   0.0277778
        k(   14) = (   0.0142933  -0.0898446   0.0000000), wk =   0.0277778
        k(   15) = (   0.0142933  -0.0735092   0.0000000), wk =   0.0277778
        k(   16) = (   0.0142933  -0.0571738   0.0000000), wk =   0.0277778
        k(   17) = (   0.0142933  -0.0408384   0.0000000), wk =   0.0277778
        k(   18) = (   0.0142933  -0.0245031   0.0000000), wk =   0.0277778
        k(   19) = (   0.0142933  -0.0081677   0.0000000), wk =   0.0277778
        k(   20) = (   0.0285866   0.0163354   0.0000000), wk =   0.0277778
        k(   21) = (   0.0285866   0.0326707   0.0000000), wk =   0.0277778
        k(   22) = (   0.0285866   0.0490061   0.0000000), wk =   0.0277778
        k(   23) = (   0.0285866   0.0653415   0.0000000), wk =   0.0277778
        k(   24) = (   0.0285866   0.0816769   0.0000000), wk =   0.0277778
        k(   25) = (   0.0285866   0.0980122   0.0000000), wk =   0.0277778
        k(   26) = (   0.0285866  -0.0816769   0.0000000), wk =   0.0277778
        k(   27) = (   0.0285866  -0.0653415   0.0000000), wk =   0.0277778
        k(   28) = (   0.0285866  -0.0490061   0.0000000), wk =   0.0277778
        k(   29) = (   0.0285866  -0.0326708   0.0000000), wk =   0.0277778
        k(   30) = (   0.0285866  -0.0163354   0.0000000), wk =   0.0277778
        k(   31) = (   0.0285866  -0.0000000   0.0000000), wk =   0.0277778
        k(   32) = (   0.0428799   0.0245031   0.0000000), wk =   0.0277778
        k(   33) = (   0.0428799   0.0408384   0.0000000), wk =   0.0277778
        k(   34) = (   0.0428799   0.0571738   0.0000000), wk =   0.0277778
        k(   35) = (   0.0428799   0.0735092   0.0000000), wk =   0.0277778
        k(   36) = (   0.0428799   0.0898446   0.0000000), wk =   0.0277778
        k(   37) = (   0.0428799   0.1061799   0.0000000), wk =   0.0277778
        k(   38) = (   0.0428799  -0.0735092   0.0000000), wk =   0.0277778
        k(   39) = (   0.0428799  -0.0571738   0.0000000), wk =   0.0277778
        k(   40) = (   0.0428799  -0.0408384   0.0000000), wk =   0.0277778
        k(   41) = (   0.0428799  -0.0245031   0.0000000), wk =   0.0277778
        k(   42) = (   0.0428799  -0.0081677   0.0000000), wk =   0.0277778
        k(   43) = (   0.0428799   0.0081677   0.0000000), wk =   0.0277778
        k(   44) = (   0.0571732   0.0326707   0.0000000), wk =   0.0277778
        k(   45) = (   0.0571732   0.0490061   0.0000000), wk =   0.0277778
        k(   46) = (   0.0571732   0.0653415   0.0000000), wk =   0.0277778
        k(   47) = (   0.0571732   0.0816769   0.0000000), wk =   0.0277778
        k(   48) = (   0.0571732   0.0980122   0.0000000), wk =   0.0277778
        k(   49) = (   0.0571732   0.1143476   0.0000000), wk =   0.0277778
        k(   50) = (   0.0571732  -0.0653415   0.0000000), wk =   0.0277778
        k(   51) = (   0.0571732  -0.0490061   0.0000000), wk =   0.0277778
        k(   52) = (   0.0571732  -0.0326708   0.0000000), wk =   0.0277778
        k(   53) = (   0.0571732  -0.0163354   0.0000000), wk =   0.0277778
        k(   54) = (   0.0571732  -0.0000000   0.0000000), wk =   0.0277778
        k(   55) = (   0.0571732   0.0163354   0.0000000), wk =   0.0277778
        k(   56) = (   0.0714665   0.0408384   0.0000000), wk =   0.0277778
        k(   57) = (   0.0714665   0.0571738   0.0000000), wk =   0.0277778
        k(   58) = (   0.0714665   0.0735092   0.0000000), wk =   0.0277778
        k(   59) = (   0.0714665   0.0898446   0.0000000), wk =   0.0277778
        k(   60) = (   0.0714665   0.1061799   0.0000000), wk =   0.0277778
        k(   61) = (   0.0714665   0.1225153   0.0000000), wk =   0.0277778
        k(   62) = (   0.0714665  -0.0571738   0.0000000), wk =   0.0277778
        k(   63) = (   0.0714665  -0.0408384   0.0000000), wk =   0.0277778
        k(   64) = (   0.0714665  -0.0245031   0.0000000), wk =   0.0277778
        k(   65) = (   0.0714665  -0.0081677   0.0000000), wk =   0.0277778
        k(   66) = (   0.0714665   0.0081677   0.0000000), wk =   0.0277778
        k(   67) = (   0.0714665   0.0245031   0.0000000), wk =   0.0277778
        k(   68) = (  -0.0857598  -0.0490061   0.0000000), wk =   0.0138889
        k(   69) = (  -0.0857598  -0.0326707   0.0000000), wk =   0.0277778
        k(   70) = (  -0.0857598  -0.0163354   0.0000000), wk =   0.0277778
        k(   71) = (  -0.0857598   0.0000000   0.0000000), wk =   0.0277778
        k(   72) = (  -0.0857598   0.0163354   0.0000000), wk =   0.0277778
        k(   73) = (  -0.0857598   0.0326708   0.0000000), wk =   0.0277778
        k(   74) = (  -0.0857598  -0.1470184   0.0000000), wk =   0.0138889

     Initial potential from superposition of free atoms

     starting charge  227.99428, renormalised to  228.00000

     negative rho (up, down):  8.742E-04 0.000E+00

     %%%%%%%%%%%%%%%%%%%%%%%%%%%%%%%%%%%%%%%%%%%%%%%%%%%%%%%%%%%%%%%%%%%%%%%%
     %                                                                      %
     % You are using vdW-DF, which was implemented by the Thonhauser group. %
     % Please cite the following two papers that made this development      %
     % possible and the two reviews that describe the various versions:     %
     %                                                                      %
     %   T. Thonhauser et al., PRL 115, 136402 (2015).                      %
     %   T. Thonhauser et al., PRB 76, 125112 (2007).                       %
     %   K. Berland et al., Rep. Prog. Phys. 78, 066501 (2015).             %
     %   D.C. Langreth et al., J. Phys.: Condens. Matter 21, 084203 (2009). %
     %                                                                      %
     %                                                                      %
     % If you are calculating the stress with vdW-DF, please also cite:     %
     %                                                                      %
     %   R. Sabatini et al., J. Phys.: Condens. Matter 24, 424209 (2012).   %
     %                                                                      %
     %%%%%%%%%%%%%%%%%%%%%%%%%%%%%%%%%%%%%%%%%%%%%%%%%%%%%%%%%%%%%%%%%%%%%%%%

     Adding external electric field

     Computed dipole along edir(3) :
        Dipole               -0.0001 Ry au,         -0.0003 Debye
        Dipole field         -0.0000 Ry au,

        Potential amp.        0.0000 Ry
        Total length         45.6651 bohr

     Starting wfcs are  156 randomized atomic wfcs

     Self-consistent Calculation

     iteration #  1     ecut=    55.12 Ry     beta= 0.10
     Davidson diagonalization with overlap
     ethr =  1.00E-02,  avg # of iterations =  2.4

[...]

     total energy              =   -4610.68771642 Ry
     estimated scf accuracy    <       2.29224847 Ry

[...]

     iteration #  5     ecut=    55.12 Ry     beta= 0.10
     Davidson diagonalization with overlap
     c_bands:  1 eigenvalues not converged
     c_bands:  1 eigenvalues not converged
     c_bands:  1 eigenvalues not converged
     c_bands:  1 eigenvalues not converged
     c_bands:  1 eigenvalues not converged
     ethr =  1.10E-04,  avg # of iterations = 10.1

[...]

     iteration #  9     ecut=    55.12 Ry     beta= 0.10
     Davidson diagonalization with overlap
     c_bands:  1 eigenvalues not converged
     c_bands:  1 eigenvalues not converged
     c_bands:  1 eigenvalues not converged
     ethr =  1.80E-06,  avg # of iterations =  9.1

[...]

     total energy              =   -4610.73945126 Ry
     estimated scf accuracy    <       0.00002041 Ry

     iteration # 14     ecut=    55.12 Ry     beta= 0.10
     Davidson diagonalization with overlap
     ethr =  8.95E-09,  avg # of iterations =  3.8

[...]

     Adding external electric field

     Computed dipole along edir(3) :
        Dipole               -0.0323 Ry au,         -0.0821 Debye
        Dipole field         -0.0001 Ry au,

        Potential amp.        0.0075 Ry
        Total length         45.6651 bohr

     End of self-consistent calculation

          k = 0.0000 0.0000 0.0000 ( 34329 PWs)   bands (ev):

   -66.8759 -66.8396 -66.7524 -66.7158 -66.5945 -66.5572 -33.3104 -33.2433
   -33.2430 -33.2335 -33.1848 -33.1805 -33.1713 -33.1196 -33.1191 -33.0932
   -33.0499 -33.0259 -32.9769 -32.6151 -32.5880 -32.5493 -32.5270 -32.5001
   -18.6166 -18.6155 -18.6153 -18.6143 -18.5638 -18.5558 -18.5529 -18.5488
   -18.5305 -18.5052 -18.4981 -18.4978 -18.4743 -18.4728 -18.4725 -18.4723
   -18.4705 -18.4600 -18.4352 -18.4265 -18.4232 -18.4185 -18.4057 -18.3804
   -18.3718 -18.3709 -18.3462 -18.3353 -18.3112 -18.3092 -18.2899 -18.2893
   -18.2786 -18.2759 -18.2703 -18.2682 -18.2373 -18.2298 -18.2160 -18.2037
   -18.1888 -18.1859  -6.6397  -5.0768  -4.7645  -4.6069  -4.4816  -4.4601
    -4.2671  -4.2172  -4.0250  -3.9881  -3.9562  -3.8953  -3.7944  -3.7542
    -3.3371  -3.1081  -2.8326  -2.7726  -2.7433  -2.6762  -2.4611  -2.4089
    -2.3835  -2.3656  -2.3431  -2.1433  -1.9894  -1.9678  -1.8981  -1.4868
    -1.3269  -0.7542  -0.5759   0.0446   0.3561   0.5601   0.5878   0.7871
     0.8330   0.8748   1.1374   1.1731   1.2802   1.3280   1.8134   1.8556
     2.1302   2.3962   2.5730   2.8928   2.9434   3.0009   3.1658   3.1667
     3.2043   3.8237   4.1642   4.5092   4.5106   4.8000   4.8154   4.9058
     4.9646   5.2787   5.3081   5.4901   5.5271   5.5376   5.6464   5.8637
     6.0180

[...]

          k = 0.0715 0.0245 0.0000 ( 34398 PWs)   bands (ev):

[...]

          k =-0.0858-0.0490 0.0000 ( 34408 PWs)   bands (ev):

[...]

          k =-0.0858-0.1470 0.0000 ( 34408 PWs)   bands (ev):

   -66.8578 -66.8578 -66.7341 -66.7341 -66.5758 -66.5758 -33.2780 -33.2780
   -33.2086 -33.2086 -33.1536 -33.1535 -33.0611 -33.0610 -33.0148 -33.0147
   -32.9317 -32.9317 -32.8726 -32.8726 -32.8171 -32.8170 -32.5579 -32.5578
   -18.6161 -18.6161 -18.6150 -18.6149 -18.5582 -18.5581 -18.5525 -18.5525
   -18.5181 -18.5181 -18.4856 -18.4855 -18.4809 -18.4809 -18.4735 -18.4735
   -18.4714 -18.4714 -18.4288 -18.4288 -18.4228 -18.4228 -18.3934 -18.3934
   -18.3588 -18.3588 -18.3555 -18.3555 -18.3005 -18.3004 -18.2990 -18.2989
   -18.2743 -18.2742 -18.2725 -18.2724 -18.2342 -18.2341 -18.2041 -18.2040
   -18.1954 -18.1953  -5.0033  -5.0033  -4.0096  -4.0096  -3.7939  -3.7939
    -3.7474  -3.7473  -3.4239  -3.4238  -3.3448  -3.3448  -3.2594  -3.2594
    -3.0987  -3.0987  -2.7729  -2.7729  -2.7070  -2.7070  -2.5349  -2.5349
    -2.4914  -2.4914  -2.4122  -2.4122  -2.3635  -2.3634  -2.2280  -2.2280
    -2.1227  -2.1227  -2.0069  -2.0069  -0.5452  -0.5452   0.0812   0.0812
     0.5526   0.5526   1.2455   1.2455   1.3502   1.3502   1.9342   1.9342
     2.1825   2.1825   2.5132   2.5132   2.6936   2.6936   2.7645   2.7645
     2.9715   2.9715   3.1406   3.1406   4.0534   4.0534   4.4475   4.4475
     4.7027   4.7028   5.1187   5.1187   5.5360   5.5363   5.9807   5.9810
     6.5385

     the Fermi energy is     2.1499 ev

!    total energy              =   -4610.73945303 Ry
     estimated scf accuracy    <       0.00000554 Ry
     smearing contrib. (-TS)   =      -0.04712166 Ry
     internal energy E=F+TS    =   -4610.69233138 Ry

     The total energy is F=E-TS. E is the sum of the following terms:
     one-electron contribution =  -28412.60909384 Ry
     hartree contribution      =   14346.63717911 Ry
     xc contribution           =    -612.63313539 Ry
     ewald contribution        =   10067.91271611 Ry
     electric field correction =       0.00000264 Ry

     convergence has been achieved in  14 iterations

     negative rho (up, down):  8.148E-04 0.000E+00

     Forces acting on atoms (cartesian axes, Ry/au):

     atom    1 type  1   force =     0.00000865    0.01657750    0.03036502
     atom    2 type  1   force =    -0.00001964    0.01658521    0.03037770
     atom    3 type  2   force =     0.00000991   -0.01166796   -0.01638897
     atom    4 type  2   force =    -0.00000847   -0.01165817   -0.01639008
     atom    5 type  1   force =    -0.00000062   -0.01131220   -0.00871524
     atom    6 type  1   force =     0.00000159   -0.01131643   -0.00871400
     atom    7 type  2   force =    -0.00000479    0.00752776   -0.00896532
     atom    8 type  2   force =     0.00000038    0.00753319   -0.00895918
     atom    9 type  1   force =    -0.00002111   -0.00096324    0.00121344
     atom   10 type  1   force =     0.00002533   -0.00098091    0.00119133
     atom   11 type  2   force =     0.00000577   -0.00015999    0.00249143
     atom   12 type  2   force =     0.00000301   -0.00016475    0.00249387

     Total force =     0.062476     Total SCF correction =     0.014908
     SCF correction compared to forces is large: reduce conv_thr to get better values

     Writing output data file ./Ta2Au2/Ta2Au2_beef.save/

     General routines

     Parallel routines

   This run was terminated on:   4: 8:26  26Jun2022

   JOB DONE.