     Program PWSCF v.6.6 starts on 26Jun2022 at  4: 8:30

     R & G space division:  proc/nbgrp/npool/nimage =      37
     Fft bands division:     nmany     =       1
     Reading input from Ta2Hg2.in
Warning: card &CELL ignored
Warning: card / ignored

     Current dimensions of program PWSCF are:
     Max number of different atomic species (ntypx) = 10
     Max number of k-points (npk) =  40000
     Max angular momentum in pseudopotentials (lmaxx) =  3
     Presently stress not available with electric field and gates

     Message from routine cell_base_init:
     DEPRECATED: use true lattice parameter, not A to a.u. conversion factor
     file Ta.pbe-spfn-rrkjus_psl.1.0.0.UPF: wavefunction(s)  5S 5P renormalized
     file Hg.pbe-n-rrkjus_psl.1.0.0.UPF: wavefunction(s)  6S renormalized

     IMPORTANT: XC functional enforced from input :
     Exchange-correlation= BEEF-VDW
                           (   1   4  43  14   2   0   0)
     Any further DFT definition will be discarded
     Please, verify this is what you really want

     Subspace diagonalization in iterative solution of the eigenvalue problem:
     a serial algorithm will be used

     Found symmetry operation: I + (  0.5000  0.0000  0.0000)
     This is a supercell, fractional translations are disabled

     bravais-lattice index     =            0
     lattice parameter (alat)  =       1.8897  a.u.
     unit-cell volume          =    5295.8217 (a.u.)^3
     number of atoms/cell      =           12
     number of atomic types    =            2
     number of electrons       =       234.00
     number of Kohn-Sham states=          140
     kinetic-energy cutoff     =      55.1240  Ry
     charge density cutoff     =     551.2396  Ry
     convergence threshold     =      1.0E-05
     mixing beta               =       0.1000
     number of iterations used =           10  plain     mixing
     Exchange-correlation= BEEF-VDW
                           (   1   4  43  14   2   0   0)

     celldm(1)=   1.889726  celldm(2)=   0.000000  celldm(3)=   0.000000
     celldm(4)=   0.000000  celldm(5)=   0.000000  celldm(6)=   0.000000

     crystal axes: (cart. coord. in units of alat)
               a(1) = (   5.872653   0.000000   0.000000 )
               a(2) = (  -2.936326   5.363542   0.000000 )
               a(3) = (   0.000000   0.000000  24.914422 )

     reciprocal axes: (cart. coord. in units 2 pi/alat)
               b(1) = (  0.170281  0.093222 -0.000000 )
               b(2) = (  0.000000  0.186444  0.000000 )
               b(3) = (  0.000000 -0.000000  0.040137 )

     PseudoPot. # 1 for Ta read from file:
     ../pseudo/Ta.pbe-spfn-rrkjus_psl.1.0.0.UPF
     MD5 check sum: 39d7d349fe394e56adf8454eb9315fbb
     Pseudo is Ultrasoft + core correction, Zval = 27.0
     Generated using "atomic" code by A. Dal Corso v.6.3
     Using radial grid of 1273 points,  8 beta functions with:
                l(1) =   0
                l(2) =   0
                l(3) =   1
                l(4) =   1
                l(5) =   2
                l(6) =   2
                l(7) =   3
                l(8) =   3
     Q(r) pseudized with 0 coefficients

     PseudoPot. # 2 for Hg read from file:
     ../pseudo/Hg.pbe-n-rrkjus_psl.1.0.0.UPF
     MD5 check sum: 7519ac2e5b9cac440d3cfd4127d6ea3c
     Pseudo is Ultrasoft + core correction, Zval = 12.0
     Generated using "atomic" code by A. Dal Corso v.6.3
     Using radial grid of 1279 points,  6 beta functions with:
                l(1) =   0
                l(2) =   0
                l(3) =   1
                l(4) =   1
                l(5) =   2
                l(6) =   2
     Q(r) pseudized with 0 coefficients

     atomic species   valence    mass     pseudopotential
        Ta            27.00   180.94788     Ta( 1.00)
        Hg            12.00   200.59200     Hg( 1.00)

     No symmetry found

   Cartesian axes

     site n.     atom                  positions (alat units)
         1           Ta  tau(   1) = (   0.0000000   0.0000000  10.0000000  )
         2           Ta  tau(   2) = (   2.9363264   0.0000000  10.0000000  )
         3           Hg  tau(   3) = (   1.4681632   2.6817708  10.0000000  )
         4           Hg  tau(   4) = (  -1.4681632   2.6817708  10.0000000  )
         5           Ta  tau(   5) = (   2.9363264   1.6075224  12.4572108  )
         6           Ta  tau(   6) = (  -0.0000000   1.6075224  12.4572108  )
         7           Hg  tau(   7) = (  -1.4681632   4.2892931  12.4572108  )
         8           Hg  tau(   8) = (   1.4681632   4.2892931  12.4572108  )
         9           Ta  tau(   9) = (  -0.0000004   3.0013747  14.7897486  )
        10           Ta  tau(  10) = (   2.9363309   3.0013441  14.7897338  )
        11           Hg  tau(  11) = (   4.4045041   0.3695610  15.2697303  )
        12           Hg  tau(  12) = (   1.4681592   0.3695783  15.2696938  )

     number of k points=    74  Fermi-Dirac smearing, width (Ry)=  0.0100
                       cart. coord. in units 2pi/alat
        k(    1) = (   0.0000000   0.0000000   0.0000000), wk =   0.0138889
        k(    2) = (   0.0000000   0.0155370   0.0000000), wk =   0.0277778
        k(    3) = (   0.0000000   0.0310740   0.0000000), wk =   0.0277778
        k(    4) = (   0.0000000   0.0466110   0.0000000), wk =   0.0277778
        k(    5) = (   0.0000000   0.0621480   0.0000000), wk =   0.0277778
        k(    6) = (   0.0000000   0.0776850   0.0000000), wk =   0.0277778
        k(    7) = (   0.0000000  -0.0932220   0.0000000), wk =   0.0138889
        k(    8) = (   0.0141901   0.0077685   0.0000000), wk =   0.0277778
        k(    9) = (   0.0141901   0.0233055   0.0000000), wk =   0.0277778
        k(   10) = (   0.0141901   0.0388425   0.0000000), wk =   0.0277778
        k(   11) = (   0.0141901   0.0543795   0.0000000), wk =   0.0277778
        k(   12) = (   0.0141901   0.0699165   0.0000000), wk =   0.0277778
        k(   13) = (   0.0141901   0.0854535   0.0000000), wk =   0.0277778
        k(   14) = (   0.0141901  -0.0854535   0.0000000), wk =   0.0277778
        k(   15) = (   0.0141901  -0.0699165   0.0000000), wk =   0.0277778
        k(   16) = (   0.0141901  -0.0543795   0.0000000), wk =   0.0277778
        k(   17) = (   0.0141901  -0.0388425   0.0000000), wk =   0.0277778
        k(   18) = (   0.0141901  -0.0233055   0.0000000), wk =   0.0277778
        k(   19) = (   0.0141901  -0.0077685   0.0000000), wk =   0.0277778
        k(   20) = (   0.0283801   0.0155370   0.0000000), wk =   0.0277778
        k(   21) = (   0.0283801   0.0310740   0.0000000), wk =   0.0277778
        k(   22) = (   0.0283801   0.0466110   0.0000000), wk =   0.0277778
        k(   23) = (   0.0283801   0.0621480   0.0000000), wk =   0.0277778
        k(   24) = (   0.0283801   0.0776850   0.0000000), wk =   0.0277778
        k(   25) = (   0.0283801   0.0932220   0.0000000), wk =   0.0277778
        k(   26) = (   0.0283801  -0.0776850   0.0000000), wk =   0.0277778
        k(   27) = (   0.0283801  -0.0621480   0.0000000), wk =   0.0277778
        k(   28) = (   0.0283801  -0.0466110   0.0000000), wk =   0.0277778
        k(   29) = (   0.0283801  -0.0310740   0.0000000), wk =   0.0277778
        k(   30) = (   0.0283801  -0.0155370   0.0000000), wk =   0.0277778
        k(   31) = (   0.0283801  -0.0000000   0.0000000), wk =   0.0277778
        k(   32) = (   0.0425702   0.0233055   0.0000000), wk =   0.0277778
        k(   33) = (   0.0425702   0.0388425   0.0000000), wk =   0.0277778
        k(   34) = (   0.0425702   0.0543795   0.0000000), wk =   0.0277778
        k(   35) = (   0.0425702   0.0699165   0.0000000), wk =   0.0277778
        k(   36) = (   0.0425702   0.0854535   0.0000000), wk =   0.0277778
        k(   37) = (   0.0425702   0.1009905   0.0000000), wk =   0.0277778
        k(   38) = (   0.0425702  -0.0699165   0.0000000), wk =   0.0277778
        k(   39) = (   0.0425702  -0.0543795   0.0000000), wk =   0.0277778
        k(   40) = (   0.0425702  -0.0388425   0.0000000), wk =   0.0277778
        k(   41) = (   0.0425702  -0.0233055   0.0000000), wk =   0.0277778
        k(   42) = (   0.0425702  -0.0077685   0.0000000), wk =   0.0277778
        k(   43) = (   0.0425702   0.0077685   0.0000000), wk =   0.0277778
        k(   44) = (   0.0567603   0.0310740   0.0000000), wk =   0.0277778
        k(   45) = (   0.0567603   0.0466110   0.0000000), wk =   0.0277778
        k(   46) = (   0.0567603   0.0621480   0.0000000), wk =   0.0277778
        k(   47) = (   0.0567603   0.0776850   0.0000000), wk =   0.0277778
        k(   48) = (   0.0567603   0.0932220   0.0000000), wk =   0.0277778
        k(   49) = (   0.0567603   0.1087590   0.0000000), wk =   0.0277778
        k(   50) = (   0.0567603  -0.0621480   0.0000000), wk =   0.0277778
        k(   51) = (   0.0567603  -0.0466110   0.0000000), wk =   0.0277778
        k(   52) = (   0.0567603  -0.0310740   0.0000000), wk =   0.0277778
        k(   53) = (   0.0567603  -0.0155370   0.0000000), wk =   0.0277778
        k(   54) = (   0.0567603  -0.0000000   0.0000000), wk =   0.0277778
        k(   55) = (   0.0567603   0.0155370   0.0000000), wk =   0.0277778
        k(   56) = (   0.0709503   0.0388425   0.0000000), wk =   0.0277778
        k(   57) = (   0.0709503   0.0543795   0.0000000), wk =   0.0277778
        k(   58) = (   0.0709503   0.0699165   0.0000000), wk =   0.0277778
        k(   59) = (   0.0709503   0.0854535   0.0000000), wk =   0.0277778
        k(   60) = (   0.0709503   0.1009905   0.0000000), wk =   0.0277778
        k(   61) = (   0.0709503   0.1165275   0.0000000), wk =   0.0277778
        k(   62) = (   0.0709503  -0.0543795   0.0000000), wk =   0.0277778
        k(   63) = (   0.0709503  -0.0388425   0.0000000), wk =   0.0277778
        k(   64) = (   0.0709503  -0.0233055   0.0000000), wk =   0.0277778
        k(   65) = (   0.0709503  -0.0077685   0.0000000), wk =   0.0277778
        k(   66) = (   0.0709503   0.0077685   0.0000000), wk =   0.0277778
        k(   67) = (   0.0709503   0.0233055   0.0000000), wk =   0.0277778
        k(   68) = (  -0.0851404  -0.0466110   0.0000000), wk =   0.0138889
        k(   69) = (  -0.0851404  -0.0310740   0.0000000), wk =   0.0277778
        k(   70) = (  -0.0851404  -0.0155370   0.0000000), wk =   0.0277778
        k(   71) = (  -0.0851404   0.0000000   0.0000000), wk =   0.0277778
        k(   72) = (  -0.0851404   0.0155370   0.0000000), wk =   0.0277778
        k(   73) = (  -0.0851404   0.0310740   0.0000000), wk =   0.0277778
        k(   74) = (  -0.0851404  -0.1398330   0.0000000), wk =   0.0138889

     Initial potential from superposition of free atoms

     starting charge  233.99444, renormalised to  234.00000

     negative rho (up, down):  1.135E-03 0.000E+00

     %%%%%%%%%%%%%%%%%%%%%%%%%%%%%%%%%%%%%%%%%%%%%%%%%%%%%%%%%%%%%%%%%%%%%%%%
     %                                                                      %
     % You are using vdW-DF, which was implemented by the Thonhauser group. %
     % Please cite the following two papers that made this development      %
     % possible and the two reviews that describe the various versions:     %
     %                                                                      %
     %   T. Thonhauser et al., PRL 115, 136402 (2015).                      %
     %   T. Thonhauser et al., PRB 76, 125112 (2007).                       %
     %   K. Berland et al., Rep. Prog. Phys. 78, 066501 (2015).             %
     %   D.C. Langreth et al., J. Phys.: Condens. Matter 21, 084203 (2009). %
     %                                                                      %
     %                                                                      %
     % If you are calculating the stress with vdW-DF, please also cite:     %
     %                                                                      %
     %   R. Sabatini et al., J. Phys.: Condens. Matter 24, 424209 (2012).   %
     %                                                                      %
     %%%%%%%%%%%%%%%%%%%%%%%%%%%%%%%%%%%%%%%%%%%%%%%%%%%%%%%%%%%%%%%%%%%%%%%%

     Adding external electric field

     Computed dipole along edir(3) :
        Dipole               -0.0004 Ry au,         -0.0009 Debye
        Dipole field         -0.0000 Ry au,

        Potential amp.        0.0001 Ry
        Total length         45.9044 bohr

     Starting wfcs are  156 randomized atomic wfcs

     Self-consistent Calculation

     iteration #  1     ecut=    55.12 Ry     beta= 0.10
     Davidson diagonalization with overlap
     ethr =  1.00E-02,  avg # of iterations =  2.5

     Threshold (ethr) on eigenvalues was too large:
     Diagonalizing with lowered threshold

     Davidson diagonalization with overlap
     ethr =  8.37E-04,  avg # of iterations =  3.7

[...]

     total energy              =   -4698.09442042 Ry
     estimated scf accuracy    <       1.96579638 Ry

[...]

     iteration #  5     ecut=    55.12 Ry     beta= 0.10
     Davidson diagonalization with overlap
     c_bands:  1 eigenvalues not converged
     ethr =  1.28E-04,  avg # of iterations =  9.1

[...]

     iteration #  9     ecut=    55.12 Ry     beta= 0.10
     Davidson diagonalization with overlap
     c_bands:  1 eigenvalues not converged
     ethr =  1.90E-06,  avg # of iterations =  6.6

[...]

     total energy              =   -4698.13343371 Ry
     estimated scf accuracy    <       0.00001249 Ry

     iteration # 14     ecut=    55.12 Ry     beta= 0.10
     Davidson diagonalization with overlap
     ethr =  5.34E-09,  avg # of iterations =  2.0

[...]

     Adding external electric field

     Computed dipole along edir(3) :
        Dipole               -0.0411 Ry au,         -0.1045 Debye
        Dipole field         -0.0001 Ry au,

        Potential amp.        0.0090 Ry
        Total length         45.9044 bohr

     End of self-consistent calculation

          k = 0.0000 0.0000 0.0000 ( 36549 PWs)   bands (ev):

   -66.9594 -66.9265 -66.7308 -66.6975 -66.5195 -66.4857 -33.4025 -33.3402
   -33.2882 -33.2788 -33.2229 -33.1832 -33.1373 -33.1205 -33.0969 -33.0335
   -33.0167 -32.9725 -32.9082 -32.7064 -32.5550 -32.5175 -32.4621 -32.4370
   -18.7091 -18.7075 -18.7058 -18.7048 -18.6635 -18.6537 -18.6455 -18.6392
   -18.6220 -18.5993 -18.5882 -18.5877 -18.5651 -18.5514 -18.4530 -18.4509
   -18.4494 -18.4481 -18.4293 -18.4192 -18.4166 -18.4090 -18.3999 -18.3774
   -18.3696 -18.3689 -18.3463 -18.3347 -18.2378 -18.2362 -18.2220 -18.2205
   -18.2193 -18.2186 -18.2156 -18.2118 -18.1872 -18.1778 -18.1615 -18.1514
   -18.1342 -18.1340  -7.1066  -6.5423  -6.4953  -6.4199  -6.3737  -6.1949
    -6.0994  -6.0576  -5.9892  -5.8878  -5.8807  -5.6797  -5.5211  -5.5054
    -5.4918  -5.2005  -5.1941  -5.1905  -5.1122  -5.0772  -5.0636  -4.9908
    -4.8617  -4.8431  -4.7230  -4.6509  -4.5262  -4.4387  -4.4079  -4.3953
    -4.2170  -3.9299  -2.6444  -1.5380  -0.7724  -0.7503  -0.6319  -0.4287
    -0.0520   0.1463   0.3550   0.3622   0.4520   0.9505   1.2454   1.3397
     1.4429   1.7793   1.9492   2.0849   2.1419   2.1448   2.4174   2.6639
     2.6943   2.8994   3.5084   3.5502   3.6226   3.7654   4.0536   4.0608
     4.2018   4.3915   4.7135   4.7660   4.9052   5.0419   5.0480   5.1439
     5.2183   5.3282   5.5473   5.7250

[...]

          k = 0.0710 0.0233 0.0000 ( 36618 PWs)   bands (ev):

[...]

          k =-0.0851-0.0466 0.0000 ( 36588 PWs)   bands (ev):

[...]

          k =-0.0851-0.1398 0.0000 ( 36588 PWs)   bands (ev):

   -66.9430 -66.9429 -66.7142 -66.7141 -66.5026 -66.5026 -33.3717 -33.3717
   -33.2564 -33.2564 -33.1522 -33.1522 -33.0659 -33.0659 -32.9987 -32.9987
   -32.9411 -32.9411 -32.8523 -32.8523 -32.7333 -32.7333 -32.4899 -32.4898
   -18.7083 -18.7083 -18.7053 -18.7053 -18.6586 -18.6585 -18.6424 -18.6424
   -18.6109 -18.6109 -18.5769 -18.5769 -18.5711 -18.5710 -18.4519 -18.4519
   -18.4487 -18.4487 -18.4240 -18.4240 -18.4128 -18.4128 -18.3889 -18.3889
   -18.3579 -18.3579 -18.3537 -18.3537 -18.2284 -18.2283 -18.2278 -18.2278
   -18.2187 -18.2186 -18.2154 -18.2153 -18.1833 -18.1833 -18.1495 -18.1494
   -18.1432 -18.1431  -6.0840  -6.0840  -5.9634  -5.9634  -5.8585  -5.8585
    -5.8172  -5.8172  -5.6811  -5.6811  -5.4538  -5.4538  -5.3451  -5.3451
    -5.2489  -5.2489  -5.1225  -5.1225  -5.0867  -5.0867  -5.0322  -5.0322
    -4.9843  -4.9843  -4.8738  -4.8737  -4.7910  -4.7910  -4.7633  -4.7633
    -4.5581  -4.5581  -3.4104  -3.4103  -2.0884  -2.0884  -0.8818  -0.8818
     0.1532   0.1532   0.7651   0.7652   1.0091   1.0091   1.3667   1.3667
     1.5893   1.5893   1.9233   1.9233   2.1203   2.1203   2.2872   2.2873
     2.4706   2.4706   2.9484   2.9484   3.2914   3.2914   3.8683   3.8683
     4.1307   4.1307   4.5726   4.5726   4.7827   4.7827   4.9599   4.9599
     5.5872   5.5872   5.8769   5.8770

     the Fermi energy is     2.0370 ev

!    total energy              =   -4698.13343418 Ry
     estimated scf accuracy    <       0.00000620 Ry
     smearing contrib. (-TS)   =      -0.05588957 Ry
     internal energy E=F+TS    =   -4698.07754460 Ry

     The total energy is F=E-TS. E is the sum of the following terms:
     one-electron contribution =  -27741.59832405 Ry
     hartree contribution      =   14011.54870524 Ry
     xc contribution           =    -614.18786924 Ry
     ewald contribution        =    9646.15993943 Ry
     electric field correction =       0.00000401 Ry

     convergence has been achieved in  14 iterations

     negative rho (up, down):  1.027E-03 0.000E+00

     Forces acting on atoms (cartesian axes, Ry/au):

     atom    1 type  1   force =    -0.00000334    0.01449746    0.03327009
     atom    2 type  1   force =     0.00000076    0.01450278    0.03327638
     atom    3 type  2   force =     0.00000341   -0.00496014   -0.03599724
     atom    4 type  2   force =    -0.00000327   -0.00495835   -0.03599296
     atom    5 type  1   force =     0.00000270   -0.02484157   -0.01151864
     atom    6 type  1   force =    -0.00000256   -0.02483203   -0.01150537
     atom    7 type  2   force =     0.00000362    0.01277599    0.01182408
     atom    8 type  2   force =    -0.00000250    0.01276971    0.01182356
     atom    9 type  1   force =    -0.00000504    0.00247788    0.00328135
     atom   10 type  1   force =     0.00000667    0.00247052    0.00327129
     atom   11 type  2   force =    -0.00000387    0.00004602   -0.00086685
     atom   12 type  2   force =     0.00000343    0.00005173   -0.00086568

     Total force =     0.086111     Total SCF correction =     0.018144
     SCF correction compared to forces is large: reduce conv_thr to get better values

     Writing output data file ./Ta2Hg2/Ta2Hg2_beef.save/

     General routines

     Parallel routines

   This run was terminated on:   7: 7:39  26Jun2022

   JOB DONE.