     Program PWSCF v.6.6 starts on 26Jun2022 at  7: 7:47

     R & G space division:  proc/nbgrp/npool/nimage =      37
     Fft bands division:     nmany     =       1
     Reading input from Ta2Ir2.in
Warning: card &CELL ignored
Warning: card / ignored

     Current dimensions of program PWSCF are:
     Max number of different atomic species (ntypx) = 10
     Max number of k-points (npk) =  40000
     Max angular momentum in pseudopotentials (lmaxx) =  3
     Presently stress not available with electric field and gates

     Message from routine cell_base_init:
     DEPRECATED: use true lattice parameter, not A to a.u. conversion factor
     file Ta.pbe-spfn-rrkjus_psl.1.0.0.UPF: wavefunction(s)  5S 5P renormalized
     file Ir.pbe-n-rrkjus_psl.0.2.3.UPF: wavefunction(s)  5D renormalized

     IMPORTANT: XC functional enforced from input :
     Exchange-correlation= BEEF-VDW
                           (   1   4  43  14   2   0   0)
     Any further DFT definition will be discarded
     Please, verify this is what you really want

     Subspace diagonalization in iterative solution of the eigenvalue problem:
     a serial algorithm will be used

     Found symmetry operation: I + ( -0.5000 -0.5000  0.0000)
     This is a supercell, fractional translations are disabled

     bravais-lattice index     =            0
     lattice parameter (alat)  =       1.8897  a.u.
     unit-cell volume          =    4638.9002 (a.u.)^3
     number of atoms/cell      =           12
     number of atomic types    =            2
     number of electrons       =       216.00
     number of Kohn-Sham states=          130
     kinetic-energy cutoff     =      55.1240  Ry
     charge density cutoff     =     551.2396  Ry
     convergence threshold     =      1.0E-05
     mixing beta               =       0.1000
     number of iterations used =           10  plain     mixing
     Exchange-correlation= BEEF-VDW
                           (   1   4  43  14   2   0   0)

     celldm(1)=   1.889726  celldm(2)=   0.000000  celldm(3)=   0.000000
     celldm(4)=   0.000000  celldm(5)=   0.000000  celldm(6)=   0.000000

     crystal axes: (cart. coord. in units of alat)
               a(1) = (   5.628548   0.000000   0.000000 )
               a(2) = (   2.663501   4.958459   0.000000 )
               a(3) = (   0.000000   0.000000  24.630624 )

     reciprocal axes: (cart. coord. in units 2 pi/alat)
               b(1) = (  0.177666 -0.095435  0.000000 )
               b(2) = (  0.000000  0.201676  0.000000 )
               b(3) = (  0.000000  0.000000  0.040600 )

     PseudoPot. # 1 for Ta read from file:
     ../pseudo/Ta.pbe-spfn-rrkjus_psl.1.0.0.UPF
     MD5 check sum: 39d7d349fe394e56adf8454eb9315fbb
     Pseudo is Ultrasoft + core correction, Zval = 27.0
     Generated using "atomic" code by A. Dal Corso v.6.3
     Using radial grid of 1273 points,  8 beta functions with:
                l(1) =   0
                l(2) =   0
                l(3) =   1
                l(4) =   1
                l(5) =   2
                l(6) =   2
                l(7) =   3
                l(8) =   3
     Q(r) pseudized with 0 coefficients

     PseudoPot. # 2 for Ir read from file:
     ../pseudo/Ir.pbe-n-rrkjus_psl.0.2.3.UPF
     MD5 check sum: a93e608e8ddc29ee62145620b5f41564
     Pseudo is Ultrasoft + core correction, Zval =  9.0
     Generated using "atomic" code by A. Dal Corso v.5.0.2 svn rev. 9415
     Using radial grid of 1277 points,  6 beta functions with:
                l(1) =   0
                l(2) =   0
                l(3) =   1
                l(4) =   1
                l(5) =   2
                l(6) =   2
     Q(r) pseudized with 0 coefficients

     atomic species   valence    mass     pseudopotential
        Ta            27.00   180.94788     Ta( 1.00)
        Ir             9.00   192.21700     Ir( 1.00)

     No symmetry found

   Cartesian axes

     site n.     atom                  positions (alat units)
         1           Ta  tau(   1) = (   0.0000000   0.0000000  10.0000000  )
         2           Ta  tau(   2) = (   4.1460248   2.4792296  10.0000000  )
         3           Ir  tau(   3) = (   2.8142742   0.0000000  10.0000000  )
         4           Ir  tau(   4) = (   1.3317506   2.4792296  10.0000000  )
         5           Ta  tau(   5) = (   5.6285484   3.3657455  12.3153119  )
         6           Ta  tau(   6) = (   1.4825236   0.8865158  12.3153119  )
         7           Ir  tau(   7) = (   2.8142742   3.3657455  12.3153119  )
         8           Ir  tau(   8) = (   4.2967978   0.8865158  12.3153119  )
         9           Ta  tau(   9) = (   3.1414613   1.8785201  14.5930534  )
        10           Ta  tau(  10) = (   7.2874849   4.3577537  14.5930546  )
        11           Ir  tau(  11) = (   5.9605834   1.8814207  14.5474899  )
        12           Ir  tau(  12) = (   4.4780584   4.3606520  14.5474898  )

     number of k points=    74  Fermi-Dirac smearing, width (Ry)=  0.0100
                       cart. coord. in units 2pi/alat
        k(    1) = (   0.0000000   0.0000000   0.0000000), wk =   0.0138889
        k(    2) = (   0.0000000   0.0168063   0.0000000), wk =   0.0277778
        k(    3) = (   0.0000000   0.0336126   0.0000000), wk =   0.0277778
        k(    4) = (   0.0000000   0.0504189   0.0000000), wk =   0.0277778
        k(    5) = (   0.0000000   0.0672252   0.0000000), wk =   0.0277778
        k(    6) = (   0.0000000   0.0840315   0.0000000), wk =   0.0277778
        k(    7) = (   0.0000000  -0.1008378   0.0000000), wk =   0.0138889
        k(    8) = (   0.0148055  -0.0079530   0.0000000), wk =   0.0277778
        k(    9) = (   0.0148055   0.0088533   0.0000000), wk =   0.0277778
        k(   10) = (   0.0148055   0.0256596   0.0000000), wk =   0.0277778
        k(   11) = (   0.0148055   0.0424659   0.0000000), wk =   0.0277778
        k(   12) = (   0.0148055   0.0592722   0.0000000), wk =   0.0277778
        k(   13) = (   0.0148055   0.0760785   0.0000000), wk =   0.0277778
        k(   14) = (   0.0148055  -0.1087907   0.0000000), wk =   0.0277778
        k(   15) = (   0.0148055  -0.0919844   0.0000000), wk =   0.0277778
        k(   16) = (   0.0148055  -0.0751781   0.0000000), wk =   0.0277778
        k(   17) = (   0.0148055  -0.0583718   0.0000000), wk =   0.0277778
        k(   18) = (   0.0148055  -0.0415655   0.0000000), wk =   0.0277778
        k(   19) = (   0.0148055  -0.0247593   0.0000000), wk =   0.0277778
        k(   20) = (   0.0296110  -0.0159059   0.0000000), wk =   0.0277778
        k(   21) = (   0.0296110   0.0009004   0.0000000), wk =   0.0277778
        k(   22) = (   0.0296110   0.0177067   0.0000000), wk =   0.0277778
        k(   23) = (   0.0296110   0.0345130   0.0000000), wk =   0.0277778
        k(   24) = (   0.0296110   0.0513193   0.0000000), wk =   0.0277778
        k(   25) = (   0.0296110   0.0681256   0.0000000), wk =   0.0277778
        k(   26) = (   0.0296110  -0.1167437   0.0000000), wk =   0.0277778
        k(   27) = (   0.0296110  -0.0999374   0.0000000), wk =   0.0277778
        k(   28) = (   0.0296110  -0.0831311   0.0000000), wk =   0.0277778
        k(   29) = (   0.0296110  -0.0663248   0.0000000), wk =   0.0277778
        k(   30) = (   0.0296110  -0.0495185   0.0000000), wk =   0.0277778
        k(   31) = (   0.0296110  -0.0327122   0.0000000), wk =   0.0277778
        k(   32) = (   0.0444164  -0.0238589   0.0000000), wk =   0.0277778
        k(   33) = (   0.0444164  -0.0070526   0.0000000), wk =   0.0277778
        k(   34) = (   0.0444164   0.0097537   0.0000000), wk =   0.0277778
        k(   35) = (   0.0444164   0.0265600   0.0000000), wk =   0.0277778
        k(   36) = (   0.0444164   0.0433663   0.0000000), wk =   0.0277778
        k(   37) = (   0.0444164   0.0601726   0.0000000), wk =   0.0277778
        k(   38) = (   0.0444164  -0.1246966   0.0000000), wk =   0.0277778
        k(   39) = (   0.0444164  -0.1078903   0.0000000), wk =   0.0277778
        k(   40) = (   0.0444164  -0.0910841   0.0000000), wk =   0.0277778
        k(   41) = (   0.0444164  -0.0742778   0.0000000), wk =   0.0277778
        k(   42) = (   0.0444164  -0.0574715   0.0000000), wk =   0.0277778
        k(   43) = (   0.0444164  -0.0406652   0.0000000), wk =   0.0277778
        k(   44) = (   0.0592219  -0.0318118   0.0000000), wk =   0.0277778
        k(   45) = (   0.0592219  -0.0150055   0.0000000), wk =   0.0277778
        k(   46) = (   0.0592219   0.0018008   0.0000000), wk =   0.0277778
        k(   47) = (   0.0592219   0.0186071   0.0000000), wk =   0.0277778
        k(   48) = (   0.0592219   0.0354134   0.0000000), wk =   0.0277778
        k(   49) = (   0.0592219   0.0522197   0.0000000), wk =   0.0277778
        k(   50) = (   0.0592219  -0.1326496   0.0000000), wk =   0.0277778
        k(   51) = (   0.0592219  -0.1158433   0.0000000), wk =   0.0277778
        k(   52) = (   0.0592219  -0.0990370   0.0000000), wk =   0.0277778
        k(   53) = (   0.0592219  -0.0822307   0.0000000), wk =   0.0277778
        k(   54) = (   0.0592219  -0.0654244   0.0000000), wk =   0.0277778
        k(   55) = (   0.0592219  -0.0486181   0.0000000), wk =   0.0277778
        k(   56) = (   0.0740274  -0.0397648   0.0000000), wk =   0.0277778
        k(   57) = (   0.0740274  -0.0229585   0.0000000), wk =   0.0277778
        k(   58) = (   0.0740274  -0.0061522   0.0000000), wk =   0.0277778
        k(   59) = (   0.0740274   0.0106541   0.0000000), wk =   0.0277778
        k(   60) = (   0.0740274   0.0274604   0.0000000), wk =   0.0277778
        k(   61) = (   0.0740274   0.0442667   0.0000000), wk =   0.0277778
        k(   62) = (   0.0740274  -0.1406026   0.0000000), wk =   0.0277778
        k(   63) = (   0.0740274  -0.1237963   0.0000000), wk =   0.0277778
        k(   64) = (   0.0740274  -0.1069900   0.0000000), wk =   0.0277778
        k(   65) = (   0.0740274  -0.0901837   0.0000000), wk =   0.0277778
        k(   66) = (   0.0740274  -0.0733774   0.0000000), wk =   0.0277778
        k(   67) = (   0.0740274  -0.0565711   0.0000000), wk =   0.0277778
        k(   68) = (  -0.0888329   0.0477177   0.0000000), wk =   0.0138889
        k(   69) = (  -0.0888329   0.0645240   0.0000000), wk =   0.0277778
        k(   70) = (  -0.0888329   0.0813303   0.0000000), wk =   0.0277778
        k(   71) = (  -0.0888329   0.0981366   0.0000000), wk =   0.0277778
        k(   72) = (  -0.0888329   0.1149429   0.0000000), wk =   0.0277778
        k(   73) = (  -0.0888329   0.1317492   0.0000000), wk =   0.0277778
        k(   74) = (  -0.0888329  -0.0531201   0.0000000), wk =   0.0138889

     Initial potential from superposition of free atoms

     starting charge  215.99404, renormalised to  216.00000

     negative rho (up, down):  3.365E-04 0.000E+00

     %%%%%%%%%%%%%%%%%%%%%%%%%%%%%%%%%%%%%%%%%%%%%%%%%%%%%%%%%%%%%%%%%%%%%%%%
     %                                                                      %
     % You are using vdW-DF, which was implemented by the Thonhauser group. %
     % Please cite the following two papers that made this development      %
     % possible and the two reviews that describe the various versions:     %
     %                                                                      %
     %   T. Thonhauser et al., PRL 115, 136402 (2015).                      %
     %   T. Thonhauser et al., PRB 76, 125112 (2007).                       %
     %   K. Berland et al., Rep. Prog. Phys. 78, 066501 (2015).             %
     %   D.C. Langreth et al., J. Phys.: Condens. Matter 21, 084203 (2009). %
     %                                                                      %
     %                                                                      %
     % If you are calculating the stress with vdW-DF, please also cite:     %
     %                                                                      %
     %   R. Sabatini et al., J. Phys.: Condens. Matter 24, 424209 (2012).   %
     %                                                                      %
     %%%%%%%%%%%%%%%%%%%%%%%%%%%%%%%%%%%%%%%%%%%%%%%%%%%%%%%%%%%%%%%%%%%%%%%%

     Adding external electric field

     Computed dipole along edir(3) :
        Dipole                0.0000 Ry au,          0.0000 Debye
        Dipole field          0.0000 Ry au,

        Potential amp.       -0.0000 Ry
        Total length         45.3815 bohr

     Starting wfcs are  156 randomized atomic wfcs

     Self-consistent Calculation

     iteration #  1     ecut=    55.12 Ry     beta= 0.10
     Davidson diagonalization with overlap
     ethr =  1.00E-02,  avg # of iterations =  2.0

[...]

     total energy              =   -4470.50331208 Ry
     estimated scf accuracy    <       3.65449527 Ry

[...]

     iteration #  7     ecut=    55.12 Ry     beta= 0.10
     Davidson diagonalization with overlap
     c_bands:  1 eigenvalues not converged
     ethr =  1.79E-05,  avg # of iterations =  8.4

[...]

     iteration # 13     ecut=    55.12 Ry     beta= 0.10
     Davidson diagonalization with overlap
     ethr =  5.56E-08,  avg # of iterations =  4.4

[...]

     total energy              =   -4470.74400453 Ry
     estimated scf accuracy    <       0.00001204 Ry

     iteration # 14     ecut=    55.12 Ry     beta= 0.10
     Davidson diagonalization with overlap
     c_bands:  1 eigenvalues not converged
     ethr =  5.57E-09,  avg # of iterations =  6.5

[...]

     Adding external electric field

     Computed dipole along edir(3) :
        Dipole                0.0474 Ry au,          0.1205 Debye
        Dipole field          0.0001 Ry au,

        Potential amp.       -0.0117 Ry
        Total length         45.3815 bohr

     End of self-consistent calculation

          k = 0.0000 0.0000 0.0000 ( 32095 PWs)   bands (ev):

   -66.5047 -66.4632 -66.4177 -66.3761 -66.3201 -66.2777 -32.9843 -32.9831
   -32.9553 -32.9079 -32.8892 -32.8847 -32.8079 -32.7597 -32.6928 -32.6899
   -32.6765 -32.6189 -32.5912 -32.4524 -32.3816 -32.2977 -32.2588 -32.2103
   -18.1970 -18.1952 -18.1944 -18.1933 -18.1726 -18.1542 -18.1511 -18.1490
   -18.1410 -18.1242 -18.1087 -18.1059 -18.1049 -18.1046 -18.1041 -18.1000
   -18.0924 -18.0730 -18.0723 -18.0703 -18.0702 -18.0649 -18.0570 -18.0449
   -18.0212 -18.0168 -17.9893 -17.9879 -17.9674 -17.9660 -17.9461 -17.9458
   -17.9420 -17.9399 -17.9356 -17.9318 -17.9266 -17.9258 -17.9210 -17.9144
   -17.8979 -17.8950  -6.3340  -4.4590  -3.9000  -3.4920  -3.4856  -3.4452
    -3.2484  -3.2079  -3.1836  -2.7677  -2.4829  -2.4657  -2.4566  -2.3259
    -2.3235  -1.1686  -1.1278  -0.8171  -0.7257  -0.5668  -0.2967  -0.2635
    -0.1770  -0.1137  -0.0426   0.1274   0.3007   0.3939   0.4975   1.3293
     1.4041   1.4263   1.6395   1.6747   1.6866   1.8636   2.0228   2.0303
     2.5222   2.5798   2.6119   2.7597   2.7711   3.2063   3.6139   3.7127
     3.7829   3.8151   3.9659   4.0901   4.1546   4.3302   4.4199   4.6175
     5.1293   5.1758   5.1831   5.2845   5.9049   5.9436   6.0649   6.2842
     6.4351   6.4621

[...]

          k = 0.0740-0.0566 0.0000 ( 32048 PWs)   bands (ev):

[...]

          k =-0.0888 0.0477 0.0000 ( 32074 PWs)   bands (ev):

[...]

          k =-0.0888-0.0531 0.0000 ( 32010 PWs)   bands (ev):

   -66.5044 -66.4631 -66.4173 -66.3760 -66.3199 -66.2775 -32.9964 -32.9956
   -32.9582 -32.9110 -32.8942 -32.8787 -32.8052 -32.7824 -32.7050 -32.6945
   -32.6744 -32.6199 -32.6080 -32.4520 -32.3843 -32.2989 -32.2605 -32.2120
   -18.1976 -18.1957 -18.1948 -18.1935 -18.1730 -18.1544 -18.1511 -18.1494
   -18.1411 -18.1243 -18.1089 -18.1068 -18.1060 -18.1052 -18.1044 -18.1010
   -18.0927 -18.0732 -18.0722 -18.0710 -18.0702 -18.0653 -18.0570 -18.0450
   -18.0227 -18.0178 -17.9892 -17.9888 -17.9686 -17.9668 -17.9464 -17.9463
   -17.9425 -17.9409 -17.9361 -17.9322 -17.9267 -17.9262 -17.9213 -17.9144
   -17.8979 -17.8951  -4.5294  -4.2571  -2.9611  -2.7326  -2.6358  -2.6317
    -2.5850  -2.3398  -2.1563  -2.0022  -1.9365  -1.7678  -1.4753  -1.3325
    -1.3188  -1.3019  -1.1100  -0.8746  -0.8305  -0.4517  -0.4340  -0.2910
    -0.2403  -0.1430   0.0537   0.1609   0.1623   0.3250   0.5593   0.5936
     0.7075   0.7604   0.7839   0.7961   0.9781   1.2143   1.2226   1.2796
     1.3805   1.3846   1.4991   1.5628   1.6618   1.8452   1.8566   1.8610
     2.3435   2.5140   3.3910   3.4413   3.4837   3.6608   3.9916   4.2327
     4.2775   4.5473   4.7389   4.8789   4.8928   5.0879   5.1027   5.4039
     5.7019   5.9247

     the Fermi energy is     2.3135 ev

!    total energy              =   -4470.74400927 Ry
     estimated scf accuracy    <       0.00000850 Ry
     smearing contrib. (-TS)   =      -0.06091672 Ry
     internal energy E=F+TS    =   -4470.68309256 Ry

     The total energy is F=E-TS. E is the sum of the following terms:
     one-electron contribution =  -27439.07780414 Ry
     hartree contribution      =   13853.05129372 Ry
     xc contribution           =    -608.98425529 Ry
     ewald contribution        =    9724.32766706 Ry
     electric field correction =       0.00000609 Ry

     convergence has been achieved in  14 iterations

     negative rho (up, down):  4.256E-04 0.000E+00

     Forces acting on atoms (cartesian axes, Ry/au):

     atom    1 type  1   force =    -0.00376598   -0.00223799   -0.00266469
     atom    2 type  1   force =    -0.00376745   -0.00223780   -0.00268873
     atom    3 type  2   force =    -0.01143601   -0.00684344    0.02225110
     atom    4 type  2   force =    -0.01143842   -0.00684398    0.02224786
     atom    5 type  1   force =     0.00898871    0.00539755   -0.01815644
     atom    6 type  1   force =     0.00900159    0.00535957   -0.01813516
     atom    7 type  2   force =     0.00587617    0.00350976   -0.00922271
     atom    8 type  2   force =     0.00587825    0.00350902   -0.00922098
     atom    9 type  1   force =     0.00044356    0.00024926    0.00694250
     atom   10 type  1   force =     0.00043245    0.00027986    0.00693771
     atom   11 type  2   force =    -0.00010742   -0.00006952    0.00085622
     atom   12 type  2   force =    -0.00010544   -0.00007228    0.00085333

     Total force =     0.051366     Total SCF correction =     0.024082
     SCF correction compared to forces is large: reduce conv_thr to get better values

     Writing output data file ./Ta2Ir2/Ta2Ir2_beef.save/

     General routines

     Parallel routines

   This run was terminated on:   9:18:16  26Jun2022

   JOB DONE.