     Program PWSCF v.6.6 starts on 26Jun2022 at  9:18:21

     R & G space division:  proc/nbgrp/npool/nimage =      37
     Fft bands division:     nmany     =       1
     Reading input from Ta2Os2.in
Warning: card &CELL ignored
Warning: card / ignored

     Current dimensions of program PWSCF are:
     Max number of different atomic species (ntypx) = 10
     Max number of k-points (npk) =  40000
     Max angular momentum in pseudopotentials (lmaxx) =  3
     Presently stress not available with electric field and gates

     Message from routine cell_base_init:
     DEPRECATED: use true lattice parameter, not A to a.u. conversion factor
     file Ta.pbe-spfn-rrkjus_psl.1.0.0.UPF: wavefunction(s)  5S 5P renormalized

     IMPORTANT: XC functional enforced from input :
     Exchange-correlation= BEEF-VDW
                           (   1   4  43  14   2   0   0)
     Any further DFT definition will be discarded
     Please, verify this is what you really want

     Subspace diagonalization in iterative solution of the eigenvalue problem:
     a serial algorithm will be used

     Found symmetry operation: I + ( -0.5000  0.5000  0.0000)
     This is a supercell, fractional translations are disabled

     bravais-lattice index     =            0
     lattice parameter (alat)  =       1.8897  a.u.
     unit-cell volume          =    4701.1513 (a.u.)^3
     number of atoms/cell      =           12
     number of atomic types    =            2
     number of electrons       =       258.00
     number of Kohn-Sham states=          155
     kinetic-energy cutoff     =      55.1240  Ry
     charge density cutoff     =     551.2396  Ry
     convergence threshold     =      1.0E-05
     mixing beta               =       0.1000
     number of iterations used =           10  plain     mixing
     Exchange-correlation= BEEF-VDW
                           (   1   4  43  14   2   0   0)

     celldm(1)=   1.889726  celldm(2)=   0.000000  celldm(3)=   0.000000
     celldm(4)=   0.000000  celldm(5)=   0.000000  celldm(6)=   0.000000

     crystal axes: (cart. coord. in units of alat)
               a(1) = (   5.549521   0.000000   0.000000 )
               a(2) = (   2.177692   5.104395   0.000000 )
               a(3) = (   0.000000   0.000000  24.592798 )

     reciprocal axes: (cart. coord. in units 2 pi/alat)
               b(1) = (  0.180196 -0.076877  0.000000 )
               b(2) = (  0.000000  0.195910  0.000000 )
               b(3) = (  0.000000  0.000000  0.040662 )

     PseudoPot. # 1 for Ta read from file:
     ../pseudo/Ta.pbe-spfn-rrkjus_psl.1.0.0.UPF
     MD5 check sum: 39d7d349fe394e56adf8454eb9315fbb
     Pseudo is Ultrasoft + core correction, Zval = 27.0
     Generated using "atomic" code by A. Dal Corso v.6.3
     Using radial grid of 1273 points,  8 beta functions with:
                l(1) =   0
                l(2) =   0
                l(3) =   1
                l(4) =   1
                l(5) =   2
                l(6) =   2
                l(7) =   3
                l(8) =   3
     Q(r) pseudized with 0 coefficients

     PseudoPot. # 2 for Os read from file:
     ../pseudo/Os.pbe-spn-rrkjus_psl.1.0.0.UPF
     MD5 check sum: 3e7416ed594f6513d36e5cb31ba709d9
     Pseudo is Ultrasoft + core correction, Zval = 16.0
     Generated using "atomic" code by A. Dal Corso v.6.2.2
     Using radial grid of 1275 points,  6 beta functions with:
                l(1) =   0
                l(2) =   0
                l(3) =   1
                l(4) =   1
                l(5) =   2
                l(6) =   2
     Q(r) pseudized with 0 coefficients

     atomic species   valence    mass     pseudopotential
        Ta            27.00   180.94788     Ta( 1.00)
        Os            16.00   190.23000     Os( 1.00)

     No symmetry found

   Cartesian axes

     site n.     atom                  positions (alat units)
         1           Ta  tau(   1) = (   0.0000000   0.0000000  10.0000000  )
         2           Ta  tau(   2) = (   3.8636070   2.5521973  10.0000000  )
         3           Os  tau(   3) = (   2.7747607   0.0000000  10.0000000  )
         4           Os  tau(   4) = (   1.0888462   2.5521973  10.0000000  )
         5           Ta  tau(   5) = (   5.5495215   3.6658681  12.2963990  )
         6           Ta  tau(   6) = (   1.6859145   1.1136708  12.2963990  )
         7           Os  tau(   7) = (   2.7747607   3.6658681  12.2963990  )
         8           Os  tau(   8) = (   4.4606752   1.1136708  12.2963990  )
         9           Ta  tau(   9) = (   3.6342994   2.4007279  14.5898308  )
        10           Ta  tau(  10) = (   7.4979114   4.9529192  14.5898312  )
        11           Os  tau(  11) = (   6.4145546   2.4043511  14.4022703  )
        12           Os  tau(  12) = (   4.7286360   4.9565502  14.4022658  )

     number of k points=    74  Fermi-Dirac smearing, width (Ry)=  0.0100
                       cart. coord. in units 2pi/alat
        k(    1) = (   0.0000000   0.0000000   0.0000000), wk =   0.0138889
        k(    2) = (   0.0000000   0.0163258   0.0000000), wk =   0.0277778
        k(    3) = (   0.0000000   0.0326516   0.0000000), wk =   0.0277778
        k(    4) = (   0.0000000   0.0489774   0.0000000), wk =   0.0277778
        k(    5) = (   0.0000000   0.0653032   0.0000000), wk =   0.0277778
        k(    6) = (   0.0000000   0.0816290   0.0000000), wk =   0.0277778
        k(    7) = (   0.0000000  -0.0979548   0.0000000), wk =   0.0138889
        k(    8) = (   0.0150163  -0.0064064   0.0000000), wk =   0.0277778
        k(    9) = (   0.0150163   0.0099194   0.0000000), wk =   0.0277778
        k(   10) = (   0.0150163   0.0262452   0.0000000), wk =   0.0277778
        k(   11) = (   0.0150163   0.0425710   0.0000000), wk =   0.0277778
        k(   12) = (   0.0150163   0.0588968   0.0000000), wk =   0.0277778
        k(   13) = (   0.0150163   0.0752226   0.0000000), wk =   0.0277778
        k(   14) = (   0.0150163  -0.1043612   0.0000000), wk =   0.0277778
        k(   15) = (   0.0150163  -0.0880354   0.0000000), wk =   0.0277778
        k(   16) = (   0.0150163  -0.0717096   0.0000000), wk =   0.0277778
        k(   17) = (   0.0150163  -0.0553838   0.0000000), wk =   0.0277778
        k(   18) = (   0.0150163  -0.0390580   0.0000000), wk =   0.0277778
        k(   19) = (   0.0150163  -0.0227322   0.0000000), wk =   0.0277778
        k(   20) = (   0.0300326  -0.0128128   0.0000000), wk =   0.0277778
        k(   21) = (   0.0300326   0.0035130   0.0000000), wk =   0.0277778
        k(   22) = (   0.0300326   0.0198388   0.0000000), wk =   0.0277778
        k(   23) = (   0.0300326   0.0361646   0.0000000), wk =   0.0277778
        k(   24) = (   0.0300326   0.0524904   0.0000000), wk =   0.0277778
        k(   25) = (   0.0300326   0.0688162   0.0000000), wk =   0.0277778
        k(   26) = (   0.0300326  -0.1107676   0.0000000), wk =   0.0277778
        k(   27) = (   0.0300326  -0.0944418   0.0000000), wk =   0.0277778
        k(   28) = (   0.0300326  -0.0781160   0.0000000), wk =   0.0277778
        k(   29) = (   0.0300326  -0.0617902   0.0000000), wk =   0.0277778
        k(   30) = (   0.0300326  -0.0454644   0.0000000), wk =   0.0277778
        k(   31) = (   0.0300326  -0.0291386   0.0000000), wk =   0.0277778
        k(   32) = (   0.0450489  -0.0192193   0.0000000), wk =   0.0277778
        k(   33) = (   0.0450489  -0.0028935   0.0000000), wk =   0.0277778
        k(   34) = (   0.0450489   0.0134323   0.0000000), wk =   0.0277778
        k(   35) = (   0.0450489   0.0297581   0.0000000), wk =   0.0277778
        k(   36) = (   0.0450489   0.0460839   0.0000000), wk =   0.0277778
        k(   37) = (   0.0450489   0.0624097   0.0000000), wk =   0.0277778
        k(   38) = (   0.0450489  -0.1171741   0.0000000), wk =   0.0277778
        k(   39) = (   0.0450489  -0.1008483   0.0000000), wk =   0.0277778
        k(   40) = (   0.0450489  -0.0845225   0.0000000), wk =   0.0277778
        k(   41) = (   0.0450489  -0.0681967   0.0000000), wk =   0.0277778
        k(   42) = (   0.0450489  -0.0518709   0.0000000), wk =   0.0277778
        k(   43) = (   0.0450489  -0.0355451   0.0000000), wk =   0.0277778
        k(   44) = (   0.0600652  -0.0256257   0.0000000), wk =   0.0277778
        k(   45) = (   0.0600652  -0.0092999   0.0000000), wk =   0.0277778
        k(   46) = (   0.0600652   0.0070259   0.0000000), wk =   0.0277778
        k(   47) = (   0.0600652   0.0233517   0.0000000), wk =   0.0277778
        k(   48) = (   0.0600652   0.0396775   0.0000000), wk =   0.0277778
        k(   49) = (   0.0600652   0.0560033   0.0000000), wk =   0.0277778
        k(   50) = (   0.0600652  -0.1235805   0.0000000), wk =   0.0277778
        k(   51) = (   0.0600652  -0.1072547   0.0000000), wk =   0.0277778
        k(   52) = (   0.0600652  -0.0909289   0.0000000), wk =   0.0277778
        k(   53) = (   0.0600652  -0.0746031   0.0000000), wk =   0.0277778
        k(   54) = (   0.0600652  -0.0582773   0.0000000), wk =   0.0277778
        k(   55) = (   0.0600652  -0.0419515   0.0000000), wk =   0.0277778
        k(   56) = (   0.0750816  -0.0320321   0.0000000), wk =   0.0277778
        k(   57) = (   0.0750816  -0.0157063   0.0000000), wk =   0.0277778
        k(   58) = (   0.0750816   0.0006195   0.0000000), wk =   0.0277778
        k(   59) = (   0.0750816   0.0169453   0.0000000), wk =   0.0277778
        k(   60) = (   0.0750816   0.0332711   0.0000000), wk =   0.0277778
        k(   61) = (   0.0750816   0.0495969   0.0000000), wk =   0.0277778
        k(   62) = (   0.0750816  -0.1299869   0.0000000), wk =   0.0277778
        k(   63) = (   0.0750816  -0.1136611   0.0000000), wk =   0.0277778
        k(   64) = (   0.0750816  -0.0973353   0.0000000), wk =   0.0277778
        k(   65) = (   0.0750816  -0.0810095   0.0000000), wk =   0.0277778
        k(   66) = (   0.0750816  -0.0646837   0.0000000), wk =   0.0277778
        k(   67) = (   0.0750816  -0.0483579   0.0000000), wk =   0.0277778
        k(   68) = (  -0.0900979   0.0384385   0.0000000), wk =   0.0138889
        k(   69) = (  -0.0900979   0.0547643   0.0000000), wk =   0.0277778
        k(   70) = (  -0.0900979   0.0710901   0.0000000), wk =   0.0277778
        k(   71) = (  -0.0900979   0.0874159   0.0000000), wk =   0.0277778
        k(   72) = (  -0.0900979   0.1037417   0.0000000), wk =   0.0277778
        k(   73) = (  -0.0900979   0.1200675   0.0000000), wk =   0.0277778
        k(   74) = (  -0.0900979  -0.0595163   0.0000000), wk =   0.0138889

     Initial potential from superposition of free atoms

     starting charge  257.99348, renormalised to  258.00000

     negative rho (up, down):  3.845E-04 0.000E+00

     %%%%%%%%%%%%%%%%%%%%%%%%%%%%%%%%%%%%%%%%%%%%%%%%%%%%%%%%%%%%%%%%%%%%%%%%
     %                                                                      %
     % You are using vdW-DF, which was implemented by the Thonhauser group. %
     % Please cite the following two papers that made this development      %
     % possible and the two reviews that describe the various versions:     %
     %                                                                      %
     %   T. Thonhauser et al., PRL 115, 136402 (2015).                      %
     %   T. Thonhauser et al., PRB 76, 125112 (2007).                       %
     %   K. Berland et al., Rep. Prog. Phys. 78, 066501 (2015).             %
     %   D.C. Langreth et al., J. Phys.: Condens. Matter 21, 084203 (2009). %
     %                                                                      %
     %                                                                      %
     % If you are calculating the stress with vdW-DF, please also cite:     %
     %                                                                      %
     %   R. Sabatini et al., J. Phys.: Condens. Matter 24, 424209 (2012).   %
     %                                                                      %
     %%%%%%%%%%%%%%%%%%%%%%%%%%%%%%%%%%%%%%%%%%%%%%%%%%%%%%%%%%%%%%%%%%%%%%%%

     Adding external electric field

     Computed dipole along edir(3) :
        Dipole                0.0001 Ry au,          0.0003 Debye
        Dipole field          0.0000 Ry au,

        Potential amp.       -0.0000 Ry
        Total length         45.3118 bohr

     Starting wfcs are  162 randomized atomic wfcs

     Self-consistent Calculation

     iteration #  1     ecut=    55.12 Ry     beta= 0.10
     Davidson diagonalization with overlap
     ethr =  1.00E-02,  avg # of iterations =  2.9

[...]

     total energy              =   -5295.70519213 Ry
     estimated scf accuracy    <       3.71565668 Ry

[...]

     iteration #  6     ecut=    55.12 Ry     beta= 0.10
     Davidson diagonalization with overlap
     c_bands:  1 eigenvalues not converged
     ethr =  5.56E-05,  avg # of iterations =  6.5

[...]

     iteration #  9     ecut=    55.12 Ry     beta= 0.10
     Davidson diagonalization with overlap
     c_bands:  1 eigenvalues not converged
     c_bands:  1 eigenvalues not converged
     c_bands:  1 eigenvalues not converged
     c_bands:  1 eigenvalues not converged
     ethr =  1.53E-06,  avg # of iterations =  6.4

[...]

     total energy              =   -5295.90779701 Ry
     estimated scf accuracy    <       0.00006464 Ry

     iteration # 13     ecut=    55.12 Ry     beta= 0.10
     Davidson diagonalization with overlap
     ethr =  2.51E-08,  avg # of iterations =  2.6

[...]

     Adding external electric field

     Computed dipole along edir(3) :
        Dipole                0.0866 Ry au,          0.2202 Debye
        Dipole field          0.0002 Ry au,

        Potential amp.       -0.0210 Ry
        Total length         45.3118 bohr

     End of self-consistent calculation

          k = 0.0000 0.0000 0.0000 ( 32557 PWs)   bands (ev):

   -83.5941 -83.5881 -83.0689 -83.0630 -82.9182 -82.9125 -65.8977 -65.8780
   -65.7913 -65.7712 -65.7591 -65.7392 -43.0443 -42.8793 -42.8721 -42.8637
   -42.8540 -42.8486 -42.4612 -42.4012 -42.3819 -42.3494 -42.3333 -42.2956
   -42.2734 -42.2676 -42.2487 -42.1601 -42.1446 -42.1130 -32.3195 -32.2890
   -32.2714 -32.2274 -32.2116 -32.1934 -32.1296 -32.1264 -32.0681 -32.0442
   -32.0247 -31.9955 -31.9855 -31.9256 -31.8787 -31.8760 -31.8269 -31.7445
   -17.5957 -17.5926 -17.5922 -17.5912 -17.5746 -17.5600 -17.5517 -17.5375
   -17.5373 -17.5329 -17.4932 -17.4918 -17.4831 -17.4787 -17.4772 -17.4771
   -17.4762 -17.4760 -17.4705 -17.4555 -17.4466 -17.4338 -17.4317 -17.4272
   -17.4009 -17.3963 -17.3918 -17.3906 -17.3796 -17.3789 -17.3759 -17.3749
   -17.3732 -17.3662 -17.3631 -17.3580 -17.3579 -17.3575 -17.3441 -17.3418
   -17.3332 -17.3315  -5.6390  -3.5897  -3.0229  -2.7873  -2.6644  -2.6348
    -2.4278  -2.3903  -2.2008  -2.0735  -1.4510  -1.4302  -1.2715  -0.8006
    -0.7936  -0.3508  -0.2740  -0.1951  -0.0163   0.2016   0.2322   0.3902
     0.9854   1.0133   1.1601   1.1618   1.4218   1.7725   1.9591   1.9880
     2.3432   2.4145   2.6363   2.8122   3.2991   3.3712   3.4821   3.5912
     3.8187   4.1235   4.1571   4.2176   4.3132   4.3530   4.4968   4.5393
     4.5541   4.7608   4.9790   5.1358   5.1523   5.2345   5.3689   5.4994
     5.7669   5.7711   6.0559   6.0904   6.2516   6.3693   6.6108   6.9040
     7.1849   7.4354   7.4649

[...]

          k = 0.0751-0.0484 0.0000 ( 32448 PWs)   bands (ev):

[...]

          k =-0.0901 0.0384 0.0000 ( 32476 PWs)   bands (ev):

[...]

          k =-0.0901-0.0595 0.0000 ( 32490 PWs)   bands (ev):

   -83.5940 -83.5882 -83.0689 -83.0630 -82.9182 -82.9125 -65.8979 -65.8782
   -65.7913 -65.7718 -65.7601 -65.7386 -43.0384 -42.8784 -42.8651 -42.8603
   -42.8485 -42.8455 -42.4554 -42.3914 -42.3777 -42.3486 -42.3353 -42.2948
   -42.2672 -42.2571 -42.2440 -42.1592 -42.1448 -42.1121 -32.3415 -32.2963
   -32.2857 -32.2366 -32.2280 -32.1981 -32.1490 -32.1418 -32.1160 -32.0743
   -32.0407 -32.0288 -31.9703 -31.9122 -31.9029 -31.8808 -31.8320 -31.7497
   -17.5959 -17.5932 -17.5926 -17.5918 -17.5749 -17.5601 -17.5516 -17.5378
   -17.5374 -17.5329 -17.4951 -17.4932 -17.4835 -17.4789 -17.4788 -17.4783
   -17.4767 -17.4759 -17.4708 -17.4557 -17.4467 -17.4338 -17.4323 -17.4273
   -17.4026 -17.3979 -17.3938 -17.3921 -17.3813 -17.3789 -17.3780 -17.3748
   -17.3731 -17.3667 -17.3635 -17.3587 -17.3582 -17.3580 -17.3442 -17.3428
   -17.3334 -17.3316  -3.5681  -3.4152  -1.9612  -1.9372  -1.6255  -1.6133
    -1.5460  -1.4705  -1.4018  -1.0194  -0.8437  -0.4311  -0.4013  -0.3123
    -0.2665  -0.1804  -0.1444   0.1842   0.2254   0.5784   0.7116   0.7919
     0.8897   1.0929   1.1593   1.2922   1.3012   1.4723   1.4735   1.5564
     1.6249   1.6861   1.8000   1.8602   1.8854   2.0487   2.1863   2.2302
     2.6157   2.8338   2.8358   2.9168   2.9201   3.1261   3.3952   3.4757
     3.7323   3.9582   4.3531   4.4381   4.4426   4.4488   4.8133   4.8223
     4.8687   5.0424   5.1007   5.5654   5.5828   5.7105   5.8278   6.0689
     6.3457   6.8150   6.9194

     the Fermi energy is     3.1233 ev

!    total energy              =   -5295.90780729 Ry
     estimated scf accuracy    <       0.00000965 Ry
     smearing contrib. (-TS)   =      -0.03787783 Ry
     internal energy E=F+TS    =   -5295.86992946 Ry

     The total energy is F=E-TS. E is the sum of the following terms:
     one-electron contribution =  -37555.94425652 Ry
     hartree contribution      =   18871.24977639 Ry
     xc contribution           =    -649.78765781 Ry
     ewald contribution        =   14038.61218842 Ry
     electric field correction =       0.00002006 Ry

     convergence has been achieved in  13 iterations

     negative rho (up, down):  3.184E-04 0.000E+00

     Forces acting on atoms (cartesian axes, Ry/au):

     atom    1 type  1   force =    -0.02038238   -0.01346634   -0.02763819
     atom    2 type  1   force =    -0.02037998   -0.01346136   -0.02764047
     atom    3 type  2   force =    -0.00097549   -0.00064414    0.05934781
     atom    4 type  2   force =    -0.00097578   -0.00064464    0.05934746
     atom    5 type  1   force =     0.01259229    0.00832830   -0.03954253
     atom    6 type  1   force =     0.01259701    0.00831761   -0.03954454
     atom    7 type  2   force =     0.00791765    0.00522869    0.00117819
     atom    8 type  2   force =     0.00791937    0.00523037    0.00118053
     atom    9 type  1   force =     0.00049680    0.00031953    0.00788828
     atom   10 type  1   force =     0.00049064    0.00032912    0.00789305
     atom   11 type  2   force =     0.00034854    0.00023224   -0.00123580
     atom   12 type  2   force =     0.00035133    0.00023061   -0.00123380

     Total force =     0.116888     Total SCF correction =     0.036600
     SCF correction compared to forces is large: reduce conv_thr to get better values

     Writing output data file ./Ta2Os2/Ta2Os2_beef.save/

     General routines

     Parallel routines

   This run was terminated on:  11:53: 9  26Jun2022

   JOB DONE.