     Program PWSCF v.6.6 starts on 26Jun2022 at 15:29:45

     R & G space division:  proc/nbgrp/npool/nimage =      37
     Fft bands division:     nmany     =       1
     Reading input from Ta2Re2.in
Warning: card &CELL ignored
Warning: card / ignored

     Current dimensions of program PWSCF are:
     Max number of different atomic species (ntypx) = 10
     Max number of k-points (npk) =  40000
     Max angular momentum in pseudopotentials (lmaxx) =  3
     Presently stress not available with electric field and gates

     Message from routine cell_base_init:
     DEPRECATED: use true lattice parameter, not A to a.u. conversion factor
     file Ta.pbe-spfn-rrkjus_psl.1.0.0.UPF: wavefunction(s)  5S 5P renormalized

     IMPORTANT: XC functional enforced from input :
     Exchange-correlation= BEEF-VDW
                           (   1   4  43  14   2   0   0)
     Any further DFT definition will be discarded
     Please, verify this is what you really want

     Subspace diagonalization in iterative solution of the eigenvalue problem:
     a serial algorithm will be used

     Found symmetry operation: I + (  0.5000 -0.5000  0.0000)
     This is a supercell, fractional translations are disabled

     bravais-lattice index     =            0
     lattice parameter (alat)  =       1.8897  a.u.
     unit-cell volume          =    4782.8657 (a.u.)^3
     number of atoms/cell      =           12
     number of atomic types    =            2
     number of electrons       =       252.00
     number of Kohn-Sham states=          151
     kinetic-energy cutoff     =      55.1240  Ry
     charge density cutoff     =     551.2396  Ry
     convergence threshold     =      1.0E-05
     mixing beta               =       0.1000
     number of iterations used =           10  plain     mixing
     Exchange-correlation= BEEF-VDW
                           (   1   4  43  14   2   0   0)

     celldm(1)=   1.889726  celldm(2)=   0.000000  celldm(3)=   0.000000
     celldm(4)=   0.000000  celldm(5)=   0.000000  celldm(6)=   0.000000

     crystal axes: (cart. coord. in units of alat)
               a(1) = (   5.530750   0.000000   0.000000 )
               a(2) = (   1.798307   5.230228   0.000000 )
               a(3) = (   0.000000   0.000000  24.501181 )

     reciprocal axes: (cart. coord. in units 2 pi/alat)
               b(1) = (  0.180807 -0.062167  0.000000 )
               b(2) = (  0.000000  0.191196  0.000000 )
               b(3) = (  0.000000  0.000000  0.040814 )

     PseudoPot. # 1 for Ta read from file:
     ../pseudo/Ta.pbe-spfn-rrkjus_psl.1.0.0.UPF
     MD5 check sum: 39d7d349fe394e56adf8454eb9315fbb
     Pseudo is Ultrasoft + core correction, Zval = 27.0
     Generated using "atomic" code by A. Dal Corso v.6.3
     Using radial grid of 1273 points,  8 beta functions with:
                l(1) =   0
                l(2) =   0
                l(3) =   1
                l(4) =   1
                l(5) =   2
                l(6) =   2
                l(7) =   3
                l(8) =   3
     Q(r) pseudized with 0 coefficients

     PseudoPot. # 2 for Re read from file:
     ../pseudo/Re.pbe-spn-rrkjus_psl.1.0.0.UPF
     MD5 check sum: 1282f1ec51ad523723a04c61ae80a9e6
     Pseudo is Ultrasoft + core correction, Zval = 15.0
     Generated using "atomic" code by A. Dal Corso v.6.2.2
     Using radial grid of 1275 points,  6 beta functions with:
                l(1) =   0
                l(2) =   0
                l(3) =   1
                l(4) =   1
                l(5) =   2
                l(6) =   2
     Q(r) pseudized with 0 coefficients

     atomic species   valence    mass     pseudopotential
        Ta            27.00   180.94788     Ta( 1.00)
        Re            15.00   186.20700     Re( 1.00)

     No symmetry found

   Cartesian axes

     site n.     atom                  positions (alat units)
         1           Ta  tau(   1) = (   0.0000000   0.0000000  10.0000000  )
         2           Ta  tau(   2) = (   3.6645282   2.6151140  10.0000000  )
         3           Re  tau(   3) = (   2.7653748   0.0000000  10.0000000  )
         4           Re  tau(   4) = (   0.8991534   2.6151140  10.0000000  )
         5           Ta  tau(   5) = (   5.5307497   3.9469039  12.2505903  )
         6           Ta  tau(   6) = (   1.8662214   1.3317899  12.2505903  )
         7           Re  tau(   7) = (   2.7653748   3.9469039  12.2505903  )
         8           Re  tau(   8) = (   4.6315963   1.3317899  12.2505903  )
         9           Ta  tau(   9) = (   3.7038850   2.6432030  14.5043784  )
        10           Ta  tau(  10) = (   0.0393495   0.0280854  14.5043841  )
        11           Re  tau(  11) = (   0.9402132   2.6444061  14.3940844  )
        12           Re  tau(  12) = (   2.8064262   0.0292930  14.3940910  )

     number of k points=    74  Fermi-Dirac smearing, width (Ry)=  0.0100
                       cart. coord. in units 2pi/alat
        k(    1) = (   0.0000000   0.0000000   0.0000000), wk =   0.0138889
        k(    2) = (   0.0000000   0.0159330   0.0000000), wk =   0.0277778
        k(    3) = (   0.0000000   0.0318660   0.0000000), wk =   0.0277778
        k(    4) = (   0.0000000   0.0477991   0.0000000), wk =   0.0277778
        k(    5) = (   0.0000000   0.0637321   0.0000000), wk =   0.0277778
        k(    6) = (   0.0000000   0.0796651   0.0000000), wk =   0.0277778
        k(    7) = (   0.0000000  -0.0955981   0.0000000), wk =   0.0138889
        k(    8) = (   0.0150673  -0.0051806   0.0000000), wk =   0.0277778
        k(    9) = (   0.0150673   0.0107524   0.0000000), wk =   0.0277778
        k(   10) = (   0.0150673   0.0266855   0.0000000), wk =   0.0277778
        k(   11) = (   0.0150673   0.0426185   0.0000000), wk =   0.0277778
        k(   12) = (   0.0150673   0.0585515   0.0000000), wk =   0.0277778
        k(   13) = (   0.0150673   0.0744845   0.0000000), wk =   0.0277778
        k(   14) = (   0.0150673  -0.1007787   0.0000000), wk =   0.0277778
        k(   15) = (   0.0150673  -0.0848457   0.0000000), wk =   0.0277778
        k(   16) = (   0.0150673  -0.0689127   0.0000000), wk =   0.0277778
        k(   17) = (   0.0150673  -0.0529796   0.0000000), wk =   0.0277778
        k(   18) = (   0.0150673  -0.0370466   0.0000000), wk =   0.0277778
        k(   19) = (   0.0150673  -0.0211136   0.0000000), wk =   0.0277778
        k(   20) = (   0.0301346  -0.0103611   0.0000000), wk =   0.0277778
        k(   21) = (   0.0301346   0.0055719   0.0000000), wk =   0.0277778
        k(   22) = (   0.0301346   0.0215049   0.0000000), wk =   0.0277778
        k(   23) = (   0.0301346   0.0374379   0.0000000), wk =   0.0277778
        k(   24) = (   0.0301346   0.0533709   0.0000000), wk =   0.0277778
        k(   25) = (   0.0301346   0.0693040   0.0000000), wk =   0.0277778
        k(   26) = (   0.0301346  -0.1059593   0.0000000), wk =   0.0277778
        k(   27) = (   0.0301346  -0.0900263   0.0000000), wk =   0.0277778
        k(   28) = (   0.0301346  -0.0740932   0.0000000), wk =   0.0277778
        k(   29) = (   0.0301346  -0.0581602   0.0000000), wk =   0.0277778
        k(   30) = (   0.0301346  -0.0422272   0.0000000), wk =   0.0277778
        k(   31) = (   0.0301346  -0.0262942   0.0000000), wk =   0.0277778
        k(   32) = (   0.0452018  -0.0155417   0.0000000), wk =   0.0277778
        k(   33) = (   0.0452018   0.0003913   0.0000000), wk =   0.0277778
        k(   34) = (   0.0452018   0.0163243   0.0000000), wk =   0.0277778
        k(   35) = (   0.0452018   0.0322573   0.0000000), wk =   0.0277778
        k(   36) = (   0.0452018   0.0481904   0.0000000), wk =   0.0277778
        k(   37) = (   0.0452018   0.0641234   0.0000000), wk =   0.0277778
        k(   38) = (   0.0452018  -0.1111399   0.0000000), wk =   0.0277778
        k(   39) = (   0.0452018  -0.0952068   0.0000000), wk =   0.0277778
        k(   40) = (   0.0452018  -0.0792738   0.0000000), wk =   0.0277778
        k(   41) = (   0.0452018  -0.0633408   0.0000000), wk =   0.0277778
        k(   42) = (   0.0452018  -0.0474078   0.0000000), wk =   0.0277778
        k(   43) = (   0.0452018  -0.0314747   0.0000000), wk =   0.0277778
        k(   44) = (   0.0602691  -0.0207223   0.0000000), wk =   0.0277778
        k(   45) = (   0.0602691  -0.0047893   0.0000000), wk =   0.0277778
        k(   46) = (   0.0602691   0.0111437   0.0000000), wk =   0.0277778
        k(   47) = (   0.0602691   0.0270768   0.0000000), wk =   0.0277778
        k(   48) = (   0.0602691   0.0430098   0.0000000), wk =   0.0277778
        k(   49) = (   0.0602691   0.0589428   0.0000000), wk =   0.0277778
        k(   50) = (   0.0602691  -0.1163204   0.0000000), wk =   0.0277778
        k(   51) = (   0.0602691  -0.1003874   0.0000000), wk =   0.0277778
        k(   52) = (   0.0602691  -0.0844544   0.0000000), wk =   0.0277778
        k(   53) = (   0.0602691  -0.0685214   0.0000000), wk =   0.0277778
        k(   54) = (   0.0602691  -0.0525883   0.0000000), wk =   0.0277778
        k(   55) = (   0.0602691  -0.0366553   0.0000000), wk =   0.0277778
        k(   56) = (   0.0753364  -0.0259029   0.0000000), wk =   0.0277778
        k(   57) = (   0.0753364  -0.0099699   0.0000000), wk =   0.0277778
        k(   58) = (   0.0753364   0.0059632   0.0000000), wk =   0.0277778
        k(   59) = (   0.0753364   0.0218962   0.0000000), wk =   0.0277778
        k(   60) = (   0.0753364   0.0378292   0.0000000), wk =   0.0277778
        k(   61) = (   0.0753364   0.0537622   0.0000000), wk =   0.0277778
        k(   62) = (   0.0753364  -0.1215010   0.0000000), wk =   0.0277778
        k(   63) = (   0.0753364  -0.1055680   0.0000000), wk =   0.0277778
        k(   64) = (   0.0753364  -0.0896350   0.0000000), wk =   0.0277778
        k(   65) = (   0.0753364  -0.0737019   0.0000000), wk =   0.0277778
        k(   66) = (   0.0753364  -0.0577689   0.0000000), wk =   0.0277778
        k(   67) = (   0.0753364  -0.0418359   0.0000000), wk =   0.0277778
        k(   68) = (  -0.0904037   0.0310834   0.0000000), wk =   0.0138889
        k(   69) = (  -0.0904037   0.0470165   0.0000000), wk =   0.0277778
        k(   70) = (  -0.0904037   0.0629495   0.0000000), wk =   0.0277778
        k(   71) = (  -0.0904037   0.0788825   0.0000000), wk =   0.0277778
        k(   72) = (  -0.0904037   0.0948155   0.0000000), wk =   0.0277778
        k(   73) = (  -0.0904037   0.1107486   0.0000000), wk =   0.0277778
        k(   74) = (  -0.0904037  -0.0645147   0.0000000), wk =   0.0138889

     Initial potential from superposition of free atoms

     starting charge  251.99314, renormalised to  252.00000

     negative rho (up, down):  2.805E-04 0.000E+00

     %%%%%%%%%%%%%%%%%%%%%%%%%%%%%%%%%%%%%%%%%%%%%%%%%%%%%%%%%%%%%%%%%%%%%%%%
     %                                                                      %
     % You are using vdW-DF, which was implemented by the Thonhauser group. %
     % Please cite the following two papers that made this development      %
     % possible and the two reviews that describe the various versions:     %
     %                                                                      %
     %   T. Thonhauser et al., PRL 115, 136402 (2015).                      %
     %   T. Thonhauser et al., PRB 76, 125112 (2007).                       %
     %   K. Berland et al., Rep. Prog. Phys. 78, 066501 (2015).             %
     %   D.C. Langreth et al., J. Phys.: Condens. Matter 21, 084203 (2009). %
     %                                                                      %
     %                                                                      %
     % If you are calculating the stress with vdW-DF, please also cite:     %
     %                                                                      %
     %   R. Sabatini et al., J. Phys.: Condens. Matter 24, 424209 (2012).   %
     %                                                                      %
     %%%%%%%%%%%%%%%%%%%%%%%%%%%%%%%%%%%%%%%%%%%%%%%%%%%%%%%%%%%%%%%%%%%%%%%%

     Adding external electric field

     Computed dipole along edir(3) :
        Dipole                0.0000 Ry au,          0.0001 Debye
        Dipole field          0.0000 Ry au,

        Potential amp.       -0.0000 Ry
        Total length         45.1430 bohr

     Starting wfcs are  162 randomized atomic wfcs

     Self-consistent Calculation

     iteration #  1     ecut=    55.12 Ry     beta= 0.10
     Davidson diagonalization with overlap
     ethr =  1.00E-02,  avg # of iterations =  2.8

[...]

     total energy              =   -5167.70884846 Ry
     estimated scf accuracy    <       3.27494698 Ry

[...]

     iteration #  6     ecut=    55.12 Ry     beta= 0.10
     Davidson diagonalization with overlap
     c_bands:  1 eigenvalues not converged
     ethr =  4.35E-05,  avg # of iterations =  8.6

[...]

     iteration #  8     ecut=    55.12 Ry     beta= 0.10
     Davidson diagonalization with overlap
     c_bands:  1 eigenvalues not converged
     ethr =  7.75E-06,  avg # of iterations =  3.9

[...]

     total energy              =   -5167.86897664 Ry
     estimated scf accuracy    <       0.00001857 Ry

     iteration # 14     ecut=    55.12 Ry     beta= 0.10
     Davidson diagonalization with overlap
     ethr =  7.37E-09,  avg # of iterations =  2.1

[...]

     Adding external electric field

     Computed dipole along edir(3) :
        Dipole                0.0200 Ry au,          0.0509 Debye
        Dipole field          0.0001 Ry au,

        Potential amp.       -0.0047 Ry
        Total length         45.1430 bohr

     End of self-consistent calculation

          k = 0.0000 0.0000 0.0000 ( 33071 PWs)   bands (ev):

   -77.4920 -77.4874 -77.1196 -77.1152 -77.0575 -77.0531 -65.6882 -65.6782
   -65.6696 -65.6596 -65.4803 -65.4703 -39.3514 -39.2885 -39.2775 -39.2258
   -39.2141 -39.2029 -38.9189 -38.9043 -38.9020 -38.8722 -38.8485 -38.8410
   -38.8322 -38.8217 -38.8033 -38.7813 -38.7587 -38.7269 -32.1224 -32.1076
   -32.0894 -32.0749 -31.9550 -31.9370 -31.9202 -31.8985 -31.8906 -31.8551
   -31.8464 -31.7853 -31.7570 -31.7275 -31.7265 -31.7207 -31.6838 -31.6700
   -17.3905 -17.3874 -17.3850 -17.3846 -17.3755 -17.3683 -17.3663 -17.3648
   -17.3613 -17.3609 -17.3555 -17.3515 -17.3462 -17.3437 -17.3365 -17.3337
   -17.3303 -17.3228 -17.3163 -17.3135 -17.2889 -17.2888 -17.2798 -17.2793
   -17.2730 -17.2728 -17.2639 -17.2634 -17.1187 -17.1146 -17.1060 -17.1049
   -17.1042 -17.1028 -17.0962 -17.0961 -17.0922 -17.0889 -17.0782 -17.0736
   -17.0691 -17.0688  -5.4747  -3.4377  -2.7843  -2.5206  -2.3797  -2.3693
    -2.1922  -2.1468  -1.8658  -1.8429  -1.0813  -1.0744  -1.0674  -0.1742
    -0.1741  -0.0688   0.0531   0.1430   0.1587   0.3262   0.3644   0.4253
     0.8572   1.3434   1.4585   1.5508   1.7413   1.8707   2.2368   2.4011
     2.7092   2.7460   3.1323   3.1484   3.5999   3.7331   3.8042   4.2891
     4.2914   4.3720   4.5088   4.8125   5.0295   5.0815   5.1532   5.1599
     5.2700   5.2861   5.3372   5.3389   5.4869   5.4993   5.6483   5.6702
     5.8684   5.9021   6.2081   6.2524   6.2830   6.5455   6.6919

[...]

          k = 0.0753-0.0418 0.0000 ( 33066 PWs)   bands (ev):

[...]

          k =-0.0904 0.0311 0.0000 ( 33064 PWs)   bands (ev):

[...]

          k =-0.0904-0.0645 0.0000 ( 33062 PWs)   bands (ev):

   -77.4919 -77.4875 -77.1195 -77.1152 -77.0575 -77.0531 -65.6886 -65.6785
   -65.6700 -65.6599 -65.4812 -65.4700 -39.3364 -39.2690 -39.2546 -39.2247
   -39.2085 -39.1992 -38.9208 -38.9084 -38.8861 -38.8563 -38.8452 -38.8362
   -38.8182 -38.8086 -38.7799 -38.7710 -38.7555 -38.7239 -32.1601 -32.1138
   -32.0822 -32.0638 -31.9987 -31.9725 -31.9683 -31.9593 -31.9268 -31.9071
   -31.8813 -31.8308 -31.7713 -31.7378 -31.7304 -31.7066 -31.6872 -31.6815
   -17.3909 -17.3877 -17.3864 -17.3852 -17.3761 -17.3687 -17.3664 -17.3651
   -17.3628 -17.3615 -17.3560 -17.3515 -17.3463 -17.3438 -17.3370 -17.3338
   -17.3302 -17.3230 -17.3170 -17.3137 -17.2911 -17.2908 -17.2822 -17.2790
   -17.2753 -17.2749 -17.2664 -17.2630 -17.1203 -17.1170 -17.1073 -17.1059
   -17.1040 -17.1032 -17.0973 -17.0969 -17.0927 -17.0891 -17.0784 -17.0750
   -17.0694 -17.0690  -3.2197  -3.0988  -1.8527  -1.5824  -1.5445  -1.3133
    -1.1113  -1.0369  -0.9322  -0.7150  -0.1850  -0.0637   0.0213   0.1020
     0.1866   0.2732   0.2959   0.4541   0.5140   1.0381   1.0491   1.0597
     1.2153   1.3231   1.4473   1.5028   1.6574   1.7323   1.9235   1.9309
     1.9496   2.0079   2.0191   2.0801   2.3559   2.3644   2.3945   2.4215
     2.8593   3.0438   3.3776   3.4603   3.4860   3.6369   3.8362   4.0861
     4.1281   4.1655   4.4113   4.4271   4.6310   4.8160   4.8182   5.0590
     5.0611   5.2467   5.5104   5.6435   5.6898   5.8564   6.2460

     the Fermi energy is     2.8708 ev

!    total energy              =   -5167.86897945 Ry
     estimated scf accuracy    <       0.00000464 Ry
     smearing contrib. (-TS)   =      -0.05024166 Ry
     internal energy E=F+TS    =   -5167.81873779 Ry

     The total energy is F=E-TS. E is the sum of the following terms:
     one-electron contribution =  -35337.47092456 Ry
     hartree contribution      =   17763.12064252 Ry
     xc contribution           =    -659.59047264 Ry
     ewald contribution        =   13066.12201584 Ry
     electric field correction =       0.00000105 Ry

     convergence has been achieved in  14 iterations

     negative rho (up, down):  2.728E-04 0.000E+00

     Forces acting on atoms (cartesian axes, Ry/au):

     atom    1 type  1   force =     0.00501248    0.00357733   -0.00895851
     atom    2 type  1   force =     0.00501374    0.00357638   -0.00895195
     atom    3 type  2   force =     0.00231160    0.00164958    0.03752954
     atom    4 type  2   force =     0.00231262    0.00164910    0.03753021
     atom    5 type  1   force =    -0.00326998   -0.00233096   -0.02082682
     atom    6 type  1   force =    -0.00327394   -0.00234193   -0.02082677
     atom    7 type  2   force =    -0.00280841   -0.00200438   -0.00945792
     atom    8 type  2   force =    -0.00280904   -0.00200387   -0.00945785
     atom    9 type  1   force =    -0.00065839   -0.00046963    0.00231920
     atom   10 type  1   force =    -0.00066058   -0.00047166    0.00231491
     atom   11 type  2   force =    -0.00058586   -0.00041494   -0.00060607
     atom   12 type  2   force =    -0.00058424   -0.00041502   -0.00060797

     Total force =     0.064697     Total SCF correction =     0.022356
     SCF correction compared to forces is large: reduce conv_thr to get better values

     Writing output data file ./Ta2Re2/Ta2Re2_beef.save/

     General routines

     Parallel routines

   This run was terminated on:  19:41:38  26Jun2022

   JOB DONE.