     Program PWSCF v.6.6 starts on 26Jun2022 at 19:41:43

     R & G space division:  proc/nbgrp/npool/nimage =      37
     Fft bands division:     nmany     =       1
     Reading input from Ta2W2.in
Warning: card &CELL ignored
Warning: card / ignored

     Current dimensions of program PWSCF are:
     Max number of different atomic species (ntypx) = 10
     Max number of k-points (npk) =  40000
     Max angular momentum in pseudopotentials (lmaxx) =  3
     Presently stress not available with electric field and gates

     Message from routine cell_base_init:
     DEPRECATED: use true lattice parameter, not A to a.u. conversion factor
     Message from routine emend_upf/check:
     BEWARE !!! Possible out of bounds while fixing pseudo
     Message from routine emend_upf/check:
     BEWARE !!! Possible out of bounds while fixing pseudo
     Message from routine read_upf:
     Pseudo file W.pbe-spn-rrkjus_psl.0.2.3.UPF has been fixed on the fly.
     To avoid this message in the future, permanently fix
     your pseudo files following these instructions:
     file Ta.pbe-spfn-rrkjus_psl.1.0.0.UPF: wavefunction(s)  5S 5P renormalized

     IMPORTANT: XC functional enforced from input :
     Exchange-correlation= BEEF-VDW
                           (   1   4  43  14   2   0   0)
     Any further DFT definition will be discarded
     Please, verify this is what you really want

     Subspace diagonalization in iterative solution of the eigenvalue problem:
     a serial algorithm will be used

     Found symmetry operation: I + (  0.5000  0.0000  0.0000)
     This is a supercell, fractional translations are disabled

     bravais-lattice index     =            0
     lattice parameter (alat)  =       1.8897  a.u.
     unit-cell volume          =    4937.2413 (a.u.)^3
     number of atoms/cell      =           12
     number of atomic types    =            2
     number of electrons       =       246.00
     number of Kohn-Sham states=          148
     kinetic-energy cutoff     =      55.1240  Ry
     charge density cutoff     =     551.2396  Ry
     convergence threshold     =      1.0E-05
     mixing beta               =       0.1000
     number of iterations used =           10  plain     mixing
     Exchange-correlation= BEEF-VDW
                           (   1   4  43  14   2   0   0)

     celldm(1)=   1.889726  celldm(2)=   0.000000  celldm(3)=   0.000000
     celldm(4)=   0.000000  celldm(5)=   0.000000  celldm(6)=   0.000000

     crystal axes: (cart. coord. in units of alat)
               a(1) = (   5.448873   0.000000   0.000000 )
               a(2) = (  -2.724436   5.432928   0.000000 )
               a(3) = (   0.000000   0.000000  24.714237 )

     reciprocal axes: (cart. coord. in units 2 pi/alat)
               b(1) = (  0.183524  0.092031 -0.000000 )
               b(2) = (  0.000000  0.184063  0.000000 )
               b(3) = (  0.000000 -0.000000  0.040463 )

     PseudoPot. # 1 for Ta read from file:
     ../pseudo/Ta.pbe-spfn-rrkjus_psl.1.0.0.UPF
     MD5 check sum: 39d7d349fe394e56adf8454eb9315fbb
     Pseudo is Ultrasoft + core correction, Zval = 27.0
     Generated using "atomic" code by A. Dal Corso v.6.3
     Using radial grid of 1273 points,  8 beta functions with:
                l(1) =   0
                l(2) =   0
                l(3) =   1
                l(4) =   1
                l(5) =   2
                l(6) =   2
                l(7) =   3
                l(8) =   3
     Q(r) pseudized with 0 coefficients

     PseudoPot. # 2 for W  read from file:
     ../pseudo/W.pbe-spn-rrkjus_psl.0.2.3.UPF
     MD5 check sum: 25b665cf2bbae626ad8d9f1bc024df95
     Pseudo is Ultrasoft + core correction, Zval = 14.0
     Generated using "atomic" code by A. Dal Corso v.5.0.2 svn rev. 10551
     Using radial grid of 1273 points,  6 beta functions with:
                l(1) =   0
                l(2) =   0
                l(3) =   1
                l(4) =   1
                l(5) =   2
                l(6) =   2
     Q(r) pseudized with 0 coefficients

     atomic species   valence    mass     pseudopotential
        Ta            27.00   180.94788     Ta( 1.00)
        W             14.00   183.84000     W ( 1.00)

     No symmetry found

   Cartesian axes

     site n.     atom                  positions (alat units)
         1           Ta  tau(   1) = (   0.0000000   0.0000000  10.0000000  )
         2           Ta  tau(   2) = (   2.7244364   0.0000000  10.0000000  )
         3           W   tau(   3) = (   1.3622182   2.7164642  10.0000000  )
         4           W   tau(   4) = (  -1.3622182   2.7164642  10.0000000  )
         5           Ta  tau(   5) = (   2.7244364   1.3662160  12.3571185  )
         6           Ta  tau(   6) = (  -0.0000000   1.3662160  12.3571185  )
         7           W   tau(   7) = (  -1.3622182   4.0826803  12.3571185  )
         8           W   tau(   8) = (   1.3622182   4.0826803  12.3571185  )
         9           Ta  tau(   9) = (  -0.0000029   2.7534352  14.7476260  )
        10           Ta  tau(  10) = (   2.7244325   2.7534510  14.7476361  )
        11           W   tau(  11) = (   1.3622392   5.4261129  14.6063897  )
        12           W   tau(  12) = (  -1.3622345   5.4261099  14.6063836  )

     number of k points=    74  Fermi-Dirac smearing, width (Ry)=  0.0100
                       cart. coord. in units 2pi/alat
        k(    1) = (   0.0000000   0.0000000   0.0000000), wk =   0.0138889
        k(    2) = (   0.0000000   0.0153386   0.0000000), wk =   0.0277778
        k(    3) = (   0.0000000   0.0306771   0.0000000), wk =   0.0277778
        k(    4) = (   0.0000000   0.0460157   0.0000000), wk =   0.0277778
        k(    5) = (   0.0000000   0.0613543   0.0000000), wk =   0.0277778
        k(    6) = (   0.0000000   0.0766928   0.0000000), wk =   0.0277778
        k(    7) = (   0.0000000  -0.0920314   0.0000000), wk =   0.0138889
        k(    8) = (   0.0152937   0.0076693   0.0000000), wk =   0.0277778
        k(    9) = (   0.0152937   0.0230078   0.0000000), wk =   0.0277778
        k(   10) = (   0.0152937   0.0383464   0.0000000), wk =   0.0277778
        k(   11) = (   0.0152937   0.0536850   0.0000000), wk =   0.0277778
        k(   12) = (   0.0152937   0.0690236   0.0000000), wk =   0.0277778
        k(   13) = (   0.0152937   0.0843621   0.0000000), wk =   0.0277778
        k(   14) = (   0.0152937  -0.0843621   0.0000000), wk =   0.0277778
        k(   15) = (   0.0152937  -0.0690236   0.0000000), wk =   0.0277778
        k(   16) = (   0.0152937  -0.0536850   0.0000000), wk =   0.0277778
        k(   17) = (   0.0152937  -0.0383464   0.0000000), wk =   0.0277778
        k(   18) = (   0.0152937  -0.0230079   0.0000000), wk =   0.0277778
        k(   19) = (   0.0152937  -0.0076693   0.0000000), wk =   0.0277778
        k(   20) = (   0.0305874   0.0153386   0.0000000), wk =   0.0277778
        k(   21) = (   0.0305874   0.0306771   0.0000000), wk =   0.0277778
        k(   22) = (   0.0305874   0.0460157   0.0000000), wk =   0.0277778
        k(   23) = (   0.0305874   0.0613543   0.0000000), wk =   0.0277778
        k(   24) = (   0.0305874   0.0766928   0.0000000), wk =   0.0277778
        k(   25) = (   0.0305874   0.0920314   0.0000000), wk =   0.0277778
        k(   26) = (   0.0305874  -0.0766928   0.0000000), wk =   0.0277778
        k(   27) = (   0.0305874  -0.0613543   0.0000000), wk =   0.0277778
        k(   28) = (   0.0305874  -0.0460157   0.0000000), wk =   0.0277778
        k(   29) = (   0.0305874  -0.0306771   0.0000000), wk =   0.0277778
        k(   30) = (   0.0305874  -0.0153386   0.0000000), wk =   0.0277778
        k(   31) = (   0.0305874  -0.0000000   0.0000000), wk =   0.0277778
        k(   32) = (   0.0458810   0.0230078   0.0000000), wk =   0.0277778
        k(   33) = (   0.0458810   0.0383464   0.0000000), wk =   0.0277778
        k(   34) = (   0.0458810   0.0536850   0.0000000), wk =   0.0277778
        k(   35) = (   0.0458810   0.0690235   0.0000000), wk =   0.0277778
        k(   36) = (   0.0458810   0.0843621   0.0000000), wk =   0.0277778
        k(   37) = (   0.0458810   0.0997007   0.0000000), wk =   0.0277778
        k(   38) = (   0.0458810  -0.0690236   0.0000000), wk =   0.0277778
        k(   39) = (   0.0458810  -0.0536850   0.0000000), wk =   0.0277778
        k(   40) = (   0.0458810  -0.0383464   0.0000000), wk =   0.0277778
        k(   41) = (   0.0458810  -0.0230079   0.0000000), wk =   0.0277778
        k(   42) = (   0.0458810  -0.0076693   0.0000000), wk =   0.0277778
        k(   43) = (   0.0458810   0.0076693   0.0000000), wk =   0.0277778
        k(   44) = (   0.0611747   0.0306771   0.0000000), wk =   0.0277778
        k(   45) = (   0.0611747   0.0460157   0.0000000), wk =   0.0277778
        k(   46) = (   0.0611747   0.0613543   0.0000000), wk =   0.0277778
        k(   47) = (   0.0611747   0.0766928   0.0000000), wk =   0.0277778
        k(   48) = (   0.0611747   0.0920314   0.0000000), wk =   0.0277778
        k(   49) = (   0.0611747   0.1073700   0.0000000), wk =   0.0277778
        k(   50) = (   0.0611747  -0.0613543   0.0000000), wk =   0.0277778
        k(   51) = (   0.0611747  -0.0460157   0.0000000), wk =   0.0277778
        k(   52) = (   0.0611747  -0.0306771   0.0000000), wk =   0.0277778
        k(   53) = (   0.0611747  -0.0153386   0.0000000), wk =   0.0277778
        k(   54) = (   0.0611747  -0.0000000   0.0000000), wk =   0.0277778
        k(   55) = (   0.0611747   0.0153386   0.0000000), wk =   0.0277778
        k(   56) = (   0.0764684   0.0383464   0.0000000), wk =   0.0277778
        k(   57) = (   0.0764684   0.0536850   0.0000000), wk =   0.0277778
        k(   58) = (   0.0764684   0.0690235   0.0000000), wk =   0.0277778
        k(   59) = (   0.0764684   0.0843621   0.0000000), wk =   0.0277778
        k(   60) = (   0.0764684   0.0997007   0.0000000), wk =   0.0277778
        k(   61) = (   0.0764684   0.1150392   0.0000000), wk =   0.0277778
        k(   62) = (   0.0764684  -0.0536850   0.0000000), wk =   0.0277778
        k(   63) = (   0.0764684  -0.0383464   0.0000000), wk =   0.0277778
        k(   64) = (   0.0764684  -0.0230079   0.0000000), wk =   0.0277778
        k(   65) = (   0.0764684  -0.0076693   0.0000000), wk =   0.0277778
        k(   66) = (   0.0764684   0.0076693   0.0000000), wk =   0.0277778
        k(   67) = (   0.0764684   0.0230078   0.0000000), wk =   0.0277778
        k(   68) = (  -0.0917621  -0.0460157   0.0000000), wk =   0.0138889
        k(   69) = (  -0.0917621  -0.0306771   0.0000000), wk =   0.0277778
        k(   70) = (  -0.0917621  -0.0153386   0.0000000), wk =   0.0277778
        k(   71) = (  -0.0917621   0.0000000   0.0000000), wk =   0.0277778
        k(   72) = (  -0.0917621   0.0153386   0.0000000), wk =   0.0277778
        k(   73) = (  -0.0917621   0.0306771   0.0000000), wk =   0.0277778
        k(   74) = (  -0.0917621  -0.1380471   0.0000000), wk =   0.0138889

     Initial potential from superposition of free atoms

     starting charge  245.99160, renormalised to  246.00000

     negative rho (up, down):  7.855E-04 0.000E+00

     %%%%%%%%%%%%%%%%%%%%%%%%%%%%%%%%%%%%%%%%%%%%%%%%%%%%%%%%%%%%%%%%%%%%%%%%
     %                                                                      %
     % You are using vdW-DF, which was implemented by the Thonhauser group. %
     % Please cite the following two papers that made this development      %
     % possible and the two reviews that describe the various versions:     %
     %                                                                      %
     %   T. Thonhauser et al., PRL 115, 136402 (2015).                      %
     %   T. Thonhauser et al., PRB 76, 125112 (2007).                       %
     %   K. Berland et al., Rep. Prog. Phys. 78, 066501 (2015).             %
     %   D.C. Langreth et al., J. Phys.: Condens. Matter 21, 084203 (2009). %
     %                                                                      %
     %                                                                      %
     % If you are calculating the stress with vdW-DF, please also cite:     %
     %                                                                      %
     %   R. Sabatini et al., J. Phys.: Condens. Matter 24, 424209 (2012).   %
     %                                                                      %
     %%%%%%%%%%%%%%%%%%%%%%%%%%%%%%%%%%%%%%%%%%%%%%%%%%%%%%%%%%%%%%%%%%%%%%%%

     Adding external electric field

     Computed dipole along edir(3) :
        Dipole               -0.0000 Ry au,         -0.0001 Debye
        Dipole field         -0.0000 Ry au,

        Potential amp.        0.0000 Ry
        Total length         45.5356 bohr

     Starting wfcs are  180 randomized atomic wfcs

     Self-consistent Calculation

     iteration #  1     ecut=    55.12 Ry     beta= 0.10
     Davidson diagonalization with overlap
     ethr =  1.00E-02,  avg # of iterations =  2.1

[...]

     total energy              =   -5046.47867697 Ry
     estimated scf accuracy    <       3.88796438 Ry

[...]

     iteration #  8     ecut=    55.12 Ry     beta= 0.10
     Davidson diagonalization with overlap
     c_bands:  1 eigenvalues not converged
     ethr =  7.06E-06,  avg # of iterations =  8.0

[...]

     iteration # 10     ecut=    55.12 Ry     beta= 0.10
     Davidson diagonalization with overlap
     c_bands:  1 eigenvalues not converged
     ethr =  8.80E-07,  avg # of iterations =  2.6

[...]

     total energy              =   -5046.74281887 Ry
     estimated scf accuracy    <       0.00001385 Ry

     iteration # 14     ecut=    55.12 Ry     beta= 0.10
     Davidson diagonalization with overlap
     ethr =  5.63E-09,  avg # of iterations =  5.1

[...]

     Adding external electric field

     Computed dipole along edir(3) :
        Dipole                0.0340 Ry au,          0.0864 Debye
        Dipole field          0.0001 Ry au,

        Potential amp.       -0.0079 Ry
        Total length         45.5356 bohr

     End of self-consistent calculation

          k = 0.0000 0.0000 0.0000 ( 34167 PWs)   bands (ev):

   -71.7552 -71.6944 -71.6061 -71.5464 -71.5350 -71.4750 -65.6744 -65.6009
   -65.5886 -65.5149 -65.4196 -65.3322 -36.2558 -36.1671 -36.0499 -35.9906
   -35.9471 -35.8589 -35.7461 -35.7423 -35.6591 -35.6457 -35.6192 -35.5493
   -35.5089 -35.3636 -35.3635 -35.2779 -35.1156 -35.0684 -32.4159 -32.3682
   -32.3023 -32.2847 -32.1647 -32.0860 -31.9536 -31.9290 -31.8619 -31.8122
   -31.7509 -31.7432 -31.6302 -31.4621 -31.3456 -31.2725 -31.2194 -31.1410
   -17.3548 -17.3497 -17.3448 -17.3437 -17.3412 -17.3184 -17.3180 -17.3164
   -17.3023 -17.2797 -17.2734 -17.2731 -17.2710 -17.2687 -17.2622 -17.2606
   -17.2588 -17.2409 -17.2397 -17.2391 -17.2250 -17.2223 -17.2128 -17.2036
   -17.2035 -17.1990 -17.1524 -17.1426 -17.0601 -17.0547 -17.0467 -17.0426
   -17.0345 -17.0303 -17.0231 -17.0204 -17.0145 -17.0114 -17.0100 -16.9968
   -16.9904 -16.9773  -5.2224  -3.4273  -2.5138  -2.1378  -2.0451  -1.9162
    -1.8365  -1.7980  -1.5941  -1.1519  -0.8651  -0.8383  -0.7807  -0.7545
    -0.7517   0.2104   0.5009   0.6538   0.6756   1.1918   1.2182   1.2410
     1.3677   1.8144   1.8386   2.0605   2.3920   2.5043   2.7124   2.8795
     2.9468   3.0035   3.1545   3.2440   3.6546   3.6647   3.8320   3.8954
     3.8983   3.9560   4.3013   4.3798   4.4843   4.5998   4.8218   4.8605
     5.1377   5.2161   5.3509   5.3674   5.6977   5.9422   6.1339   6.5615
     6.6904   6.7250   6.9105   6.9720

[...]

          k = 0.0765 0.0230 0.0000 ( 34127 PWs)   bands (ev):

[...]

          k =-0.0918-0.0460 0.0000 ( 34124 PWs)   bands (ev):

[...]

          k =-0.0918-0.1380 0.0000 ( 34124 PWs)   bands (ev):

   -71.7249 -71.7249 -71.5763 -71.5763 -71.5051 -71.5050 -65.6317 -65.6317
   -65.5581 -65.5581 -65.3761 -65.3761 -36.1057 -36.1057 -35.8216 -35.8216
   -35.7966 -35.7966 -35.6953 -35.6953 -35.5992 -35.5992 -35.5641 -35.5641
   -35.5603 -35.5602 -35.5188 -35.5187 -35.3204 -35.3204 -32.2397 -32.2397
   -32.0175 -32.0175 -31.8850 -31.8850 -31.8660 -31.8660 -31.8200 -31.8200
   -31.8083 -31.8083 -31.7347 -31.7347 -31.6953 -31.6953 -31.4038 -31.4038
   -17.3474 -17.3474 -17.3430 -17.3430 -17.3325 -17.3325 -17.3094 -17.3094
   -17.3015 -17.3015 -17.2646 -17.2646 -17.2605 -17.2605 -17.2537 -17.2537
   -17.2484 -17.2484 -17.2464 -17.2464 -17.2321 -17.2321 -17.2250 -17.2250
   -17.1787 -17.1787 -17.1767 -17.1767 -17.0392 -17.0392 -17.0341 -17.0340
   -17.0320 -17.0320 -17.0261 -17.0261 -17.0168 -17.0168 -17.0086 -17.0086
   -17.0051 -17.0051  -3.2077  -3.2077  -1.6707  -1.6707  -1.2131  -1.2131
    -0.8338  -0.8338  -0.7009  -0.7009  -0.0608  -0.0608   0.3592   0.3592
     0.5951   0.5951   0.6253   0.6253   1.0020   1.0020   1.2731   1.2731
     1.6024   1.6024   1.7576   1.7576   1.8864   1.8865   2.0093   2.0094
     2.2486   2.2486   2.4260   2.4260   2.5781   2.5781   2.7611   2.7611
     3.5680   3.5680   3.9271   3.9272   4.0337   4.0337   4.3546   4.3547
     4.5805   4.5806   4.7293   4.7293   4.8287   4.8288   4.8911   4.8911
     5.2340   5.2340   5.7194   5.7194

     the Fermi energy is     2.6424 ev

!    total energy              =   -5046.74280580 Ry
     estimated scf accuracy    <       0.00000811 Ry
     smearing contrib. (-TS)   =      -0.06967719 Ry
     internal energy E=F+TS    =   -5046.67312861 Ry

     The total energy is F=E-TS. E is the sum of the following terms:
     one-electron contribution =  -32675.56939421 Ry
     hartree contribution      =   16431.70857291 Ry
     xc contribution           =    -661.42122663 Ry
     ewald contribution        =   11858.60891637 Ry
     electric field correction =       0.00000294 Ry

     convergence has been achieved in  14 iterations

     negative rho (up, down):  1.386E-03 0.000E+00

     Forces acting on atoms (cartesian axes, Ry/au):

     atom    1 type  1   force =    -0.00001073   -0.00889749   -0.01103887
     atom    2 type  1   force =    -0.00001092   -0.00889777   -0.01104296
     atom    3 type  2   force =    -0.00000709    0.00392162    0.02899684
     atom    4 type  2   force =    -0.00000619    0.00392296    0.02899547
     atom    5 type  1   force =    -0.00000476    0.01367623   -0.00172207
     atom    6 type  1   force =     0.00000966    0.01367596   -0.00172818
     atom    7 type  2   force =    -0.00000755   -0.00813288   -0.01494412
     atom    8 type  2   force =    -0.00001060   -0.00813134   -0.01494229
     atom    9 type  1   force =     0.00002835   -0.00077667   -0.00120664
     atom   10 type  1   force =     0.00002838   -0.00077384   -0.00121249
     atom   11 type  2   force =    -0.00001166    0.00020696   -0.00007758
     atom   12 type  2   force =     0.00000311    0.00020624   -0.00007712

     Total force =     0.055476     Total SCF correction =     0.005239

     Writing output data file ./Ta2W2/Ta2W2_beef.save/

     General routines

     Parallel routines

   This run was terminated on:   0:21:46  27Jun2022

   JOB DONE.