     Program PWSCF v.6.6 starts on 24Jun2022 at 23:14:38

     R & G space division:  proc/nbgrp/npool/nimage =      37
     Fft bands division:     nmany     =       1
     Reading input from Tc2Au2.in
Warning: card &CELL ignored
Warning: card / ignored

     Current dimensions of program PWSCF are:
     Max number of different atomic species (ntypx) = 10
     Max number of k-points (npk) =  40000
     Max angular momentum in pseudopotentials (lmaxx) =  3
     Presently stress not available with electric field and gates

     Message from routine cell_base_init:
     DEPRECATED: use true lattice parameter, not A to a.u. conversion factor
     file Tc.pbe-spn-rrkjus_psl.0.3.0.UPF: wavefunction(s)  4S 4P renormalized

     IMPORTANT: XC functional enforced from input :
     Exchange-correlation= BEEF-VDW
                           (   1   4  43  14   2   0   0)
     Any further DFT definition will be discarded
     Please, verify this is what you really want

     Subspace diagonalization in iterative solution of the eigenvalue problem:
     a serial algorithm will be used

     bravais-lattice index     =            0
     lattice parameter (alat)  =       1.8897  a.u.
     unit-cell volume          =    4658.7176 (a.u.)^3
     number of atoms/cell      =           12
     number of atomic types    =            2
     number of electrons       =       156.00
     number of Kohn-Sham states=           94
     kinetic-energy cutoff     =      55.1240  Ry
     charge density cutoff     =     551.2396  Ry
     convergence threshold     =      1.0E-05
     mixing beta               =       0.1000
     number of iterations used =           10  plain     mixing
     Exchange-correlation= BEEF-VDW
                           (   1   4  43  14   2   0   0)

     celldm(1)=   1.889726  celldm(2)=   0.000000  celldm(3)=   0.000000
     celldm(4)=   0.000000  celldm(5)=   0.000000  celldm(6)=   0.000000

     crystal axes: (cart. coord. in units of alat)
               a(1) = (   5.433433   0.000000   0.000000 )
               a(2) = (  -2.716717   5.160761   0.000000 )
               a(3) = (   0.000000   0.000000  24.619646 )

     reciprocal axes: (cart. coord. in units 2 pi/alat)
               b(1) = (  0.184046  0.096885 -0.000000 )
               b(2) = (  0.000000  0.193770  0.000000 )
               b(3) = (  0.000000 -0.000000  0.040618 )

     PseudoPot. # 1 for Tc read from file:
     ../pseudo/Tc.pbe-spn-rrkjus_psl.0.3.0.UPF
     MD5 check sum: 5f147c0bf103030af994b79b1f5562e4
     Pseudo is Ultrasoft + core correction, Zval = 15.0
     Generated using "atomic" code by A. Dal Corso v.6.2.2
     Using radial grid of 1231 points,  6 beta functions with:
                l(1) =   0
                l(2) =   0
                l(3) =   1
                l(4) =   1
                l(5) =   2
                l(6) =   2
     Q(r) pseudized with 0 coefficients

     PseudoPot. # 2 for Au read from file:
     ../pseudo/Au.pbe-n-rrkjus_psl.1.0.0.UPF
     MD5 check sum: d7e77ba19504afed2c9b41c931dde4f0
     Pseudo is Ultrasoft + core correction, Zval = 11.0
     Generated using "atomic" code by A. Dal Corso v.6.3
     Using radial grid of 1279 points,  6 beta functions with:
                l(1) =   0
                l(2) =   0
                l(3) =   1
                l(4) =   1
                l(5) =   2
                l(6) =   2
     Q(r) pseudized with 0 coefficients

     atomic species   valence    mass     pseudopotential
        Tc            15.00    97.90721     Tc( 1.00)
        Au            11.00   196.96657     Au( 1.00)

     No symmetry found

   Cartesian axes

     site n.     atom                  positions (alat units)
         1           Tc  tau(   1) = (   0.0000000   0.0000000  10.0000000  )
         2           Tc  tau(   2) = (   2.7167165   0.0000000  10.0000000  )
         3           Au  tau(   3) = (   1.3583583   2.5803806  10.0000000  )
         4           Au  tau(   4) = (  -1.3583583   2.5803806  10.0000000  )
         5           Tc  tau(   5) = (   2.7167165   1.4301279  12.3098231  )
         6           Tc  tau(   6) = (   0.0000000   1.4301279  12.3098231  )
         7           Au  tau(   7) = (  -1.3583583   4.0105085  12.3098231  )
         8           Au  tau(   8) = (   1.3583583   4.0105085  12.3098231  )
         9           Tc  tau(   9) = (   0.0005920   0.5580683  14.3703651  )
        10           Tc  tau(  10) = (   2.7172486   0.5587898  14.3709568  )
        11           Au  tau(  11) = (   1.3604038   3.0315064  14.9759424  )
        12           Au  tau(  12) = (  -1.3587885   3.0315019  14.9760019  )

     number of k points=    74  Fermi-Dirac smearing, width (Ry)=  0.0100
                       cart. coord. in units 2pi/alat
        k(    1) = (   0.0000000   0.0000000   0.0000000), wk =   0.0138889
        k(    2) = (   0.0000000   0.0161475   0.0000000), wk =   0.0277778
        k(    3) = (   0.0000000   0.0322950   0.0000000), wk =   0.0277778
        k(    4) = (   0.0000000   0.0484425   0.0000000), wk =   0.0277778
        k(    5) = (   0.0000000   0.0645900   0.0000000), wk =   0.0277778
        k(    6) = (   0.0000000   0.0807374   0.0000000), wk =   0.0277778
        k(    7) = (   0.0000000  -0.0968849   0.0000000), wk =   0.0138889
        k(    8) = (   0.0153371   0.0080737   0.0000000), wk =   0.0277778
        k(    9) = (   0.0153371   0.0242212   0.0000000), wk =   0.0277778
        k(   10) = (   0.0153371   0.0403687   0.0000000), wk =   0.0277778
        k(   11) = (   0.0153371   0.0565162   0.0000000), wk =   0.0277778
        k(   12) = (   0.0153371   0.0726637   0.0000000), wk =   0.0277778
        k(   13) = (   0.0153371   0.0888112   0.0000000), wk =   0.0277778
        k(   14) = (   0.0153371  -0.0888112   0.0000000), wk =   0.0277778
        k(   15) = (   0.0153371  -0.0726637   0.0000000), wk =   0.0277778
        k(   16) = (   0.0153371  -0.0565162   0.0000000), wk =   0.0277778
        k(   17) = (   0.0153371  -0.0403687   0.0000000), wk =   0.0277778
        k(   18) = (   0.0153371  -0.0242212   0.0000000), wk =   0.0277778
        k(   19) = (   0.0153371  -0.0080737   0.0000000), wk =   0.0277778
        k(   20) = (   0.0306743   0.0161475   0.0000000), wk =   0.0277778
        k(   21) = (   0.0306743   0.0322950   0.0000000), wk =   0.0277778
        k(   22) = (   0.0306743   0.0484425   0.0000000), wk =   0.0277778
        k(   23) = (   0.0306743   0.0645900   0.0000000), wk =   0.0277778
        k(   24) = (   0.0306743   0.0807374   0.0000000), wk =   0.0277778
        k(   25) = (   0.0306743   0.0968849   0.0000000), wk =   0.0277778
        k(   26) = (   0.0306743  -0.0807374   0.0000000), wk =   0.0277778
        k(   27) = (   0.0306743  -0.0645900   0.0000000), wk =   0.0277778
        k(   28) = (   0.0306743  -0.0484425   0.0000000), wk =   0.0277778
        k(   29) = (   0.0306743  -0.0322950   0.0000000), wk =   0.0277778
        k(   30) = (   0.0306743  -0.0161475   0.0000000), wk =   0.0277778
        k(   31) = (   0.0306743   0.0000000   0.0000000), wk =   0.0277778
        k(   32) = (   0.0460114   0.0242212   0.0000000), wk =   0.0277778
        k(   33) = (   0.0460114   0.0403687   0.0000000), wk =   0.0277778
        k(   34) = (   0.0460114   0.0565162   0.0000000), wk =   0.0277778
        k(   35) = (   0.0460114   0.0726637   0.0000000), wk =   0.0277778
        k(   36) = (   0.0460114   0.0888112   0.0000000), wk =   0.0277778
        k(   37) = (   0.0460114   0.1049587   0.0000000), wk =   0.0277778
        k(   38) = (   0.0460114  -0.0726637   0.0000000), wk =   0.0277778
        k(   39) = (   0.0460114  -0.0565162   0.0000000), wk =   0.0277778
        k(   40) = (   0.0460114  -0.0403687   0.0000000), wk =   0.0277778
        k(   41) = (   0.0460114  -0.0242212   0.0000000), wk =   0.0277778
        k(   42) = (   0.0460114  -0.0080737   0.0000000), wk =   0.0277778
        k(   43) = (   0.0460114   0.0080737   0.0000000), wk =   0.0277778
        k(   44) = (   0.0613486   0.0322950   0.0000000), wk =   0.0277778
        k(   45) = (   0.0613486   0.0484425   0.0000000), wk =   0.0277778
        k(   46) = (   0.0613486   0.0645900   0.0000000), wk =   0.0277778
        k(   47) = (   0.0613486   0.0807375   0.0000000), wk =   0.0277778
        k(   48) = (   0.0613486   0.0968849   0.0000000), wk =   0.0277778
        k(   49) = (   0.0613486   0.1130324   0.0000000), wk =   0.0277778
        k(   50) = (   0.0613486  -0.0645900   0.0000000), wk =   0.0277778
        k(   51) = (   0.0613486  -0.0484425   0.0000000), wk =   0.0277778
        k(   52) = (   0.0613486  -0.0322950   0.0000000), wk =   0.0277778
        k(   53) = (   0.0613486  -0.0161475   0.0000000), wk =   0.0277778
        k(   54) = (   0.0613486   0.0000000   0.0000000), wk =   0.0277778
        k(   55) = (   0.0613486   0.0161475   0.0000000), wk =   0.0277778
        k(   56) = (   0.0766857   0.0403687   0.0000000), wk =   0.0277778
        k(   57) = (   0.0766857   0.0565162   0.0000000), wk =   0.0277778
        k(   58) = (   0.0766857   0.0726637   0.0000000), wk =   0.0277778
        k(   59) = (   0.0766857   0.0888112   0.0000000), wk =   0.0277778
        k(   60) = (   0.0766857   0.1049587   0.0000000), wk =   0.0277778
        k(   61) = (   0.0766857   0.1211062   0.0000000), wk =   0.0277778
        k(   62) = (   0.0766857  -0.0565162   0.0000000), wk =   0.0277778
        k(   63) = (   0.0766857  -0.0403687   0.0000000), wk =   0.0277778
        k(   64) = (   0.0766857  -0.0242212   0.0000000), wk =   0.0277778
        k(   65) = (   0.0766857  -0.0080737   0.0000000), wk =   0.0277778
        k(   66) = (   0.0766857   0.0080738   0.0000000), wk =   0.0277778
        k(   67) = (   0.0766857   0.0242212   0.0000000), wk =   0.0277778
        k(   68) = (  -0.0920229  -0.0484425   0.0000000), wk =   0.0138889
        k(   69) = (  -0.0920229  -0.0322950   0.0000000), wk =   0.0277778
        k(   70) = (  -0.0920229  -0.0161475   0.0000000), wk =   0.0277778
        k(   71) = (  -0.0920229  -0.0000000   0.0000000), wk =   0.0277778
        k(   72) = (  -0.0920229   0.0161475   0.0000000), wk =   0.0277778
        k(   73) = (  -0.0920229   0.0322950   0.0000000), wk =   0.0277778
        k(   74) = (  -0.0920229  -0.1453274   0.0000000), wk =   0.0138889

     Initial potential from superposition of free atoms

     starting charge  155.99555, renormalised to  156.00000

     negative rho (up, down):  6.200E-03 0.000E+00

     %%%%%%%%%%%%%%%%%%%%%%%%%%%%%%%%%%%%%%%%%%%%%%%%%%%%%%%%%%%%%%%%%%%%%%%%
     %                                                                      %
     % You are using vdW-DF, which was implemented by the Thonhauser group. %
     % Please cite the following two papers that made this development      %
     % possible and the two reviews that describe the various versions:     %
     %                                                                      %
     %   T. Thonhauser et al., PRL 115, 136402 (2015).                      %
     %   T. Thonhauser et al., PRB 76, 125112 (2007).                       %
     %   K. Berland et al., Rep. Prog. Phys. 78, 066501 (2015).             %
     %   D.C. Langreth et al., J. Phys.: Condens. Matter 21, 084203 (2009). %
     %                                                                      %
     %                                                                      %
     % If you are calculating the stress with vdW-DF, please also cite:     %
     %                                                                      %
     %   R. Sabatini et al., J. Phys.: Condens. Matter 24, 424209 (2012).   %
     %                                                                      %
     %%%%%%%%%%%%%%%%%%%%%%%%%%%%%%%%%%%%%%%%%%%%%%%%%%%%%%%%%%%%%%%%%%%%%%%%

     Adding external electric field

     Computed dipole along edir(3) :
        Dipole               -0.0005 Ry au,         -0.0012 Debye
        Dipole field         -0.0000 Ry au,

        Potential amp.        0.0001 Ry
        Total length         45.3613 bohr

     Starting wfcs are  132 randomized atomic wfcs

     Self-consistent Calculation

     iteration #  1     ecut=    55.12 Ry     beta= 0.10
     Davidson diagonalization with overlap
     ethr =  1.00E-02,  avg # of iterations =  2.0

[...]

     total energy              =   -1604.93956663 Ry
     estimated scf accuracy    <      13.57201382 Ry

[...]

     iteration #  9     ecut=    55.12 Ry     beta= 0.10
     Davidson diagonalization with overlap
     c_bands:  1 eigenvalues not converged
     ethr =  5.20E-06,  avg # of iterations =  2.9

[...]

     total energy              =   -1606.36217199 Ry
     estimated scf accuracy    <       0.00004123 Ry

     iteration # 16     ecut=    55.12 Ry     beta= 0.10
     Davidson diagonalization with overlap
     ethr =  2.64E-08,  avg # of iterations =  2.0

[...]

     Adding external electric field

     Computed dipole along edir(3) :
        Dipole               -0.0532 Ry au,         -0.1353 Debye
        Dipole field         -0.0001 Ry au,

        Potential amp.        0.0130 Ry
        Total length         45.3613 bohr

     End of self-consistent calculation

          k = 0.0000 0.0000 0.0000 ( 32103 PWs)   bands (ev):

   -66.0098 -65.9347 -65.6311 -65.5585 -65.5424 -65.4680 -38.7065 -38.6221
   -38.0875 -37.9134 -37.8361 -37.8046 -37.7752 -37.5866 -37.5147 -37.4350
   -37.4014 -37.3612 -37.3431 -37.2728 -37.1392 -37.1252 -36.9707 -36.9114
    -6.7465  -5.5064  -5.1906  -5.1800  -4.9225  -4.8434  -4.7961  -4.5736
    -4.4740  -4.4313  -4.2778  -4.1697  -3.9232  -3.9204  -3.6268  -3.5664
    -3.5147  -3.1181  -2.9671  -2.8220  -2.8044  -2.6587  -2.3499  -2.2595
    -2.1459  -2.0527  -2.0280  -1.8115  -1.4938  -1.4226  -1.4034  -1.2881
    -1.2488  -1.1874  -1.1569  -1.0998  -0.9403  -0.8838  -0.7410  -0.6681
    -0.5077  -0.0274   0.3280   0.4149   0.5564   0.7206   0.7977   0.9480
     1.0369   1.1447   1.2181   1.5380   1.8495   1.8845   2.0205   2.2228
     2.4813   2.5070   2.5838   2.6171   2.6176   2.7112   2.8462   2.9493
     3.0704   3.3858   3.5809   3.9541   4.3363   4.5535

[...]

          k = 0.0767 0.0242 0.0000 ( 32212 PWs)   bands (ev):

[...]

          k =-0.0920-0.0484 0.0000 ( 32194 PWs)   bands (ev):

[...]

          k =-0.0920-0.1453 0.0000 ( 32194 PWs)   bands (ev):

   -65.9724 -65.9723 -65.5950 -65.5949 -65.5054 -65.5053 -38.6652 -38.6642
   -37.8759 -37.8759 -37.7512 -37.7511 -37.5512 -37.5511 -37.4781 -37.4780
   -37.4566 -37.4564 -37.3990 -37.3990 -37.3083 -37.3082 -36.9412 -36.9408
    -5.1094  -5.1091  -4.2967  -4.2961  -4.1480  -4.1470  -4.0055  -4.0053
    -3.7743  -3.7741  -3.7351  -3.7345  -3.5643  -3.5635  -3.1632  -3.1625
    -3.1097  -3.1070  -2.9290  -2.9289  -2.8083  -2.8063  -2.6671  -2.6626
    -2.5325  -2.5295  -2.4950  -2.4916  -2.4544  -2.4526  -2.0522  -2.0449
    -1.8183  -1.8168  -1.3581  -1.3578  -1.1419  -1.1417  -0.8113  -0.8108
    -0.6307  -0.6303  -0.1980  -0.1979   0.1766   0.1786   0.3418   0.3424
     0.5512   0.5516   0.7216   0.7239   0.8683   0.8699   1.0888   1.0891
     1.2205   1.2209   2.1442   2.1448   2.3098   2.3106   2.7473   2.7478
     3.2692   3.2702   3.6339   3.6345   4.4060   4.4068

     the Fermi energy is     1.3213 ev

!    total energy              =   -1606.36222399 Ry
     estimated scf accuracy    <       0.00000301 Ry
     smearing contrib. (-TS)   =      -0.05686246 Ry
     internal energy E=F+TS    =   -1606.30536153 Ry

     The total energy is F=E-TS. E is the sum of the following terms:
     one-electron contribution =  -12696.04706348 Ry
     hartree contribution      =    6391.13394484 Ry
     xc contribution           =    -436.17891765 Ry
     ewald contribution        =    5134.78666713 Ry
     electric field correction =       0.00000764 Ry

     convergence has been achieved in  16 iterations

     negative rho (up, down):  6.259E-03 0.000E+00

     Forces acting on atoms (cartesian axes, Ry/au):

     atom    1 type  1   force =     0.00001691    0.02166316    0.03156567
     atom    2 type  1   force =     0.00001555    0.02168895    0.03160715
     atom    3 type  2   force =     0.00000257   -0.02078358   -0.05265154
     atom    4 type  2   force =     0.00003093   -0.02078182   -0.05265339
     atom    5 type  1   force =     0.00000556   -0.02078292    0.00272218
     atom    6 type  1   force =     0.00000457   -0.02074816    0.00263416
     atom    7 type  2   force =     0.00010106    0.01956795    0.01635429
     atom    8 type  2   force =    -0.00004925    0.01957013    0.01634675
     atom    9 type  1   force =    -0.00007385    0.00096832   -0.00033864
     atom   10 type  1   force =    -0.00006167    0.00073541   -0.00060084
     atom   11 type  2   force =    -0.00105695   -0.00054357    0.00251677
     atom   12 type  2   force =     0.00106457   -0.00055386    0.00249744

     Total force =     0.107416     Total SCF correction =     0.005769

     Writing output data file ./Tc2Au2/Tc2Au2_beef.save/

     General routines

     Parallel routines

   This run was terminated on:   0:17:14  25Jun2022

   JOB DONE.