     Program PWSCF v.6.6 starts on 24Jun2022 at 22:20: 2

     R & G space division:  proc/nbgrp/npool/nimage =      37
     Fft bands division:     nmany     =       1
     Reading input from Tc2Ag2.in
Warning: card &CELL ignored
Warning: card / ignored

     Current dimensions of program PWSCF are:
     Max number of different atomic species (ntypx) = 10
     Max number of k-points (npk) =  40000
     Max angular momentum in pseudopotentials (lmaxx) =  3
     Presently stress not available with electric field and gates

     Message from routine cell_base_init:
     DEPRECATED: use true lattice parameter, not A to a.u. conversion factor
     file Tc.pbe-spn-rrkjus_psl.0.3.0.UPF: wavefunction(s)  4S 4P renormalized

     IMPORTANT: XC functional enforced from input :
     Exchange-correlation= BEEF-VDW
                           (   1   4  43  14   2   0   0)
     Any further DFT definition will be discarded
     Please, verify this is what you really want

     Subspace diagonalization in iterative solution of the eigenvalue problem:
     a serial algorithm will be used

     bravais-lattice index     =            0
     lattice parameter (alat)  =       1.8897  a.u.
     unit-cell volume          =    4673.1207 (a.u.)^3
     number of atoms/cell      =           12
     number of atomic types    =            2
     number of electrons       =       156.00
     number of Kohn-Sham states=           94
     kinetic-energy cutoff     =      55.1240  Ry
     charge density cutoff     =     551.2396  Ry
     convergence threshold     =      1.0E-05
     mixing beta               =       0.1000
     number of iterations used =           10  plain     mixing
     Exchange-correlation= BEEF-VDW
                           (   1   4  43  14   2   0   0)

     celldm(1)=   1.889726  celldm(2)=   0.000000  celldm(3)=   0.000000
     celldm(4)=   0.000000  celldm(5)=   0.000000  celldm(6)=   0.000000

     crystal axes: (cart. coord. in units of alat)
               a(1) = (   5.287316   0.000000   0.000000 )
               a(2) = (  -2.643658   5.326183   0.000000 )
               a(3) = (   0.000000   0.000000  24.590034 )

     reciprocal axes: (cart. coord. in units 2 pi/alat)
               b(1) = (  0.189132  0.093876 -0.000000 )
               b(2) = (  0.000000  0.187752  0.000000 )
               b(3) = (  0.000000 -0.000000  0.040667 )

     PseudoPot. # 1 for Tc read from file:
     ../pseudo/Tc.pbe-spn-rrkjus_psl.0.3.0.UPF
     MD5 check sum: 5f147c0bf103030af994b79b1f5562e4
     Pseudo is Ultrasoft + core correction, Zval = 15.0
     Generated using "atomic" code by A. Dal Corso v.6.2.2
     Using radial grid of 1231 points,  6 beta functions with:
                l(1) =   0
                l(2) =   0
                l(3) =   1
                l(4) =   1
                l(5) =   2
                l(6) =   2
     Q(r) pseudized with 0 coefficients

     PseudoPot. # 2 for Ag read from file:
     ../pseudo/Ag.pbe-n-rrkjus_psl.1.0.0.UPF
     MD5 check sum: d841cbfac2b0861aec33b46768a516bf
     Pseudo is Ultrasoft + core correction, Zval = 11.0
     Generated using "atomic" code by A. Dal Corso v.6.2.2
     Using radial grid of 1237 points,  6 beta functions with:
                l(1) =   0
                l(2) =   0
                l(3) =   1
                l(4) =   1
                l(5) =   2
                l(6) =   2
     Q(r) pseudized with 0 coefficients

     atomic species   valence    mass     pseudopotential
        Tc            15.00    97.90721     Tc( 1.00)
        Ag            11.00   107.86820     Ag( 1.00)

     No symmetry found

   Cartesian axes

     site n.     atom                  positions (alat units)
         1           Tc  tau(   1) = (   0.0000000   0.0000000  10.0000000  )
         2           Tc  tau(   2) = (   2.6436582   0.0000000  10.0000000  )
         3           Ag  tau(   3) = (   1.3218291   2.6630913  10.0000000  )
         4           Ag  tau(   4) = (  -1.3218291   2.6630913  10.0000000  )
         5           Tc  tau(   5) = (   2.6436582   1.3121834  12.2950170  )
         6           Tc  tau(   6) = (  -0.0000000   1.3121834  12.2950170  )
         7           Ag  tau(   7) = (  -1.3218291   3.9752747  12.2950170  )
         8           Ag  tau(   8) = (   1.3218291   3.9752747  12.2950170  )
         9           Tc  tau(   9) = (   0.0001181   2.2719559  14.3555435  )
        10           Tc  tau(  10) = (   2.6437854   2.2722522  14.3556700  )
        11           Ag  tau(  11) = (   1.3238881   5.0219829  14.8918047  )
        12           Ag  tau(  12) = (  -1.3229806   5.0219903  14.8918018  )

     number of k points=    74  Fermi-Dirac smearing, width (Ry)=  0.0100
                       cart. coord. in units 2pi/alat
        k(    1) = (   0.0000000   0.0000000   0.0000000), wk =   0.0138889
        k(    2) = (   0.0000000   0.0156460   0.0000000), wk =   0.0277778
        k(    3) = (   0.0000000   0.0312920   0.0000000), wk =   0.0277778
        k(    4) = (   0.0000000   0.0469379   0.0000000), wk =   0.0277778
        k(    5) = (   0.0000000   0.0625839   0.0000000), wk =   0.0277778
        k(    6) = (   0.0000000   0.0782299   0.0000000), wk =   0.0277778
        k(    7) = (   0.0000000  -0.0938759   0.0000000), wk =   0.0138889
        k(    8) = (   0.0157610   0.0078230   0.0000000), wk =   0.0277778
        k(    9) = (   0.0157610   0.0234690   0.0000000), wk =   0.0277778
        k(   10) = (   0.0157610   0.0391149   0.0000000), wk =   0.0277778
        k(   11) = (   0.0157610   0.0547609   0.0000000), wk =   0.0277778
        k(   12) = (   0.0157610   0.0704069   0.0000000), wk =   0.0277778
        k(   13) = (   0.0157610   0.0860529   0.0000000), wk =   0.0277778
        k(   14) = (   0.0157610  -0.0860529   0.0000000), wk =   0.0277778
        k(   15) = (   0.0157610  -0.0704069   0.0000000), wk =   0.0277778
        k(   16) = (   0.0157610  -0.0547609   0.0000000), wk =   0.0277778
        k(   17) = (   0.0157610  -0.0391149   0.0000000), wk =   0.0277778
        k(   18) = (   0.0157610  -0.0234690   0.0000000), wk =   0.0277778
        k(   19) = (   0.0157610  -0.0078230   0.0000000), wk =   0.0277778
        k(   20) = (   0.0315220   0.0156460   0.0000000), wk =   0.0277778
        k(   21) = (   0.0315220   0.0312920   0.0000000), wk =   0.0277778
        k(   22) = (   0.0315220   0.0469379   0.0000000), wk =   0.0277778
        k(   23) = (   0.0315220   0.0625839   0.0000000), wk =   0.0277778
        k(   24) = (   0.0315220   0.0782299   0.0000000), wk =   0.0277778
        k(   25) = (   0.0315220   0.0938759   0.0000000), wk =   0.0277778
        k(   26) = (   0.0315220  -0.0782299   0.0000000), wk =   0.0277778
        k(   27) = (   0.0315220  -0.0625839   0.0000000), wk =   0.0277778
        k(   28) = (   0.0315220  -0.0469379   0.0000000), wk =   0.0277778
        k(   29) = (   0.0315220  -0.0312920   0.0000000), wk =   0.0277778
        k(   30) = (   0.0315220  -0.0156460   0.0000000), wk =   0.0277778
        k(   31) = (   0.0315220  -0.0000000   0.0000000), wk =   0.0277778
        k(   32) = (   0.0472830   0.0234690   0.0000000), wk =   0.0277778
        k(   33) = (   0.0472830   0.0391149   0.0000000), wk =   0.0277778
        k(   34) = (   0.0472830   0.0547609   0.0000000), wk =   0.0277778
        k(   35) = (   0.0472830   0.0704069   0.0000000), wk =   0.0277778
        k(   36) = (   0.0472830   0.0860529   0.0000000), wk =   0.0277778
        k(   37) = (   0.0472830   0.1016988   0.0000000), wk =   0.0277778
        k(   38) = (   0.0472830  -0.0704069   0.0000000), wk =   0.0277778
        k(   39) = (   0.0472830  -0.0547609   0.0000000), wk =   0.0277778
        k(   40) = (   0.0472830  -0.0391149   0.0000000), wk =   0.0277778
        k(   41) = (   0.0472830  -0.0234690   0.0000000), wk =   0.0277778
        k(   42) = (   0.0472830  -0.0078230   0.0000000), wk =   0.0277778
        k(   43) = (   0.0472830   0.0078230   0.0000000), wk =   0.0277778
        k(   44) = (   0.0630440   0.0312920   0.0000000), wk =   0.0277778
        k(   45) = (   0.0630440   0.0469379   0.0000000), wk =   0.0277778
        k(   46) = (   0.0630440   0.0625839   0.0000000), wk =   0.0277778
        k(   47) = (   0.0630440   0.0782299   0.0000000), wk =   0.0277778
        k(   48) = (   0.0630440   0.0938759   0.0000000), wk =   0.0277778
        k(   49) = (   0.0630440   0.1095218   0.0000000), wk =   0.0277778
        k(   50) = (   0.0630440  -0.0625839   0.0000000), wk =   0.0277778
        k(   51) = (   0.0630440  -0.0469379   0.0000000), wk =   0.0277778
        k(   52) = (   0.0630440  -0.0312920   0.0000000), wk =   0.0277778
        k(   53) = (   0.0630440  -0.0156460   0.0000000), wk =   0.0277778
        k(   54) = (   0.0630440   0.0000000   0.0000000), wk =   0.0277778
        k(   55) = (   0.0630440   0.0156460   0.0000000), wk =   0.0277778
        k(   56) = (   0.0788049   0.0391149   0.0000000), wk =   0.0277778
        k(   57) = (   0.0788049   0.0547609   0.0000000), wk =   0.0277778
        k(   58) = (   0.0788049   0.0704069   0.0000000), wk =   0.0277778
        k(   59) = (   0.0788049   0.0860529   0.0000000), wk =   0.0277778
        k(   60) = (   0.0788049   0.1016988   0.0000000), wk =   0.0277778
        k(   61) = (   0.0788049   0.1173448   0.0000000), wk =   0.0277778
        k(   62) = (   0.0788049  -0.0547609   0.0000000), wk =   0.0277778
        k(   63) = (   0.0788049  -0.0391149   0.0000000), wk =   0.0277778
        k(   64) = (   0.0788049  -0.0234690   0.0000000), wk =   0.0277778
        k(   65) = (   0.0788049  -0.0078230   0.0000000), wk =   0.0277778
        k(   66) = (   0.0788049   0.0078230   0.0000000), wk =   0.0277778
        k(   67) = (   0.0788049   0.0234690   0.0000000), wk =   0.0277778
        k(   68) = (  -0.0945659  -0.0469379   0.0000000), wk =   0.0138889
        k(   69) = (  -0.0945659  -0.0312920   0.0000000), wk =   0.0277778
        k(   70) = (  -0.0945659  -0.0156460   0.0000000), wk =   0.0277778
        k(   71) = (  -0.0945659   0.0000000   0.0000000), wk =   0.0277778
        k(   72) = (  -0.0945659   0.0156460   0.0000000), wk =   0.0277778
        k(   73) = (  -0.0945659   0.0312920   0.0000000), wk =   0.0277778
        k(   74) = (  -0.0945659  -0.1408138   0.0000000), wk =   0.0138889

     Initial potential from superposition of free atoms

     starting charge  155.99382, renormalised to  156.00000

     negative rho (up, down):  6.008E-03 0.000E+00

     %%%%%%%%%%%%%%%%%%%%%%%%%%%%%%%%%%%%%%%%%%%%%%%%%%%%%%%%%%%%%%%%%%%%%%%%
     %                                                                      %
     % You are using vdW-DF, which was implemented by the Thonhauser group. %
     % Please cite the following two papers that made this development      %
     % possible and the two reviews that describe the various versions:     %
     %                                                                      %
     %   T. Thonhauser et al., PRL 115, 136402 (2015).                      %
     %   T. Thonhauser et al., PRB 76, 125112 (2007).                       %
     %   K. Berland et al., Rep. Prog. Phys. 78, 066501 (2015).             %
     %   D.C. Langreth et al., J. Phys.: Condens. Matter 21, 084203 (2009). %
     %                                                                      %
     %                                                                      %
     % If you are calculating the stress with vdW-DF, please also cite:     %
     %                                                                      %
     %   R. Sabatini et al., J. Phys.: Condens. Matter 24, 424209 (2012).   %
     %                                                                      %
     %%%%%%%%%%%%%%%%%%%%%%%%%%%%%%%%%%%%%%%%%%%%%%%%%%%%%%%%%%%%%%%%%%%%%%%%

     Adding external electric field

     Computed dipole along edir(3) :
        Dipole               -0.0001 Ry au,         -0.0002 Debye
        Dipole field         -0.0000 Ry au,

        Potential amp.        0.0000 Ry
        Total length         45.3067 bohr

     Starting wfcs are  132 randomized atomic wfcs

     Self-consistent Calculation

     iteration #  1     ecut=    55.12 Ry     beta= 0.10
     Davidson diagonalization with overlap
     ethr =  1.00E-02,  avg # of iterations =  2.1

[...]

     total energy              =   -1597.39711367 Ry
     estimated scf accuracy    <       2.79097003 Ry

[...]

     iteration #  6     ecut=    55.12 Ry     beta= 0.10
     Davidson diagonalization with overlap
     c_bands:  1 eigenvalues not converged
     ethr =  4.79E-05,  avg # of iterations =  4.2

[...]

     total energy              =   -1597.57681601 Ry
     estimated scf accuracy    <       0.00001303 Ry

     iteration # 15     ecut=    55.12 Ry     beta= 0.10
     Davidson diagonalization with overlap
     ethr =  8.35E-09,  avg # of iterations =  3.4

[...]

     Adding external electric field

     Computed dipole along edir(3) :
        Dipole                0.0344 Ry au,          0.0874 Debye
        Dipole field          0.0001 Ry au,

        Potential amp.       -0.0084 Ry
        Total length         45.3067 bohr

     End of self-consistent calculation

          k = 0.0000 0.0000 0.0000 ( 32325 PWs)   bands (ev):

   -66.2519 -66.1492 -65.8511 -65.7503 -65.7272 -65.6243 -38.8507 -38.7400
   -38.4243 -38.1496 -38.1274 -38.1045 -38.0514 -37.7787 -37.6843 -37.6065
   -37.5935 -37.5520 -37.5097 -37.4964 -37.2778 -37.2602 -37.2160 -37.1380
    -5.7645  -5.1725  -5.1665  -5.0387  -4.9641  -4.7969  -4.7003  -4.6485
    -4.5479  -4.5370  -4.3144  -4.2681  -4.2317  -4.1334  -3.9769  -3.9394
    -3.8251  -3.5608  -3.4239  -3.4074  -3.0487  -2.9952  -2.9137  -2.9069
    -2.8253  -2.6716  -2.6666  -2.4837  -2.4400  -2.2507  -2.1966  -2.0724
    -2.0034  -1.9728  -1.8631  -1.7487  -1.7371  -1.4935  -1.2956  -1.1634
    -0.7159  -0.6342  -0.6103  -0.2678   0.0882   0.1369   0.3779   0.4536
     0.6557   0.7003   0.9296   1.1286   1.3392   1.7302   1.9308   1.9843
     1.9844   2.1025   2.2945   2.3290   2.3292   2.4810   2.5475   2.7199
     2.7308   2.9876   3.5520   3.7689   4.0142   4.7222

[...]

          k = 0.0788 0.0235 0.0000 ( 32318 PWs)   bands (ev):

[...]

          k =-0.0946-0.0469 0.0000 ( 32324 PWs)   bands (ev):

[...]

          k =-0.0946-0.1408 0.0000 ( 32324 PWs)   bands (ev):

   -66.2009 -66.2008 -65.8012 -65.8008 -65.6760 -65.6760 -38.7961 -38.7956
   -38.1012 -38.1011 -37.9981 -37.9980 -37.7321 -37.7317 -37.7113 -37.7111
   -37.6928 -37.6927 -37.5581 -37.5580 -37.5456 -37.5456 -37.1773 -37.1767
    -4.5522  -4.5520  -4.4094  -4.4092  -4.2937  -4.2934  -4.2441  -4.2436
    -4.0363  -4.0361  -3.8631  -3.8618  -3.7243  -3.7226  -3.5179  -3.5177
    -3.4427  -3.4389  -3.3696  -3.3636  -3.2487  -3.2476  -3.2104  -3.2081
    -3.0857  -3.0813  -2.8919  -2.8905  -2.8098  -2.8073  -2.7389  -2.7330
    -2.1202  -2.1186  -2.0367  -2.0362  -1.7717  -1.7715  -1.1604  -1.1602
    -0.7942  -0.7936  -0.3167  -0.3166  -0.0331  -0.0323   0.1040   0.1051
     0.2637   0.2639   0.3084   0.3087   0.4937   0.4940   0.6668   0.6672
     0.7507   0.7507   1.6935   1.6935   1.9635   1.9640   2.4147   2.4153
     2.9869   2.9876   3.1962   3.1970   3.9660   3.9670

     the Fermi energy is     0.9671 ev

!    total energy              =   -1597.57684865 Ry
     estimated scf accuracy    <       0.00000640 Ry
     smearing contrib. (-TS)   =      -0.05840258 Ry
     internal energy E=F+TS    =   -1597.51844607 Ry

     The total energy is F=E-TS. E is the sum of the following terms:
     one-electron contribution =  -12812.10358994 Ry
     hartree contribution      =    6450.45716840 Ry
     xc contribution           =    -375.94137254 Ry
     ewald contribution        =    5140.06934483 Ry
     electric field correction =       0.00000318 Ry

     convergence has been achieved in  15 iterations

     negative rho (up, down):  6.117E-03 0.000E+00

     Forces acting on atoms (cartesian axes, Ry/au):

     atom    1 type  1   force =    -0.00000170    0.01167768    0.02728516
     atom    2 type  1   force =     0.00000187    0.01168591    0.02725543
     atom    3 type  2   force =    -0.00000796   -0.01730860   -0.03798091
     atom    4 type  2   force =     0.00000780   -0.01730831   -0.03798075
     atom    5 type  1   force =     0.00006314   -0.01353973   -0.00734408
     atom    6 type  1   force =    -0.00007137   -0.01362298   -0.00742109
     atom    7 type  2   force =     0.00004460    0.01937636    0.01923563
     atom    8 type  2   force =    -0.00004810    0.01937719    0.01923560
     atom    9 type  1   force =     0.00001585   -0.00026095   -0.00141257
     atom   10 type  1   force =     0.00001954   -0.00049916   -0.00142683
     atom   11 type  2   force =    -0.00136891    0.00021178    0.00027666
     atom   12 type  2   force =     0.00134522    0.00021080    0.00027775

     Total force =     0.084980     Total SCF correction =     0.010098
     SCF correction compared to forces is large: reduce conv_thr to get better values

     Writing output data file ./Tc2Ag2/Tc2Ag2_beef.save/

     General routines

     Parallel routines

   This run was terminated on:  23:14:37  24Jun2022

   JOB DONE.