     Program PWSCF v.6.6 starts on 27Jun2022 at  0:22: 4

     R & G space division:  proc/nbgrp/npool/nimage =      37
     Fft bands division:     nmany     =       1
     Reading input from Tc2Hf2.in
Warning: card &CELL ignored
Warning: card / ignored

     Current dimensions of program PWSCF are:
     Max number of different atomic species (ntypx) = 10
     Max number of k-points (npk) =  40000
     Max angular momentum in pseudopotentials (lmaxx) =  3
     Presently stress not available with electric field and gates

     Message from routine cell_base_init:
     DEPRECATED: use true lattice parameter, not A to a.u. conversion factor
     file Tc.pbe-spn-rrkjus_psl.0.3.0.UPF: wavefunction(s)  4S 4P renormalized

     IMPORTANT: XC functional enforced from input :
     Exchange-correlation= BEEF-VDW
                           (   1   4  43  14   2   0   0)
     Any further DFT definition will be discarded
     Please, verify this is what you really want

     Subspace diagonalization in iterative solution of the eigenvalue problem:
     a serial algorithm will be used

     Found symmetry operation: I + (  0.5000  0.5000  0.0000)
     This is a supercell, fractional translations are disabled

     bravais-lattice index     =            0
     lattice parameter (alat)  =       1.8897  a.u.
     unit-cell volume          =    5013.3257 (a.u.)^3
     number of atoms/cell      =           12
     number of atomic types    =            2
     number of electrons       =       162.00
     number of Kohn-Sham states=           97
     kinetic-energy cutoff     =      55.1240  Ry
     charge density cutoff     =     551.2396  Ry
     convergence threshold     =      1.0E-05
     mixing beta               =       0.1000
     number of iterations used =           10  plain     mixing
     Exchange-correlation= BEEF-VDW
                           (   1   4  43  14   2   0   0)

     celldm(1)=   1.889726  celldm(2)=   0.000000  celldm(3)=   0.000000
     celldm(4)=   0.000000  celldm(5)=   0.000000  celldm(6)=   0.000000

     crystal axes: (cart. coord. in units of alat)
               a(1) = (   5.661067   0.000000   0.000000 )
               a(2) = (   1.913025   5.328041   0.000000 )
               a(3) = (   0.000000   0.000000  24.629951 )

     reciprocal axes: (cart. coord. in units 2 pi/alat)
               b(1) = (  0.176645 -0.063424  0.000000 )
               b(2) = (  0.000000  0.187686  0.000000 )
               b(3) = (  0.000000  0.000000  0.040601 )

     PseudoPot. # 1 for Tc read from file:
     ../pseudo/Tc.pbe-spn-rrkjus_psl.0.3.0.UPF
     MD5 check sum: 5f147c0bf103030af994b79b1f5562e4
     Pseudo is Ultrasoft + core correction, Zval = 15.0
     Generated using "atomic" code by A. Dal Corso v.6.2.2
     Using radial grid of 1231 points,  6 beta functions with:
                l(1) =   0
                l(2) =   0
                l(3) =   1
                l(4) =   1
                l(5) =   2
                l(6) =   2
     Q(r) pseudized with 0 coefficients

     PseudoPot. # 2 for Hf read from file:
     ../pseudo/Hf.pbe-spn-rrkjus_psl.1.0.0.UPF
     MD5 check sum: 9605440c6f839e558204c6a924125fd0
     Pseudo is Ultrasoft + core correction, Zval = 12.0
     Generated using "atomic" code by A. Dal Corso v.6.2.2
     Using radial grid of 1271 points,  6 beta functions with:
                l(1) =   0
                l(2) =   0
                l(3) =   1
                l(4) =   1
                l(5) =   2
                l(6) =   2
     Q(r) pseudized with 0 coefficients

     atomic species   valence    mass     pseudopotential
        Tc            15.00    97.90721     Tc( 1.00)
        Hf            12.00   178.49000     Hf( 1.00)

     No symmetry found

   Cartesian axes

     site n.     atom                  positions (alat units)
         1           Tc  tau(   1) = (   0.0000000   0.0000000  10.0000000  )
         2           Tc  tau(   2) = (   3.7870459   2.6640204  10.0000000  )
         3           Hf  tau(   3) = (   2.8305336   0.0000000  10.0000000  )
         4           Hf  tau(   4) = (   0.9565123   2.6640204  10.0000000  )
         5           Tc  tau(   5) = (   5.6610672   3.9823121  12.3149756  )
         6           Tc  tau(   6) = (   1.8740213   1.3182916  12.3149756  )
         7           Hf  tau(   7) = (   2.8305336   3.9823121  12.3149756  )
         8           Hf  tau(   8) = (   4.7045549   1.3182916  12.3149756  )
         9           Tc  tau(   9) = (   3.7522082   2.6395120  14.5649887  )
        10           Tc  tau(  10) = (   7.5392537   5.3035356  14.5649837  )
        11           Hf  tau(  11) = (   6.5903927   2.6448935  14.5701598  )
        12           Hf  tau(  12) = (   4.7163736   5.3089185  14.5701598  )

     number of k points=    74  Fermi-Dirac smearing, width (Ry)=  0.0100
                       cart. coord. in units 2pi/alat
        k(    1) = (   0.0000000   0.0000000   0.0000000), wk =   0.0138889
        k(    2) = (   0.0000000   0.0156405   0.0000000), wk =   0.0277778
        k(    3) = (   0.0000000   0.0312810   0.0000000), wk =   0.0277778
        k(    4) = (   0.0000000   0.0469216   0.0000000), wk =   0.0277778
        k(    5) = (   0.0000000   0.0625621   0.0000000), wk =   0.0277778
        k(    6) = (   0.0000000   0.0782026   0.0000000), wk =   0.0277778
        k(    7) = (   0.0000000  -0.0938431   0.0000000), wk =   0.0138889
        k(    8) = (   0.0147204  -0.0052853   0.0000000), wk =   0.0277778
        k(    9) = (   0.0147204   0.0103552   0.0000000), wk =   0.0277778
        k(   10) = (   0.0147204   0.0259957   0.0000000), wk =   0.0277778
        k(   11) = (   0.0147204   0.0416362   0.0000000), wk =   0.0277778
        k(   12) = (   0.0147204   0.0572767   0.0000000), wk =   0.0277778
        k(   13) = (   0.0147204   0.0729173   0.0000000), wk =   0.0277778
        k(   14) = (   0.0147204  -0.0991285   0.0000000), wk =   0.0277778
        k(   15) = (   0.0147204  -0.0834879   0.0000000), wk =   0.0277778
        k(   16) = (   0.0147204  -0.0678474   0.0000000), wk =   0.0277778
        k(   17) = (   0.0147204  -0.0522069   0.0000000), wk =   0.0277778
        k(   18) = (   0.0147204  -0.0365664   0.0000000), wk =   0.0277778
        k(   19) = (   0.0147204  -0.0209259   0.0000000), wk =   0.0277778
        k(   20) = (   0.0294409  -0.0105707   0.0000000), wk =   0.0277778
        k(   21) = (   0.0294409   0.0050698   0.0000000), wk =   0.0277778
        k(   22) = (   0.0294409   0.0207103   0.0000000), wk =   0.0277778
        k(   23) = (   0.0294409   0.0363509   0.0000000), wk =   0.0277778
        k(   24) = (   0.0294409   0.0519914   0.0000000), wk =   0.0277778
        k(   25) = (   0.0294409   0.0676319   0.0000000), wk =   0.0277778
        k(   26) = (   0.0294409  -0.1044138   0.0000000), wk =   0.0277778
        k(   27) = (   0.0294409  -0.0887733   0.0000000), wk =   0.0277778
        k(   28) = (   0.0294409  -0.0731328   0.0000000), wk =   0.0277778
        k(   29) = (   0.0294409  -0.0574923   0.0000000), wk =   0.0277778
        k(   30) = (   0.0294409  -0.0418517   0.0000000), wk =   0.0277778
        k(   31) = (   0.0294409  -0.0262112   0.0000000), wk =   0.0277778
        k(   32) = (   0.0441613  -0.0158560   0.0000000), wk =   0.0277778
        k(   33) = (   0.0441613  -0.0002155   0.0000000), wk =   0.0277778
        k(   34) = (   0.0441613   0.0154250   0.0000000), wk =   0.0277778
        k(   35) = (   0.0441613   0.0310655   0.0000000), wk =   0.0277778
        k(   36) = (   0.0441613   0.0467060   0.0000000), wk =   0.0277778
        k(   37) = (   0.0441613   0.0623466   0.0000000), wk =   0.0277778
        k(   38) = (   0.0441613  -0.1096992   0.0000000), wk =   0.0277778
        k(   39) = (   0.0441613  -0.0940586   0.0000000), wk =   0.0277778
        k(   40) = (   0.0441613  -0.0784181   0.0000000), wk =   0.0277778
        k(   41) = (   0.0441613  -0.0627776   0.0000000), wk =   0.0277778
        k(   42) = (   0.0441613  -0.0471371   0.0000000), wk =   0.0277778
        k(   43) = (   0.0441613  -0.0314966   0.0000000), wk =   0.0277778
        k(   44) = (   0.0588817  -0.0211414   0.0000000), wk =   0.0277778
        k(   45) = (   0.0588817  -0.0055009   0.0000000), wk =   0.0277778
        k(   46) = (   0.0588817   0.0101397   0.0000000), wk =   0.0277778
        k(   47) = (   0.0588817   0.0257802   0.0000000), wk =   0.0277778
        k(   48) = (   0.0588817   0.0414207   0.0000000), wk =   0.0277778
        k(   49) = (   0.0588817   0.0570612   0.0000000), wk =   0.0277778
        k(   50) = (   0.0588817  -0.1149845   0.0000000), wk =   0.0277778
        k(   51) = (   0.0588817  -0.0993440   0.0000000), wk =   0.0277778
        k(   52) = (   0.0588817  -0.0837035   0.0000000), wk =   0.0277778
        k(   53) = (   0.0588817  -0.0680630   0.0000000), wk =   0.0277778
        k(   54) = (   0.0588817  -0.0524224   0.0000000), wk =   0.0277778
        k(   55) = (   0.0588817  -0.0367819   0.0000000), wk =   0.0277778
        k(   56) = (   0.0736021  -0.0264267   0.0000000), wk =   0.0277778
        k(   57) = (   0.0736021  -0.0107862   0.0000000), wk =   0.0277778
        k(   58) = (   0.0736021   0.0048543   0.0000000), wk =   0.0277778
        k(   59) = (   0.0736021   0.0204948   0.0000000), wk =   0.0277778
        k(   60) = (   0.0736021   0.0361353   0.0000000), wk =   0.0277778
        k(   61) = (   0.0736021   0.0517759   0.0000000), wk =   0.0277778
        k(   62) = (   0.0736021  -0.1202699   0.0000000), wk =   0.0277778
        k(   63) = (   0.0736021  -0.1046293   0.0000000), wk =   0.0277778
        k(   64) = (   0.0736021  -0.0889888   0.0000000), wk =   0.0277778
        k(   65) = (   0.0736021  -0.0733483   0.0000000), wk =   0.0277778
        k(   66) = (   0.0736021  -0.0577078   0.0000000), wk =   0.0277778
        k(   67) = (   0.0736021  -0.0420673   0.0000000), wk =   0.0277778
        k(   68) = (  -0.0883226   0.0317121   0.0000000), wk =   0.0138889
        k(   69) = (  -0.0883226   0.0473526   0.0000000), wk =   0.0277778
        k(   70) = (  -0.0883226   0.0629931   0.0000000), wk =   0.0277778
        k(   71) = (  -0.0883226   0.0786336   0.0000000), wk =   0.0277778
        k(   72) = (  -0.0883226   0.0942742   0.0000000), wk =   0.0277778
        k(   73) = (  -0.0883226   0.1099147   0.0000000), wk =   0.0277778
        k(   74) = (  -0.0883226  -0.0621310   0.0000000), wk =   0.0138889

     Initial potential from superposition of free atoms

     starting charge  161.98458, renormalised to  162.00000

     negative rho (up, down):  6.230E-03 0.000E+00

     %%%%%%%%%%%%%%%%%%%%%%%%%%%%%%%%%%%%%%%%%%%%%%%%%%%%%%%%%%%%%%%%%%%%%%%%
     %                                                                      %
     % You are using vdW-DF, which was implemented by the Thonhauser group. %
     % Please cite the following two papers that made this development      %
     % possible and the two reviews that describe the various versions:     %
     %                                                                      %
     %   T. Thonhauser et al., PRL 115, 136402 (2015).                      %
     %   T. Thonhauser et al., PRB 76, 125112 (2007).                       %
     %   K. Berland et al., Rep. Prog. Phys. 78, 066501 (2015).             %
     %   D.C. Langreth et al., J. Phys.: Condens. Matter 21, 084203 (2009). %
     %                                                                      %
     %                                                                      %
     % If you are calculating the stress with vdW-DF, please also cite:     %
     %                                                                      %
     %   R. Sabatini et al., J. Phys.: Condens. Matter 24, 424209 (2012).   %
     %                                                                      %
     %%%%%%%%%%%%%%%%%%%%%%%%%%%%%%%%%%%%%%%%%%%%%%%%%%%%%%%%%%%%%%%%%%%%%%%%

     Adding external electric field

     Computed dipole along edir(3) :
        Dipole                0.0000 Ry au,          0.0000 Debye
        Dipole field          0.0000 Ry au,

        Potential amp.       -0.0000 Ry
        Total length         45.3803 bohr

     Starting wfcs are  138 randomized atomic wfcs

     Self-consistent Calculation

     iteration #  1     ecut=    55.12 Ry     beta= 0.10
     Davidson diagonalization with overlap
     ethr =  1.00E-02,  avg # of iterations =  2.0

[...]

     total energy              =   -1844.83178408 Ry
     estimated scf accuracy    <       8.12378952 Ry

[...]

     iteration #  8     ecut=    55.12 Ry     beta= 0.10
     Davidson diagonalization with overlap
     c_bands:  1 eigenvalues not converged
     ethr =  2.31E-05,  avg # of iterations =  7.2

[...]

     total energy              =   -1845.13118530 Ry
     estimated scf accuracy    <       0.00003108 Ry

     iteration # 16     ecut=    55.12 Ry     beta= 0.10
     Davidson diagonalization with overlap
     ethr =  1.92E-08,  avg # of iterations =  2.9

[...]

     Adding external electric field

     Computed dipole along edir(3) :
        Dipole               -0.0037 Ry au,         -0.0095 Debye
        Dipole field         -0.0000 Ry au,

        Potential amp.        0.0009 Ry
        Total length         45.3803 bohr

     End of self-consistent calculation

          k = 0.0000 0.0000 0.0000 ( 34683 PWs)   bands (ev):

   -64.4707 -64.4617 -64.2967 -64.2883 -64.2741 -64.2657 -60.4011 -60.3889
   -60.3359 -60.3237 -59.6651 -59.6526 -36.4567 -36.4412 -36.4305 -36.4277
   -36.4218 -36.3248 -36.2981 -36.2834 -36.2782 -36.2647 -36.2573 -36.2389
   -36.2209 -36.2048 -36.2045 -36.1847 -36.1701 -36.1553 -28.9876 -28.9835
   -28.9609 -28.9279 -28.9272 -28.9049 -28.8050 -28.7911 -28.7583 -28.7431
   -28.6929 -28.6387 -28.3345 -28.1957 -28.1941 -28.1782 -28.1620 -28.0359
    -4.4352  -2.9308  -2.3102  -1.9960  -1.8600  -1.7629  -1.6760  -1.6161
    -1.5955  -1.5680  -1.0880  -1.0587  -0.6977  -0.1298  -0.0808   0.0309
     0.0369   0.0492   0.0926   0.1785   0.2051   0.3896   0.6798   1.0154
     1.1954   1.3011   1.3474   1.6480   1.9031   1.9700   1.9864   2.0962
     2.2817   2.8746   2.8823   2.9973   3.8166   3.8248   3.8617   3.9106
     4.0063   4.0081   4.1321   4.3195   4.3688   4.5017   4.5709   4.6117
     5.0328

[...]

          k = 0.0736-0.0421 0.0000 ( 34617 PWs)   bands (ev):

[...]

          k =-0.0883 0.0317 0.0000 ( 34612 PWs)   bands (ev):

[...]

          k =-0.0883-0.0621 0.0000 ( 34670 PWs)   bands (ev):

   -64.4699 -64.4619 -64.2961 -64.2883 -64.2736 -64.2656 -60.4024 -60.3890
   -60.3372 -60.3239 -59.6663 -59.6526 -36.4455 -36.4382 -36.4254 -36.4159
   -36.3995 -36.3218 -36.2857 -36.2820 -36.2708 -36.2703 -36.2497 -36.2446
   -36.2028 -36.1934 -36.1870 -36.1784 -36.1682 -36.1535 -29.0146 -29.0009
   -28.9647 -28.9581 -28.9280 -28.9007 -28.8580 -28.8210 -28.8081 -28.7737
   -28.7016 -28.6474 -28.3632 -28.2349 -28.2040 -28.1810 -28.1680 -28.0449
    -2.4408  -2.3427  -1.3453  -1.2984  -1.0270  -0.9797  -0.8675  -0.8034
    -0.7507  -0.1991  -0.1337  -0.0905  -0.0644   0.0976   0.1313   0.2708
     0.2980   0.3533   0.4796   0.7167   0.7878   0.8469   1.0539   1.0581
     1.0598   1.2705   1.3888   1.4593   1.4773   1.4787   1.5342   1.5695
     1.7235   1.8369   1.8675   1.9021   2.0448   2.0479   2.1982   2.3594
     2.4938   2.6944   3.4352   3.5461   3.7346   3.7879   3.8552   4.0036
     4.1064

     the Fermi energy is     1.8929 ev

!    total energy              =   -1845.13122366 Ry
     estimated scf accuracy    <       0.00000913 Ry
     smearing contrib. (-TS)   =      -0.06793202 Ry
     internal energy E=F+TS    =   -1845.06329164 Ry

     The total energy is F=E-TS. E is the sum of the following terms:
     one-electron contribution =  -13002.33137771 Ry
     hartree contribution      =    6497.62971679 Ry
     xc contribution           =    -494.15668818 Ry
     ewald contribution        =    5153.79505743 Ry
     electric field correction =       0.00000004 Ry

     convergence has been achieved in  16 iterations

     negative rho (up, down):  5.872E-03 0.000E+00

     Forces acting on atoms (cartesian axes, Ry/au):

     atom    1 type  1   force =    -0.00084371   -0.00059639    0.01249122
     atom    2 type  1   force =    -0.00084592   -0.00059289    0.01252732
     atom    3 type  2   force =    -0.00219654   -0.00154400    0.01376560
     atom    4 type  2   force =    -0.00219318   -0.00154363    0.01376489
     atom    5 type  1   force =     0.00060910    0.00042618   -0.00991607
     atom    6 type  1   force =     0.00058967    0.00041714   -0.00991635
     atom    7 type  2   force =     0.00068410    0.00053016   -0.01076193
     atom    8 type  2   force =     0.00073404    0.00046622   -0.01076213
     atom    9 type  1   force =     0.00120432    0.00084978   -0.00161275
     atom   10 type  1   force =     0.00120848    0.00084728   -0.00161293
     atom   11 type  2   force =     0.00052641    0.00037111   -0.00398418
     atom   12 type  2   force =     0.00052322    0.00036903   -0.00398270

     Total force =     0.034372     Total SCF correction =     0.017563
     SCF correction compared to forces is large: reduce conv_thr to get better values

     Writing output data file ./Tc2Hf2/Tc2Hf2_beef.save/

     General routines

     Parallel routines

   This run was terminated on:   2:37: 4  27Jun2022

   JOB DONE.