     Program PWSCF v.6.6 starts on 25Jun2022 at  1:27:18

     R & G space division:  proc/nbgrp/npool/nimage =      37
     Fft bands division:     nmany     =       1
     Reading input from Tc2Hg2.in
Warning: card &CELL ignored
Warning: card / ignored

     Current dimensions of program PWSCF are:
     Max number of different atomic species (ntypx) = 10
     Max number of k-points (npk) =  40000
     Max angular momentum in pseudopotentials (lmaxx) =  3
     Presently stress not available with electric field and gates

     Message from routine cell_base_init:
     DEPRECATED: use true lattice parameter, not A to a.u. conversion factor
     file Tc.pbe-spn-rrkjus_psl.0.3.0.UPF: wavefunction(s)  4S 4P renormalized
     file Hg.pbe-n-rrkjus_psl.1.0.0.UPF: wavefunction(s)  6S renormalized

     IMPORTANT: XC functional enforced from input :
     Exchange-correlation= BEEF-VDW
                           (   1   4  43  14   2   0   0)
     Any further DFT definition will be discarded
     Please, verify this is what you really want

     Subspace diagonalization in iterative solution of the eigenvalue problem:
     a serial algorithm will be used

     bravais-lattice index     =            0
     lattice parameter (alat)  =       1.8897  a.u.
     unit-cell volume          =    4986.2033 (a.u.)^3
     number of atoms/cell      =           12
     number of atomic types    =            2
     number of electrons       =       162.00
     number of Kohn-Sham states=           97
     kinetic-energy cutoff     =      55.1240  Ry
     charge density cutoff     =     551.2396  Ry
     convergence threshold     =      1.0E-05
     mixing beta               =       0.1000
     number of iterations used =           10  plain     mixing
     Exchange-correlation= BEEF-VDW
                           (   1   4  43  14   2   0   0)

     celldm(1)=   1.889726  celldm(2)=   0.000000  celldm(3)=   0.000000
     celldm(4)=   0.000000  celldm(5)=   0.000000  celldm(6)=   0.000000

     crystal axes: (cart. coord. in units of alat)
               a(1) = (   5.674352   0.000000   0.000000 )
               a(2) = (  -2.837176   5.255545   0.000000 )
               a(3) = (   0.000000   0.000000  24.776470 )

     reciprocal axes: (cart. coord. in units 2 pi/alat)
               b(1) = (  0.176232  0.095138 -0.000000 )
               b(2) = (  0.000000  0.190275  0.000000 )
               b(3) = (  0.000000 -0.000000  0.040361 )

     PseudoPot. # 1 for Tc read from file:
     ../pseudo/Tc.pbe-spn-rrkjus_psl.0.3.0.UPF
     MD5 check sum: 5f147c0bf103030af994b79b1f5562e4
     Pseudo is Ultrasoft + core correction, Zval = 15.0
     Generated using "atomic" code by A. Dal Corso v.6.2.2
     Using radial grid of 1231 points,  6 beta functions with:
                l(1) =   0
                l(2) =   0
                l(3) =   1
                l(4) =   1
                l(5) =   2
                l(6) =   2
     Q(r) pseudized with 0 coefficients

     PseudoPot. # 2 for Hg read from file:
     ../pseudo/Hg.pbe-n-rrkjus_psl.1.0.0.UPF
     MD5 check sum: 7519ac2e5b9cac440d3cfd4127d6ea3c
     Pseudo is Ultrasoft + core correction, Zval = 12.0
     Generated using "atomic" code by A. Dal Corso v.6.3
     Using radial grid of 1279 points,  6 beta functions with:
                l(1) =   0
                l(2) =   0
                l(3) =   1
                l(4) =   1
                l(5) =   2
                l(6) =   2
     Q(r) pseudized with 0 coefficients

     atomic species   valence    mass     pseudopotential
        Tc            15.00    97.90721     Tc( 1.00)
        Hg            12.00   200.59200     Hg( 1.00)

     No symmetry found

   Cartesian axes

     site n.     atom                  positions (alat units)
         1           Tc  tau(   1) = (   0.0000000   0.0000000  10.0000000  )
         2           Tc  tau(   2) = (   2.8371762   0.0000000  10.0000000  )
         3           Hg  tau(   3) = (   1.4185881   2.6277724  10.0000000  )
         4           Hg  tau(   4) = (  -1.4185881   2.6277724  10.0000000  )
         5           Tc  tau(   5) = (   2.8371762   1.5316335  12.3882352  )
         6           Tc  tau(   6) = (   0.0000000   1.5316335  12.3882352  )
         7           Hg  tau(   7) = (  -1.4185881   4.1594059  12.3882352  )
         8           Hg  tau(   8) = (   1.4185881   4.1594059  12.3882352  )
         9           Tc  tau(   9) = (   0.0000034   2.3241801  14.4417862  )
        10           Tc  tau(  10) = (   2.8371721   2.3242856  14.4419175  )
        11           Hg  tau(  11) = (   1.4189365   5.0911724  15.2982626  )
        12           Hg  tau(  12) = (  -1.4189410   5.0911682  15.2982677  )

     number of k points=    74  Fermi-Dirac smearing, width (Ry)=  0.0100
                       cart. coord. in units 2pi/alat
        k(    1) = (   0.0000000   0.0000000   0.0000000), wk =   0.0138889
        k(    2) = (   0.0000000   0.0158563   0.0000000), wk =   0.0277778
        k(    3) = (   0.0000000   0.0317125   0.0000000), wk =   0.0277778
        k(    4) = (   0.0000000   0.0475688   0.0000000), wk =   0.0277778
        k(    5) = (   0.0000000   0.0634251   0.0000000), wk =   0.0277778
        k(    6) = (   0.0000000   0.0792813   0.0000000), wk =   0.0277778
        k(    7) = (   0.0000000  -0.0951376   0.0000000), wk =   0.0138889
        k(    8) = (   0.0146860   0.0079281   0.0000000), wk =   0.0277778
        k(    9) = (   0.0146860   0.0237844   0.0000000), wk =   0.0277778
        k(   10) = (   0.0146860   0.0396407   0.0000000), wk =   0.0277778
        k(   11) = (   0.0146860   0.0554969   0.0000000), wk =   0.0277778
        k(   12) = (   0.0146860   0.0713532   0.0000000), wk =   0.0277778
        k(   13) = (   0.0146860   0.0872095   0.0000000), wk =   0.0277778
        k(   14) = (   0.0146860  -0.0872095   0.0000000), wk =   0.0277778
        k(   15) = (   0.0146860  -0.0713532   0.0000000), wk =   0.0277778
        k(   16) = (   0.0146860  -0.0554969   0.0000000), wk =   0.0277778
        k(   17) = (   0.0146860  -0.0396407   0.0000000), wk =   0.0277778
        k(   18) = (   0.0146860  -0.0237844   0.0000000), wk =   0.0277778
        k(   19) = (   0.0146860  -0.0079281   0.0000000), wk =   0.0277778
        k(   20) = (   0.0293719   0.0158563   0.0000000), wk =   0.0277778
        k(   21) = (   0.0293719   0.0317125   0.0000000), wk =   0.0277778
        k(   22) = (   0.0293719   0.0475688   0.0000000), wk =   0.0277778
        k(   23) = (   0.0293719   0.0634251   0.0000000), wk =   0.0277778
        k(   24) = (   0.0293719   0.0792813   0.0000000), wk =   0.0277778
        k(   25) = (   0.0293719   0.0951376   0.0000000), wk =   0.0277778
        k(   26) = (   0.0293719  -0.0792813   0.0000000), wk =   0.0277778
        k(   27) = (   0.0293719  -0.0634251   0.0000000), wk =   0.0277778
        k(   28) = (   0.0293719  -0.0475688   0.0000000), wk =   0.0277778
        k(   29) = (   0.0293719  -0.0317125   0.0000000), wk =   0.0277778
        k(   30) = (   0.0293719  -0.0158563   0.0000000), wk =   0.0277778
        k(   31) = (   0.0293719  -0.0000000   0.0000000), wk =   0.0277778
        k(   32) = (   0.0440579   0.0237844   0.0000000), wk =   0.0277778
        k(   33) = (   0.0440579   0.0396407   0.0000000), wk =   0.0277778
        k(   34) = (   0.0440579   0.0554969   0.0000000), wk =   0.0277778
        k(   35) = (   0.0440579   0.0713532   0.0000000), wk =   0.0277778
        k(   36) = (   0.0440579   0.0872095   0.0000000), wk =   0.0277778
        k(   37) = (   0.0440579   0.1030657   0.0000000), wk =   0.0277778
        k(   38) = (   0.0440579  -0.0713532   0.0000000), wk =   0.0277778
        k(   39) = (   0.0440579  -0.0554969   0.0000000), wk =   0.0277778
        k(   40) = (   0.0440579  -0.0396407   0.0000000), wk =   0.0277778
        k(   41) = (   0.0440579  -0.0237844   0.0000000), wk =   0.0277778
        k(   42) = (   0.0440579  -0.0079281   0.0000000), wk =   0.0277778
        k(   43) = (   0.0440579   0.0079281   0.0000000), wk =   0.0277778
        k(   44) = (   0.0587439   0.0317125   0.0000000), wk =   0.0277778
        k(   45) = (   0.0587439   0.0475688   0.0000000), wk =   0.0277778
        k(   46) = (   0.0587439   0.0634251   0.0000000), wk =   0.0277778
        k(   47) = (   0.0587439   0.0792813   0.0000000), wk =   0.0277778
        k(   48) = (   0.0587439   0.0951376   0.0000000), wk =   0.0277778
        k(   49) = (   0.0587439   0.1109939   0.0000000), wk =   0.0277778
        k(   50) = (   0.0587439  -0.0634251   0.0000000), wk =   0.0277778
        k(   51) = (   0.0587439  -0.0475688   0.0000000), wk =   0.0277778
        k(   52) = (   0.0587439  -0.0317125   0.0000000), wk =   0.0277778
        k(   53) = (   0.0587439  -0.0158563   0.0000000), wk =   0.0277778
        k(   54) = (   0.0587439   0.0000000   0.0000000), wk =   0.0277778
        k(   55) = (   0.0587439   0.0158563   0.0000000), wk =   0.0277778
        k(   56) = (   0.0734298   0.0396407   0.0000000), wk =   0.0277778
        k(   57) = (   0.0734298   0.0554969   0.0000000), wk =   0.0277778
        k(   58) = (   0.0734298   0.0713532   0.0000000), wk =   0.0277778
        k(   59) = (   0.0734298   0.0872095   0.0000000), wk =   0.0277778
        k(   60) = (   0.0734298   0.1030657   0.0000000), wk =   0.0277778
        k(   61) = (   0.0734298   0.1189220   0.0000000), wk =   0.0277778
        k(   62) = (   0.0734298  -0.0554969   0.0000000), wk =   0.0277778
        k(   63) = (   0.0734298  -0.0396407   0.0000000), wk =   0.0277778
        k(   64) = (   0.0734298  -0.0237844   0.0000000), wk =   0.0277778
        k(   65) = (   0.0734298  -0.0079281   0.0000000), wk =   0.0277778
        k(   66) = (   0.0734298   0.0079281   0.0000000), wk =   0.0277778
        k(   67) = (   0.0734298   0.0237844   0.0000000), wk =   0.0277778
        k(   68) = (  -0.0881158  -0.0475688   0.0000000), wk =   0.0138889
        k(   69) = (  -0.0881158  -0.0317125   0.0000000), wk =   0.0277778
        k(   70) = (  -0.0881158  -0.0158563   0.0000000), wk =   0.0277778
        k(   71) = (  -0.0881158   0.0000000   0.0000000), wk =   0.0277778
        k(   72) = (  -0.0881158   0.0158563   0.0000000), wk =   0.0277778
        k(   73) = (  -0.0881158   0.0317125   0.0000000), wk =   0.0277778
        k(   74) = (  -0.0881158  -0.1427064   0.0000000), wk =   0.0138889

     Initial potential from superposition of free atoms

     starting charge  161.99572, renormalised to  162.00000

     negative rho (up, down):  6.508E-03 0.000E+00

     %%%%%%%%%%%%%%%%%%%%%%%%%%%%%%%%%%%%%%%%%%%%%%%%%%%%%%%%%%%%%%%%%%%%%%%%
     %                                                                      %
     % You are using vdW-DF, which was implemented by the Thonhauser group. %
     % Please cite the following two papers that made this development      %
     % possible and the two reviews that describe the various versions:     %
     %                                                                      %
     %   T. Thonhauser et al., PRL 115, 136402 (2015).                      %
     %   T. Thonhauser et al., PRB 76, 125112 (2007).                       %
     %   K. Berland et al., Rep. Prog. Phys. 78, 066501 (2015).             %
     %   D.C. Langreth et al., J. Phys.: Condens. Matter 21, 084203 (2009). %
     %                                                                      %
     %                                                                      %
     % If you are calculating the stress with vdW-DF, please also cite:     %
     %                                                                      %
     %   R. Sabatini et al., J. Phys.: Condens. Matter 24, 424209 (2012).   %
     %                                                                      %
     %%%%%%%%%%%%%%%%%%%%%%%%%%%%%%%%%%%%%%%%%%%%%%%%%%%%%%%%%%%%%%%%%%%%%%%%

     Adding external electric field

     Computed dipole along edir(3) :
        Dipole               -0.0008 Ry au,         -0.0019 Debye
        Dipole field         -0.0000 Ry au,

        Potential amp.        0.0002 Ry
        Total length         45.6502 bohr

     Starting wfcs are  132 randomized atomic wfcs

     Self-consistent Calculation

     iteration #  1     ecut=    55.12 Ry     beta= 0.10
     Davidson diagonalization with overlap
     ethr =  1.00E-02,  avg # of iterations =  2.0

[...]

     total energy              =   -1693.63636192 Ry
     estimated scf accuracy    <       6.38420805 Ry

[...]

     iteration #  7     ecut=    55.12 Ry     beta= 0.10
     Davidson diagonalization with overlap
     c_bands:  1 eigenvalues not converged
     ethr =  4.78E-05,  avg # of iterations =  2.0

[...]

     iteration # 12     ecut=    55.12 Ry     beta= 0.10
     Davidson diagonalization with overlap
     c_bands:  1 eigenvalues not converged
     ethr =  3.94E-07,  avg # of iterations =  4.7

[...]

     total energy              =   -1693.91004517 Ry
     estimated scf accuracy    <       0.00005886 Ry

     iteration # 15     ecut=    55.12 Ry     beta= 0.10
     Davidson diagonalization with overlap
     ethr =  3.63E-08,  avg # of iterations =  2.4

[...]

     Adding external electric field

     Computed dipole along edir(3) :
        Dipole                0.0969 Ry au,          0.2464 Debye
        Dipole field          0.0002 Ry au,

        Potential amp.       -0.0223 Ry
        Total length         45.6502 bohr

     End of self-consistent calculation

          k = 0.0000 0.0000 0.0000 ( 34529 PWs)   bands (ev):

   -65.6802 -65.6357 -65.2762 -65.2338 -65.0865 -65.0422 -38.5786 -38.5247
   -37.6025 -37.5273 -37.4778 -37.3125 -37.2894 -37.2202 -37.1753 -37.1415
   -36.9996 -36.9516 -36.9104 -36.8708 -36.8630 -36.8606 -36.6206 -36.5845
    -7.6018  -7.1035  -7.0104  -6.8864  -6.8653  -6.7737  -6.5562  -6.4247
    -6.3979  -6.3440  -6.2709  -6.0676  -6.0009  -5.8868  -5.7211  -5.6878
    -5.5481  -5.4855  -5.4183  -5.4058  -5.3211  -5.3045  -5.2124  -5.1951
    -5.0193  -4.9553  -4.7693  -4.7171  -4.7076  -4.6849  -4.5696  -4.1453
    -2.8926  -2.3491  -2.0005  -1.8789  -1.4783  -1.4030  -1.1828  -1.0533
    -0.9698  -0.8696  -0.6831  -0.5144  -0.0003   0.1764   0.3853   0.4690
     0.5158   1.0021   1.1599   1.1647   1.3746   1.4789   1.6605   1.9151
     1.9972   2.2480   2.2600   2.3670   2.3671   2.3869   2.3984   2.5318
     2.5511   2.6043   3.0801   3.2618   3.5823   3.7140   4.0249   4.1181
     4.3890

[...]

          k = 0.0734 0.0238 0.0000 ( 34446 PWs)   bands (ev):

[...]

          k =-0.0881-0.0476 0.0000 ( 34460 PWs)   bands (ev):

[...]

          k =-0.0881-0.1427 0.0000 ( 34460 PWs)   bands (ev):

   -65.6581 -65.6578 -65.2552 -65.2549 -65.0644 -65.0644 -38.5523 -38.5514
   -37.5033 -37.5031 -37.3754 -37.3752 -37.1981 -37.1977 -37.0942 -37.0941
   -37.0786 -37.0784 -36.9761 -36.9761 -36.8868 -36.8868 -36.6025 -36.6024
    -6.6156  -6.6156  -6.3762  -6.3761  -6.2716  -6.2716  -6.1744  -6.1744
    -6.0933  -6.0932  -5.7805  -5.7804  -5.7097  -5.7096  -5.6256  -5.6255
    -5.5045  -5.5021  -5.4543  -5.4540  -5.4358  -5.4351  -5.3956  -5.3943
    -5.2857  -5.2855  -5.1846  -5.1835  -5.1394  -5.1391  -4.8686  -4.8681
    -3.6295  -3.6284  -2.3677  -2.3672  -1.6941  -1.6937  -1.5065  -1.5060
    -0.9701  -0.9700  -0.3374  -0.3371  -0.0634  -0.0632   0.2838   0.2839
     0.5277   0.5278   0.7606   0.7607   0.8736   0.8737   1.1315   1.1315
     1.2113   1.2114   1.6216   1.6217   2.1381   2.1382   2.5121   2.5122
     2.8493   2.8494   3.0002   3.0003   3.7160   3.7163   4.4876   4.4880
     5.1767

     the Fermi energy is     1.5615 ev

!    total energy              =   -1693.91010935 Ry
     estimated scf accuracy    <       0.00000898 Ry
     smearing contrib. (-TS)   =      -0.05658024 Ry
     internal energy E=F+TS    =   -1693.85352911 Ry

     The total energy is F=E-TS. E is the sum of the following terms:
     one-electron contribution =  -12684.05396661 Ry
     hartree contribution      =    6385.85034739 Ry
     xc contribution           =    -437.78403991 Ry
     ewald contribution        =    5042.13410633 Ry
     electric field correction =       0.00002368 Ry

     convergence has been achieved in  15 iterations

     negative rho (up, down):  6.293E-03 0.000E+00

     Forces acting on atoms (cartesian axes, Ry/au):

     atom    1 type  1   force =    -0.00000620    0.01084860    0.03098714
     atom    2 type  1   force =    -0.00000132    0.01087040    0.03095430
     atom    3 type  2   force =    -0.00000584   -0.01028889   -0.05028640
     atom    4 type  2   force =     0.00001428   -0.01031133   -0.05030878
     atom    5 type  1   force =    -0.00007932   -0.01746877    0.00401653
     atom    6 type  1   force =     0.00008763   -0.01738998    0.00399709
     atom    7 type  2   force =    -0.00001302    0.01781115    0.01717382
     atom    8 type  2   force =     0.00003777    0.01780351    0.01721241
     atom    9 type  1   force =     0.00002691   -0.00098796   -0.00100679
     atom   10 type  1   force =    -0.00004557   -0.00120361   -0.00117324
     atom   11 type  2   force =    -0.00021780    0.00016203   -0.00079227
     atom   12 type  2   force =     0.00020248    0.00015485   -0.00077379

     Total force =     0.096423     Total SCF correction =     0.011835
     SCF correction compared to forces is large: reduce conv_thr to get better values

     Writing output data file ./Tc2Hg2/Tc2Hg2_beef.save/

     General routines

     Parallel routines

   This run was terminated on:   2:35:52  25Jun2022

   JOB DONE.