     Program PWSCF v.6.6 starts on 25Jun2022 at  2:35:54

     R & G space division:  proc/nbgrp/npool/nimage =      37
     Fft bands division:     nmany     =       1
     Reading input from Tc2Ir2.in
Warning: card &CELL ignored
Warning: card / ignored

     Current dimensions of program PWSCF are:
     Max number of different atomic species (ntypx) = 10
     Max number of k-points (npk) =  40000
     Max angular momentum in pseudopotentials (lmaxx) =  3
     Presently stress not available with electric field and gates

     Message from routine cell_base_init:
     DEPRECATED: use true lattice parameter, not A to a.u. conversion factor
     file Tc.pbe-spn-rrkjus_psl.0.3.0.UPF: wavefunction(s)  4S 4P renormalized
     file Ir.pbe-n-rrkjus_psl.0.2.3.UPF: wavefunction(s)  5D renormalized

     IMPORTANT: XC functional enforced from input :
     Exchange-correlation= BEEF-VDW
                           (   1   4  43  14   2   0   0)
     Any further DFT definition will be discarded
     Please, verify this is what you really want

     Subspace diagonalization in iterative solution of the eigenvalue problem:
     a serial algorithm will be used

     Found symmetry operation: I + ( -0.5000  0.0000  0.0000)
     This is a supercell, fractional translations are disabled

     bravais-lattice index     =            0
     lattice parameter (alat)  =       1.8897  a.u.
     unit-cell volume          =    4280.7440 (a.u.)^3
     number of atoms/cell      =           12
     number of atomic types    =            2
     number of electrons       =       144.00
     number of Kohn-Sham states=           86
     kinetic-energy cutoff     =      55.1240  Ry
     charge density cutoff     =     551.2396  Ry
     convergence threshold     =      1.0E-05
     mixing beta               =       0.1000
     number of iterations used =           10  plain     mixing
     Exchange-correlation= BEEF-VDW
                           (   1   4  43  14   2   0   0)

     celldm(1)=   1.889726  celldm(2)=   0.000000  celldm(3)=   0.000000
     celldm(4)=   0.000000  celldm(5)=   0.000000  celldm(6)=   0.000000

     crystal axes: (cart. coord. in units of alat)
               a(1) = (   5.445688   0.000000   0.000000 )
               a(2) = (  -2.722844   4.760874   0.000000 )
               a(3) = (   0.000000   0.000000  24.467145 )

     reciprocal axes: (cart. coord. in units 2 pi/alat)
               b(1) = (  0.183632  0.105023 -0.000000 )
               b(2) = (  0.000000  0.210045  0.000000 )
               b(3) = (  0.000000 -0.000000  0.040871 )

     PseudoPot. # 1 for Tc read from file:
     ../pseudo/Tc.pbe-spn-rrkjus_psl.0.3.0.UPF
     MD5 check sum: 5f147c0bf103030af994b79b1f5562e4
     Pseudo is Ultrasoft + core correction, Zval = 15.0
     Generated using "atomic" code by A. Dal Corso v.6.2.2
     Using radial grid of 1231 points,  6 beta functions with:
                l(1) =   0
                l(2) =   0
                l(3) =   1
                l(4) =   1
                l(5) =   2
                l(6) =   2
     Q(r) pseudized with 0 coefficients

     PseudoPot. # 2 for Ir read from file:
     ../pseudo/Ir.pbe-n-rrkjus_psl.0.2.3.UPF
     MD5 check sum: a93e608e8ddc29ee62145620b5f41564
     Pseudo is Ultrasoft + core correction, Zval =  9.0
     Generated using "atomic" code by A. Dal Corso v.5.0.2 svn rev. 9415
     Using radial grid of 1277 points,  6 beta functions with:
                l(1) =   0
                l(2) =   0
                l(3) =   1
                l(4) =   1
                l(5) =   2
                l(6) =   2
     Q(r) pseudized with 0 coefficients

     atomic species   valence    mass     pseudopotential
        Tc            15.00    97.90721     Tc( 1.00)
        Ir             9.00   192.21700     Ir( 1.00)

     No symmetry found

   Cartesian axes

     site n.     atom                  positions (alat units)
         1           Tc  tau(   1) = (   0.0000000   0.0000000  10.0000000  )
         2           Tc  tau(   2) = (   2.7228442   0.0000000  10.0000000  )
         3           Ir  tau(   3) = (   1.3614221   2.3804370  10.0000000  )
         4           Ir  tau(   4) = (  -1.3614221   2.3804370  10.0000000  )
         5           Tc  tau(   5) = (   2.7228442   1.5572520  12.2335726  )
         6           Tc  tau(   6) = (  -0.0000000   1.5572520  12.2335726  )
         7           Ir  tau(   7) = (  -1.3614221   3.9376890  12.2335726  )
         8           Ir  tau(   8) = (   1.3614221   3.9376890  12.2335726  )
         9           Tc  tau(   9) = (   0.0000008   3.1108817  14.3816378  )
        10           Tc  tau(  10) = (   2.7228429   3.1108910  14.3816251  )
        11           Ir  tau(  11) = (   4.0842661   0.8002419  14.3732971  )
        12           Ir  tau(  12) = (   1.3614211   0.8002427  14.3733000  )

     number of k points=    74  Fermi-Dirac smearing, width (Ry)=  0.0100
                       cart. coord. in units 2pi/alat
        k(    1) = (   0.0000000   0.0000000   0.0000000), wk =   0.0138889
        k(    2) = (   0.0000000   0.0175038   0.0000000), wk =   0.0277778
        k(    3) = (   0.0000000   0.0350076   0.0000000), wk =   0.0277778
        k(    4) = (   0.0000000   0.0525114   0.0000000), wk =   0.0277778
        k(    5) = (   0.0000000   0.0700152   0.0000000), wk =   0.0277778
        k(    6) = (   0.0000000   0.0875189   0.0000000), wk =   0.0277778
        k(    7) = (   0.0000000  -0.1050227   0.0000000), wk =   0.0138889
        k(    8) = (   0.0153026   0.0087519   0.0000000), wk =   0.0277778
        k(    9) = (   0.0153026   0.0262557   0.0000000), wk =   0.0277778
        k(   10) = (   0.0153026   0.0437595   0.0000000), wk =   0.0277778
        k(   11) = (   0.0153026   0.0612633   0.0000000), wk =   0.0277778
        k(   12) = (   0.0153026   0.0787670   0.0000000), wk =   0.0277778
        k(   13) = (   0.0153026   0.0962708   0.0000000), wk =   0.0277778
        k(   14) = (   0.0153026  -0.0962708   0.0000000), wk =   0.0277778
        k(   15) = (   0.0153026  -0.0787670   0.0000000), wk =   0.0277778
        k(   16) = (   0.0153026  -0.0612633   0.0000000), wk =   0.0277778
        k(   17) = (   0.0153026  -0.0437595   0.0000000), wk =   0.0277778
        k(   18) = (   0.0153026  -0.0262557   0.0000000), wk =   0.0277778
        k(   19) = (   0.0153026  -0.0087519   0.0000000), wk =   0.0277778
        k(   20) = (   0.0306053   0.0175038   0.0000000), wk =   0.0277778
        k(   21) = (   0.0306053   0.0350076   0.0000000), wk =   0.0277778
        k(   22) = (   0.0306053   0.0525114   0.0000000), wk =   0.0277778
        k(   23) = (   0.0306053   0.0700152   0.0000000), wk =   0.0277778
        k(   24) = (   0.0306053   0.0875189   0.0000000), wk =   0.0277778
        k(   25) = (   0.0306053   0.1050227   0.0000000), wk =   0.0277778
        k(   26) = (   0.0306053  -0.0875189   0.0000000), wk =   0.0277778
        k(   27) = (   0.0306053  -0.0700152   0.0000000), wk =   0.0277778
        k(   28) = (   0.0306053  -0.0525114   0.0000000), wk =   0.0277778
        k(   29) = (   0.0306053  -0.0350076   0.0000000), wk =   0.0277778
        k(   30) = (   0.0306053  -0.0175038   0.0000000), wk =   0.0277778
        k(   31) = (   0.0306053  -0.0000000   0.0000000), wk =   0.0277778
        k(   32) = (   0.0459079   0.0262557   0.0000000), wk =   0.0277778
        k(   33) = (   0.0459079   0.0437595   0.0000000), wk =   0.0277778
        k(   34) = (   0.0459079   0.0612633   0.0000000), wk =   0.0277778
        k(   35) = (   0.0459079   0.0787670   0.0000000), wk =   0.0277778
        k(   36) = (   0.0459079   0.0962708   0.0000000), wk =   0.0277778
        k(   37) = (   0.0459079   0.1137746   0.0000000), wk =   0.0277778
        k(   38) = (   0.0459079  -0.0787670   0.0000000), wk =   0.0277778
        k(   39) = (   0.0459079  -0.0612633   0.0000000), wk =   0.0277778
        k(   40) = (   0.0459079  -0.0437595   0.0000000), wk =   0.0277778
        k(   41) = (   0.0459079  -0.0262557   0.0000000), wk =   0.0277778
        k(   42) = (   0.0459079  -0.0087519   0.0000000), wk =   0.0277778
        k(   43) = (   0.0459079   0.0087519   0.0000000), wk =   0.0277778
        k(   44) = (   0.0612105   0.0350076   0.0000000), wk =   0.0277778
        k(   45) = (   0.0612105   0.0525114   0.0000000), wk =   0.0277778
        k(   46) = (   0.0612105   0.0700152   0.0000000), wk =   0.0277778
        k(   47) = (   0.0612105   0.0875189   0.0000000), wk =   0.0277778
        k(   48) = (   0.0612105   0.1050227   0.0000000), wk =   0.0277778
        k(   49) = (   0.0612105   0.1225265   0.0000000), wk =   0.0277778
        k(   50) = (   0.0612105  -0.0700152   0.0000000), wk =   0.0277778
        k(   51) = (   0.0612105  -0.0525114   0.0000000), wk =   0.0277778
        k(   52) = (   0.0612105  -0.0350076   0.0000000), wk =   0.0277778
        k(   53) = (   0.0612105  -0.0175038   0.0000000), wk =   0.0277778
        k(   54) = (   0.0612105   0.0000000   0.0000000), wk =   0.0277778
        k(   55) = (   0.0612105   0.0175038   0.0000000), wk =   0.0277778
        k(   56) = (   0.0765131   0.0437595   0.0000000), wk =   0.0277778
        k(   57) = (   0.0765131   0.0612633   0.0000000), wk =   0.0277778
        k(   58) = (   0.0765131   0.0787670   0.0000000), wk =   0.0277778
        k(   59) = (   0.0765131   0.0962708   0.0000000), wk =   0.0277778
        k(   60) = (   0.0765131   0.1137746   0.0000000), wk =   0.0277778
        k(   61) = (   0.0765131   0.1312784   0.0000000), wk =   0.0277778
        k(   62) = (   0.0765131  -0.0612633   0.0000000), wk =   0.0277778
        k(   63) = (   0.0765131  -0.0437595   0.0000000), wk =   0.0277778
        k(   64) = (   0.0765131  -0.0262557   0.0000000), wk =   0.0277778
        k(   65) = (   0.0765131  -0.0087519   0.0000000), wk =   0.0277778
        k(   66) = (   0.0765131   0.0087519   0.0000000), wk =   0.0277778
        k(   67) = (   0.0765131   0.0262557   0.0000000), wk =   0.0277778
        k(   68) = (  -0.0918158  -0.0525114   0.0000000), wk =   0.0138889
        k(   69) = (  -0.0918158  -0.0350076   0.0000000), wk =   0.0277778
        k(   70) = (  -0.0918158  -0.0175038   0.0000000), wk =   0.0277778
        k(   71) = (  -0.0918158   0.0000000   0.0000000), wk =   0.0277778
        k(   72) = (  -0.0918158   0.0175038   0.0000000), wk =   0.0277778
        k(   73) = (  -0.0918158   0.0350076   0.0000000), wk =   0.0277778
        k(   74) = (  -0.0918158  -0.1575341   0.0000000), wk =   0.0138889

     Initial potential from superposition of free atoms

     starting charge  143.99532, renormalised to  144.00000

     negative rho (up, down):  6.144E-03 0.000E+00

     %%%%%%%%%%%%%%%%%%%%%%%%%%%%%%%%%%%%%%%%%%%%%%%%%%%%%%%%%%%%%%%%%%%%%%%%
     %                                                                      %
     % You are using vdW-DF, which was implemented by the Thonhauser group. %
     % Please cite the following two papers that made this development      %
     % possible and the two reviews that describe the various versions:     %
     %                                                                      %
     %   T. Thonhauser et al., PRL 115, 136402 (2015).                      %
     %   T. Thonhauser et al., PRB 76, 125112 (2007).                       %
     %   K. Berland et al., Rep. Prog. Phys. 78, 066501 (2015).             %
     %   D.C. Langreth et al., J. Phys.: Condens. Matter 21, 084203 (2009). %
     %                                                                      %
     %                                                                      %
     % If you are calculating the stress with vdW-DF, please also cite:     %
     %                                                                      %
     %   R. Sabatini et al., J. Phys.: Condens. Matter 24, 424209 (2012).   %
     %                                                                      %
     %%%%%%%%%%%%%%%%%%%%%%%%%%%%%%%%%%%%%%%%%%%%%%%%%%%%%%%%%%%%%%%%%%%%%%%%

     Adding external electric field

     Computed dipole along edir(3) :
        Dipole                0.0000 Ry au,          0.0000 Debye
        Dipole field          0.0000 Ry au,

        Potential amp.       -0.0000 Ry
        Total length         45.0803 bohr

     Starting wfcs are  132 randomized atomic wfcs

     Self-consistent Calculation

     iteration #  1     ecut=    55.12 Ry     beta= 0.10
     Davidson diagonalization with overlap
     ethr =  1.00E-02,  avg # of iterations =  2.0

[...]

     total energy              =   -1466.04510370 Ry
     estimated scf accuracy    <       1.81031072 Ry

[...]

     iteration #  9     ecut=    55.12 Ry     beta= 0.10
     Davidson diagonalization with overlap
     c_bands:  2 eigenvalues not converged
     ethr =  2.22E-06,  avg # of iterations =  8.1

[...]

     total energy              =   -1466.22603551 Ry
     estimated scf accuracy    <       0.00001209 Ry

     iteration # 17     ecut=    55.12 Ry     beta= 0.10
     Davidson diagonalization with overlap
     ethr =  8.39E-09,  avg # of iterations =  2.0

[...]

     Adding external electric field

     Computed dipole along edir(3) :
        Dipole                0.0225 Ry au,          0.0571 Debye
        Dipole field          0.0001 Ry au,

        Potential amp.       -0.0059 Ry
        Total length         45.0803 bohr

     End of self-consistent calculation

          k = 0.0000 0.0000 0.0000 ( 29557 PWs)   bands (ev):

   -65.8584 -65.7855 -65.4611 -65.4198 -65.3889 -65.3477 -38.0209 -37.8627
   -37.7838 -37.7485 -37.6768 -37.6057 -37.5634 -37.3739 -37.3560 -37.3300
   -37.3113 -37.3016 -37.2581 -37.2405 -37.1762 -37.1122 -36.9485 -36.9092
    -6.7235  -5.0163  -4.9021  -4.6995  -4.6858  -4.5374  -4.3781  -4.2147
    -4.1393  -3.9430  -3.9006  -3.8477  -3.4580  -3.4288  -3.3378  -2.3233
    -2.1626  -1.9421  -1.6802  -1.5074  -1.4664  -1.1543  -1.1235  -1.0807
    -0.9201  -0.8743  -0.8091  -0.5846  -0.5348  -0.4501  -0.2753  -0.2405
    -0.2154   0.2389   0.5094   0.9567   1.0080   1.0121   1.2860   1.3206
     1.4295   1.5188   1.5593   1.6484   2.1763   2.3836   2.4950   2.4982
     2.7136   2.8557   3.1077   3.1607   3.1737   3.2908   3.3611   3.3886
     3.4472   3.5645   3.5799   3.6908   3.7980   3.8493

[...]

          k = 0.0765 0.0263 0.0000 ( 29616 PWs)   bands (ev):

[...]

          k =-0.0918-0.0525 0.0000 ( 29618 PWs)   bands (ev):

[...]

          k =-0.0918-0.1575 0.0000 ( 29618 PWs)   bands (ev):

   -65.8219 -65.8219 -65.4250 -65.4249 -65.3838 -65.3836 -37.8258 -37.8258
   -37.7162 -37.7161 -37.6959 -37.6959 -37.3398 -37.3397 -37.2959 -37.2958
   -37.2844 -37.2842 -37.2781 -37.2780 -37.2435 -37.2433 -37.1454 -37.1454
    -4.9546  -4.9546  -3.7902  -3.7901  -3.5572  -3.5572  -3.3977  -3.3977
    -3.2098  -3.2098  -2.9720  -2.9720  -2.5816  -2.5816  -2.5155  -2.5155
    -2.1910  -2.1910  -1.9211  -1.9211  -1.6442  -1.6442  -1.1562  -1.1561
    -1.0687  -1.0686  -0.9004  -0.9003  -0.8020  -0.8020  -0.6767  -0.6767
    -0.2912  -0.2912  -0.1108  -0.1108   0.0495   0.0495   0.1931   0.1931
     0.5276   0.5276   0.8875   0.8875   1.1889   1.1889   1.3467   1.3468
     1.6118   1.6118   1.7588   1.7588   1.9465   1.9465   2.2205   2.2206
     2.3552   2.3552   2.9034   2.9034   3.3948   3.3948

     the Fermi energy is     1.6916 ev

!    total energy              =   -1466.22604277 Ry
     estimated scf accuracy    <       0.00000130 Ry
     smearing contrib. (-TS)   =      -0.05930026 Ry
     internal energy E=F+TS    =   -1466.16674251 Ry

     The total energy is F=E-TS. E is the sum of the following terms:
     one-electron contribution =  -11976.26613779 Ry
     hartree contribution      =    6021.72514506 Ry
     xc contribution           =    -432.09122306 Ry
     ewald contribution        =    4920.46547180 Ry
     electric field correction =       0.00000148 Ry

     convergence has been achieved in  17 iterations

     negative rho (up, down):  6.229E-03 0.000E+00

     Forces acting on atoms (cartesian axes, Ry/au):

     atom    1 type  1   force =    -0.00000045    0.01025814    0.01734068
     atom    2 type  1   force =     0.00000015    0.01025986    0.01732140
     atom    3 type  2   force =     0.00000155   -0.01715294    0.02292073
     atom    4 type  2   force =    -0.00000303   -0.01715428    0.02291976
     atom    5 type  1   force =    -0.00000055    0.00521400   -0.02421706
     atom    6 type  1   force =     0.00000036    0.00522905   -0.02420082
     atom    7 type  2   force =    -0.00000977    0.00137342   -0.01993252
     atom    8 type  2   force =     0.00001204    0.00137843   -0.01993412
     atom    9 type  1   force =     0.00000038   -0.00062355    0.00111017
     atom   10 type  1   force =    -0.00000211   -0.00062958    0.00110205
     atom   11 type  2   force =    -0.00000242    0.00092338    0.00278525
     atom   12 type  2   force =     0.00000385    0.00092407    0.00278449

     Total force =     0.067052     Total SCF correction =     0.007342
     SCF correction compared to forces is large: reduce conv_thr to get better values

     Writing output data file ./Tc2Ir2/Tc2Ir2_beef.save/

     General routines

     Parallel routines

   This run was terminated on:   3:32:31  25Jun2022

   JOB DONE.