     Program PWSCF v.6.6 starts on 25Jun2022 at  7:36:57

     R & G space division:  proc/nbgrp/npool/nimage =      37
     Fft bands division:     nmany     =       1
     Reading input from Tc2Ru2.in
Warning: card &CELL ignored
Warning: card / ignored

     Current dimensions of program PWSCF are:
     Max number of different atomic species (ntypx) = 10
     Max number of k-points (npk) =  40000
     Max angular momentum in pseudopotentials (lmaxx) =  3
     Presently stress not available with electric field and gates

     Message from routine cell_base_init:
     DEPRECATED: use true lattice parameter, not A to a.u. conversion factor
     file Tc.pbe-spn-rrkjus_psl.0.3.0.UPF: wavefunction(s)  4S 4P renormalized

     IMPORTANT: XC functional enforced from input :
     Exchange-correlation= BEEF-VDW
                           (   1   4  43  14   2   0   0)
     Any further DFT definition will be discarded
     Please, verify this is what you really want

     Subspace diagonalization in iterative solution of the eigenvalue problem:
     a serial algorithm will be used

     Found symmetry operation: I + ( -0.5000  0.0000  0.0000)
     This is a supercell, fractional translations are disabled

     bravais-lattice index     =            0
     lattice parameter (alat)  =       1.8897  a.u.
     unit-cell volume          =    4226.5290 (a.u.)^3
     number of atoms/cell      =           12
     number of atomic types    =            2
     number of electrons       =       186.00
     number of Kohn-Sham states=          112
     kinetic-energy cutoff     =      55.1240  Ry
     charge density cutoff     =     551.2396  Ry
     convergence threshold     =      1.0E-05
     mixing beta               =       0.1000
     number of iterations used =           10  plain     mixing
     Exchange-correlation= BEEF-VDW
                           (   1   4  43  14   2   0   0)

     celldm(1)=   1.889726  celldm(2)=   0.000000  celldm(3)=   0.000000
     celldm(4)=   0.000000  celldm(5)=   0.000000  celldm(6)=   0.000000

     crystal axes: (cart. coord. in units of alat)
               a(1) = (   5.438273   0.000000   0.000000 )
               a(2) = (  -2.719137   4.711946   0.000000 )
               a(3) = (   0.000000   0.000000  24.441397 )

     reciprocal axes: (cart. coord. in units 2 pi/alat)
               b(1) = (  0.183882  0.106113 -0.000000 )
               b(2) = (  0.000000  0.212227  0.000000 )
               b(3) = (  0.000000 -0.000000  0.040914 )

     PseudoPot. # 1 for Tc read from file:
     ../pseudo/Tc.pbe-spn-rrkjus_psl.0.3.0.UPF
     MD5 check sum: 5f147c0bf103030af994b79b1f5562e4
     Pseudo is Ultrasoft + core correction, Zval = 15.0
     Generated using "atomic" code by A. Dal Corso v.6.2.2
     Using radial grid of 1231 points,  6 beta functions with:
                l(1) =   0
                l(2) =   0
                l(3) =   1
                l(4) =   1
                l(5) =   2
                l(6) =   2
     Q(r) pseudized with 0 coefficients

     PseudoPot. # 2 for Ru read from file:
     ../pseudo/Ru.pbe-spn-rrkjus_psl.1.0.0.UPF
     MD5 check sum: fbaca725316a1a65f98761fd4ac95971
     Pseudo is Ultrasoft + core correction, Zval = 16.0
     Generated using "atomic" code by A. Dal Corso v.6.2.2
     Using radial grid of 1233 points,  6 beta functions with:
                l(1) =   0
                l(2) =   0
                l(3) =   1
                l(4) =   1
                l(5) =   2
                l(6) =   2
     Q(r) pseudized with 0 coefficients

     atomic species   valence    mass     pseudopotential
        Tc            15.00    97.90721     Tc( 1.00)
        Ru            16.00   101.07000     Ru( 1.00)

     No symmetry found

   Cartesian axes

     site n.     atom                  positions (alat units)
         1           Tc  tau(   1) = (   0.0000000   0.0000000  10.0000000  )
         2           Tc  tau(   2) = (   2.7191366   0.0000000  10.0000000  )
         3           Ru  tau(   3) = (   1.3595683   2.3559729  10.0000000  )
         4           Ru  tau(   4) = (  -1.3595683   2.3559729  10.0000000  )
         5           Tc  tau(   5) = (   2.7191366   1.5691402  12.2206987  )
         6           Tc  tau(   6) = (  -0.0000000   1.5691402  12.2206987  )
         7           Ru  tau(   7) = (  -1.3595683   3.9251131  12.2206987  )
         8           Ru  tau(   8) = (   1.3595683   3.9251131  12.2206987  )
         9           Tc  tau(   9) = (  -0.0000002   3.1378224  14.3283309  )
        10           Tc  tau(  10) = (   2.7191360   3.1378219  14.3283307  )
        11           Ru  tau(  11) = (   4.0787038   0.7944081  14.3517659  )
        12           Ru  tau(  12) = (   1.3595677   0.7944083  14.3517663  )

     number of k points=    74  Fermi-Dirac smearing, width (Ry)=  0.0100
                       cart. coord. in units 2pi/alat
        k(    1) = (   0.0000000   0.0000000   0.0000000), wk =   0.0138889
        k(    2) = (   0.0000000   0.0176855   0.0000000), wk =   0.0277778
        k(    3) = (   0.0000000   0.0353711   0.0000000), wk =   0.0277778
        k(    4) = (   0.0000000   0.0530566   0.0000000), wk =   0.0277778
        k(    5) = (   0.0000000   0.0707422   0.0000000), wk =   0.0277778
        k(    6) = (   0.0000000   0.0884277   0.0000000), wk =   0.0277778
        k(    7) = (   0.0000000  -0.1061133   0.0000000), wk =   0.0138889
        k(    8) = (   0.0153235   0.0088428   0.0000000), wk =   0.0277778
        k(    9) = (   0.0153235   0.0265283   0.0000000), wk =   0.0277778
        k(   10) = (   0.0153235   0.0442139   0.0000000), wk =   0.0277778
        k(   11) = (   0.0153235   0.0618994   0.0000000), wk =   0.0277778
        k(   12) = (   0.0153235   0.0795850   0.0000000), wk =   0.0277778
        k(   13) = (   0.0153235   0.0972705   0.0000000), wk =   0.0277778
        k(   14) = (   0.0153235  -0.0972705   0.0000000), wk =   0.0277778
        k(   15) = (   0.0153235  -0.0795850   0.0000000), wk =   0.0277778
        k(   16) = (   0.0153235  -0.0618994   0.0000000), wk =   0.0277778
        k(   17) = (   0.0153235  -0.0442139   0.0000000), wk =   0.0277778
        k(   18) = (   0.0153235  -0.0265283   0.0000000), wk =   0.0277778
        k(   19) = (   0.0153235  -0.0088428   0.0000000), wk =   0.0277778
        k(   20) = (   0.0306470   0.0176855   0.0000000), wk =   0.0277778
        k(   21) = (   0.0306470   0.0353711   0.0000000), wk =   0.0277778
        k(   22) = (   0.0306470   0.0530566   0.0000000), wk =   0.0277778
        k(   23) = (   0.0306470   0.0707422   0.0000000), wk =   0.0277778
        k(   24) = (   0.0306470   0.0884277   0.0000000), wk =   0.0277778
        k(   25) = (   0.0306470   0.1061133   0.0000000), wk =   0.0277778
        k(   26) = (   0.0306470  -0.0884277   0.0000000), wk =   0.0277778
        k(   27) = (   0.0306470  -0.0707422   0.0000000), wk =   0.0277778
        k(   28) = (   0.0306470  -0.0530566   0.0000000), wk =   0.0277778
        k(   29) = (   0.0306470  -0.0353711   0.0000000), wk =   0.0277778
        k(   30) = (   0.0306470  -0.0176855   0.0000000), wk =   0.0277778
        k(   31) = (   0.0306470   0.0000000   0.0000000), wk =   0.0277778
        k(   32) = (   0.0459705   0.0265283   0.0000000), wk =   0.0277778
        k(   33) = (   0.0459705   0.0442139   0.0000000), wk =   0.0277778
        k(   34) = (   0.0459705   0.0618994   0.0000000), wk =   0.0277778
        k(   35) = (   0.0459705   0.0795850   0.0000000), wk =   0.0277778
        k(   36) = (   0.0459705   0.0972705   0.0000000), wk =   0.0277778
        k(   37) = (   0.0459705   0.1149560   0.0000000), wk =   0.0277778
        k(   38) = (   0.0459705  -0.0795849   0.0000000), wk =   0.0277778
        k(   39) = (   0.0459705  -0.0618994   0.0000000), wk =   0.0277778
        k(   40) = (   0.0459705  -0.0442139   0.0000000), wk =   0.0277778
        k(   41) = (   0.0459705  -0.0265283   0.0000000), wk =   0.0277778
        k(   42) = (   0.0459705  -0.0088428   0.0000000), wk =   0.0277778
        k(   43) = (   0.0459705   0.0088428   0.0000000), wk =   0.0277778
        k(   44) = (   0.0612940   0.0353711   0.0000000), wk =   0.0277778
        k(   45) = (   0.0612940   0.0530566   0.0000000), wk =   0.0277778
        k(   46) = (   0.0612940   0.0707422   0.0000000), wk =   0.0277778
        k(   47) = (   0.0612940   0.0884277   0.0000000), wk =   0.0277778
        k(   48) = (   0.0612940   0.1061133   0.0000000), wk =   0.0277778
        k(   49) = (   0.0612940   0.1237988   0.0000000), wk =   0.0277778
        k(   50) = (   0.0612940  -0.0707422   0.0000000), wk =   0.0277778
        k(   51) = (   0.0612940  -0.0530566   0.0000000), wk =   0.0277778
        k(   52) = (   0.0612940  -0.0353711   0.0000000), wk =   0.0277778
        k(   53) = (   0.0612940  -0.0176855   0.0000000), wk =   0.0277778
        k(   54) = (   0.0612940   0.0000000   0.0000000), wk =   0.0277778
        k(   55) = (   0.0612940   0.0176856   0.0000000), wk =   0.0277778
        k(   56) = (   0.0766175   0.0442139   0.0000000), wk =   0.0277778
        k(   57) = (   0.0766175   0.0618994   0.0000000), wk =   0.0277778
        k(   58) = (   0.0766175   0.0795850   0.0000000), wk =   0.0277778
        k(   59) = (   0.0766175   0.0972705   0.0000000), wk =   0.0277778
        k(   60) = (   0.0766175   0.1149561   0.0000000), wk =   0.0277778
        k(   61) = (   0.0766175   0.1326416   0.0000000), wk =   0.0277778
        k(   62) = (   0.0766175  -0.0618994   0.0000000), wk =   0.0277778
        k(   63) = (   0.0766175  -0.0442139   0.0000000), wk =   0.0277778
        k(   64) = (   0.0766175  -0.0265283   0.0000000), wk =   0.0277778
        k(   65) = (   0.0766175  -0.0088428   0.0000000), wk =   0.0277778
        k(   66) = (   0.0766175   0.0088428   0.0000000), wk =   0.0277778
        k(   67) = (   0.0766175   0.0265283   0.0000000), wk =   0.0277778
        k(   68) = (  -0.0919410  -0.0530566   0.0000000), wk =   0.0138889
        k(   69) = (  -0.0919410  -0.0353711   0.0000000), wk =   0.0277778
        k(   70) = (  -0.0919410  -0.0176856   0.0000000), wk =   0.0277778
        k(   71) = (  -0.0919410  -0.0000000   0.0000000), wk =   0.0277778
        k(   72) = (  -0.0919410   0.0176855   0.0000000), wk =   0.0277778
        k(   73) = (  -0.0919410   0.0353711   0.0000000), wk =   0.0277778
        k(   74) = (  -0.0919410  -0.1591699   0.0000000), wk =   0.0138889

     Check: negative core charge=   -0.000001

     Initial potential from superposition of free atoms

     starting charge  185.99239, renormalised to  186.00000

     negative rho (up, down):  6.057E-03 0.000E+00

     %%%%%%%%%%%%%%%%%%%%%%%%%%%%%%%%%%%%%%%%%%%%%%%%%%%%%%%%%%%%%%%%%%%%%%%%
     %                                                                      %
     % You are using vdW-DF, which was implemented by the Thonhauser group. %
     % Please cite the following two papers that made this development      %
     % possible and the two reviews that describe the various versions:     %
     %                                                                      %
     %   T. Thonhauser et al., PRL 115, 136402 (2015).                      %
     %   T. Thonhauser et al., PRB 76, 125112 (2007).                       %
     %   K. Berland et al., Rep. Prog. Phys. 78, 066501 (2015).             %
     %   D.C. Langreth et al., J. Phys.: Condens. Matter 21, 084203 (2009). %
     %                                                                      %
     %                                                                      %
     % If you are calculating the stress with vdW-DF, please also cite:     %
     %                                                                      %
     %   R. Sabatini et al., J. Phys.: Condens. Matter 24, 424209 (2012).   %
     %                                                                      %
     %%%%%%%%%%%%%%%%%%%%%%%%%%%%%%%%%%%%%%%%%%%%%%%%%%%%%%%%%%%%%%%%%%%%%%%%

     Adding external electric field

     Computed dipole along edir(3) :
        Dipole               -0.0000 Ry au,         -0.0000 Debye
        Dipole field         -0.0000 Ry au,

        Potential amp.        0.0000 Ry
        Total length         45.0329 bohr

     Starting wfcs are  138 randomized atomic wfcs

     Self-consistent Calculation

     iteration #  1     ecut=    55.12 Ry     beta= 0.10
     Davidson diagonalization with overlap
     ethr =  1.00E-02,  avg # of iterations =  2.0

[...]

     total energy              =   -2275.76259787 Ry
     estimated scf accuracy    <       4.03608594 Ry

[...]

     total energy              =   -2276.01353122 Ry
     estimated scf accuracy    <       0.00010061 Ry

     iteration # 15     ecut=    55.12 Ry     beta= 0.10
     Davidson diagonalization with overlap
     ethr =  3.82E-08,  avg # of iterations =  2.5

[...]

     Adding external electric field

     Computed dipole along edir(3) :
        Dipole                0.0325 Ry au,          0.0825 Debye
        Dipole field          0.0001 Ry au,

        Potential amp.       -0.0087 Ry
        Total length         45.0329 bohr

     End of self-consistent calculation

          k = 0.0000 0.0000 0.0000 ( 29081 PWs)   bands (ev):

   -70.7941 -70.7442 -70.3044 -70.2549 -70.2474 -70.1981 -64.9825 -64.9095
   -64.6294 -64.6073 -64.5563 -64.5346 -40.9757 -40.8530 -40.8032 -40.7887
   -40.7320 -40.5099 -40.4764 -40.4437 -40.3150 -40.2678 -40.2411 -40.2234
   -40.2011 -40.1665 -40.1665 -40.1127 -40.0155 -39.9545 -37.1112 -36.9746
   -36.9185 -36.8136 -36.7704 -36.7672 -36.7313 -36.5318 -36.4834 -36.4729
   -36.4653 -36.4575 -36.4351 -36.4118 -36.3356 -36.2814 -36.1239 -36.0916
    -4.3257  -3.2229  -3.2043  -3.1817  -3.0545  -2.8022  -2.7502  -2.7319
    -2.7281  -2.5385  -2.5018  -2.4667  -2.0406  -2.0385  -2.0329  -0.8789
    -0.8677  -0.8390  -0.1413  -0.1066  -0.0949   0.1431   0.1650   0.2246
     0.4068   0.4158   0.4348   0.5764   0.6074   0.6785   0.9290   0.9548
     1.2154   1.4069   1.5526   2.1646   2.2276   2.2649   2.4145   2.5005
     2.5413   2.5648   2.6131   2.6827   3.2006   3.3500   3.5618   3.5654
     3.7980   3.8451   4.0315   4.1383   4.2145   4.2652   4.2993   4.3218
     4.5687   4.6507   4.7755   4.7886   4.8595   4.9290   4.9822   5.0797

[...]

          k = 0.0766 0.0265 0.0000 ( 29241 PWs)   bands (ev):

[...]

          k =-0.0919-0.0531 0.0000 ( 29246 PWs)   bands (ev):

[...]

          k =-0.0919-0.1592 0.0000 ( 29246 PWs)   bands (ev):

   -70.7691 -70.7691 -70.2797 -70.2797 -70.2228 -70.2228 -64.9466 -64.9464
   -64.5933 -64.5931 -64.5716 -64.5711 -40.8158 -40.8158 -40.7565 -40.7565
   -40.7238 -40.7238 -40.2733 -40.2733 -40.2561 -40.2561 -40.2285 -40.2285
   -40.2003 -40.2002 -40.1902 -40.1902 -40.1374 -40.1374 -36.9618 -36.9616
   -36.8146 -36.8145 -36.7960 -36.7958 -36.4938 -36.4937 -36.4786 -36.4783
   -36.4577 -36.4573 -36.4503 -36.4501 -36.4215 -36.4211 -36.3123 -36.3120
    -2.7857  -2.7857  -2.1994  -2.1994  -2.1628  -2.1628  -1.8556  -1.8556
    -1.6635  -1.6635  -1.5568  -1.5567  -1.1779  -1.1778  -1.1291  -1.1291
    -0.7202  -0.7201  -0.5153  -0.5153  -0.3012  -0.3012   0.1747   0.1747
     0.4449   0.4449   0.5371   0.5371   0.7094   0.7094   0.7867   0.7867
     0.9352   0.9352   1.0012   1.0013   1.0288   1.0288   1.1926   1.1927
     1.7054   1.7054   1.9694   1.9694   2.2053   2.2054   2.4309   2.4310
     2.6462   2.6463   2.7821   2.7822   3.0257   3.0258   3.2583   3.2583
     3.3368   3.3368   3.9077   3.9078   4.3701   4.3702   4.6707   4.6707

     the Fermi energy is     2.3951 ev

!    total energy              =   -2276.01356163 Ry
     estimated scf accuracy    <       0.00000331 Ry
     smearing contrib. (-TS)   =      -0.08141809 Ry
     internal energy E=F+TS    =   -2275.93214354 Ry

     The total energy is F=E-TS. E is the sum of the following terms:
     one-electron contribution =  -20539.76889906 Ry
     hartree contribution      =   10272.05626384 Ry
     xc contribution           =    -417.10574758 Ry
     ewald contribution        =    8408.88623612 Ry
     electric field correction =       0.00000313 Ry

     convergence has been achieved in  15 iterations

     negative rho (up, down):  6.135E-03 0.000E+00

     Forces acting on atoms (cartesian axes, Ry/au):

     atom    1 type  1   force =     0.00000079    0.00150520    0.01880463
     atom    2 type  1   force =    -0.00000058    0.00149808    0.01884203
     atom    3 type  2   force =    -0.00001102   -0.00250862    0.01499707
     atom    4 type  2   force =     0.00001091   -0.00250732    0.01499790
     atom    5 type  1   force =    -0.00000020    0.00203909   -0.01598978
     atom    6 type  1   force =     0.00000013    0.00201669   -0.01601960
     atom    7 type  2   force =    -0.00003002   -0.00159811   -0.01775930
     atom    8 type  2   force =     0.00003019   -0.00159869   -0.01775992
     atom    9 type  1   force =    -0.00000033    0.00067517   -0.00064130
     atom   10 type  1   force =     0.00000006    0.00068168   -0.00065536
     atom   11 type  2   force =     0.00001106   -0.00010115    0.00059149
     atom   12 type  2   force =    -0.00001100   -0.00010202    0.00059215

     Total force =     0.048317     Total SCF correction =     0.012931
     SCF correction compared to forces is large: reduce conv_thr to get better values

     Writing output data file ./Tc2Ru2/Tc2Ru2_beef.save/

     General routines

     Parallel routines

   This run was terminated on:   8:44:51  25Jun2022

   JOB DONE.