     Program PWSCF v.6.6 starts on 25Jun2022 at  5:25: 7

     R & G space division:  proc/nbgrp/npool/nimage =      37
     Fft bands division:     nmany     =       1
     Reading input from Tc2Re2.in
Warning: card &CELL ignored
Warning: card / ignored

     Current dimensions of program PWSCF are:
     Max number of different atomic species (ntypx) = 10
     Max number of k-points (npk) =  40000
     Max angular momentum in pseudopotentials (lmaxx) =  3
     Presently stress not available with electric field and gates

     Message from routine cell_base_init:
     DEPRECATED: use true lattice parameter, not A to a.u. conversion factor
     file Tc.pbe-spn-rrkjus_psl.0.3.0.UPF: wavefunction(s)  4S 4P renormalized

     IMPORTANT: XC functional enforced from input :
     Exchange-correlation= BEEF-VDW
                           (   1   4  43  14   2   0   0)
     Any further DFT definition will be discarded
     Please, verify this is what you really want

     Subspace diagonalization in iterative solution of the eigenvalue problem:
     a serial algorithm will be used

     Found symmetry operation: I + ( -0.5000  0.0000  0.0000)
     This is a supercell, fractional translations are disabled

     bravais-lattice index     =            0
     lattice parameter (alat)  =       1.8897  a.u.
     unit-cell volume          =    4344.1390 (a.u.)^3
     number of atoms/cell      =           12
     number of atomic types    =            2
     number of electrons       =       180.00
     number of Kohn-Sham states=          108
     kinetic-energy cutoff     =      55.1240  Ry
     charge density cutoff     =     551.2396  Ry
     convergence threshold     =      1.0E-05
     mixing beta               =       0.1000
     number of iterations used =           10  plain     mixing
     Exchange-correlation= BEEF-VDW
                           (   1   4  43  14   2   0   0)

     celldm(1)=   1.889726  celldm(2)=   0.000000  celldm(3)=   0.000000
     celldm(4)=   0.000000  celldm(5)=   0.000000  celldm(6)=   0.000000

     crystal axes: (cart. coord. in units of alat)
               a(1) = (   5.508407   0.000000   0.000000 )
               a(2) = (  -2.754204   4.770431   0.000000 )
               a(3) = (   0.000000   0.000000  24.497601 )

     reciprocal axes: (cart. coord. in units 2 pi/alat)
               b(1) = (  0.181541  0.104812 -0.000000 )
               b(2) = (  0.000000  0.209625  0.000000 )
               b(3) = (  0.000000 -0.000000  0.040820 )

     PseudoPot. # 1 for Tc read from file:
     ../pseudo/Tc.pbe-spn-rrkjus_psl.0.3.0.UPF
     MD5 check sum: 5f147c0bf103030af994b79b1f5562e4
     Pseudo is Ultrasoft + core correction, Zval = 15.0
     Generated using "atomic" code by A. Dal Corso v.6.2.2
     Using radial grid of 1231 points,  6 beta functions with:
                l(1) =   0
                l(2) =   0
                l(3) =   1
                l(4) =   1
                l(5) =   2
                l(6) =   2
     Q(r) pseudized with 0 coefficients

     PseudoPot. # 2 for Re read from file:
     ../pseudo/Re.pbe-spn-rrkjus_psl.1.0.0.UPF
     MD5 check sum: 1282f1ec51ad523723a04c61ae80a9e6
     Pseudo is Ultrasoft + core correction, Zval = 15.0
     Generated using "atomic" code by A. Dal Corso v.6.2.2
     Using radial grid of 1275 points,  6 beta functions with:
                l(1) =   0
                l(2) =   0
                l(3) =   1
                l(4) =   1
                l(5) =   2
                l(6) =   2
     Q(r) pseudized with 0 coefficients

     atomic species   valence    mass     pseudopotential
        Tc            15.00    97.90721     Tc( 1.00)
        Re            15.00   186.20700     Re( 1.00)

     No symmetry found

   Cartesian axes

     site n.     atom                  positions (alat units)
         1           Tc  tau(   1) = (   0.0000000   0.0000000  10.0000000  )
         2           Tc  tau(   2) = (   2.7542037   0.0000000  10.0000000  )
         3           Re  tau(   3) = (   1.3771019   2.3852156  10.0000000  )
         4           Re  tau(   4) = (  -1.3771019   2.3852156  10.0000000  )
         5           Tc  tau(   5) = (   2.7542037   1.5901368  12.2488004  )
         6           Tc  tau(   6) = (   0.0000000   1.5901368  12.2488004  )
         7           Re  tau(   7) = (  -1.3771019   3.9753524  12.2488004  )
         8           Re  tau(   8) = (   1.3771019   3.9753524  12.2488004  )
         9           Tc  tau(   9) = (   0.0000017   3.1837177  14.4102972  )
        10           Tc  tau(  10) = (   2.7542018   3.1836987  14.4102929  )
        11           Re  tau(  11) = (   4.1312998   0.7892798  14.3691123  )
        12           Re  tau(  12) = (   1.3771055   0.7892794  14.3691158  )

     number of k points=    74  Fermi-Dirac smearing, width (Ry)=  0.0100
                       cart. coord. in units 2pi/alat
        k(    1) = (   0.0000000   0.0000000   0.0000000), wk =   0.0138889
        k(    2) = (   0.0000000   0.0174687   0.0000000), wk =   0.0277778
        k(    3) = (   0.0000000   0.0349374   0.0000000), wk =   0.0277778
        k(    4) = (   0.0000000   0.0524062   0.0000000), wk =   0.0277778
        k(    5) = (   0.0000000   0.0698749   0.0000000), wk =   0.0277778
        k(    6) = (   0.0000000   0.0873436   0.0000000), wk =   0.0277778
        k(    7) = (   0.0000000  -0.1048123   0.0000000), wk =   0.0138889
        k(    8) = (   0.0151284   0.0087344   0.0000000), wk =   0.0277778
        k(    9) = (   0.0151284   0.0262031   0.0000000), wk =   0.0277778
        k(   10) = (   0.0151284   0.0436718   0.0000000), wk =   0.0277778
        k(   11) = (   0.0151284   0.0611405   0.0000000), wk =   0.0277778
        k(   12) = (   0.0151284   0.0786093   0.0000000), wk =   0.0277778
        k(   13) = (   0.0151284   0.0960780   0.0000000), wk =   0.0277778
        k(   14) = (   0.0151284  -0.0960780   0.0000000), wk =   0.0277778
        k(   15) = (   0.0151284  -0.0786092   0.0000000), wk =   0.0277778
        k(   16) = (   0.0151284  -0.0611405   0.0000000), wk =   0.0277778
        k(   17) = (   0.0151284  -0.0436718   0.0000000), wk =   0.0277778
        k(   18) = (   0.0151284  -0.0262031   0.0000000), wk =   0.0277778
        k(   19) = (   0.0151284  -0.0087344   0.0000000), wk =   0.0277778
        k(   20) = (   0.0302568   0.0174687   0.0000000), wk =   0.0277778
        k(   21) = (   0.0302568   0.0349374   0.0000000), wk =   0.0277778
        k(   22) = (   0.0302568   0.0524062   0.0000000), wk =   0.0277778
        k(   23) = (   0.0302568   0.0698749   0.0000000), wk =   0.0277778
        k(   24) = (   0.0302568   0.0873436   0.0000000), wk =   0.0277778
        k(   25) = (   0.0302568   0.1048123   0.0000000), wk =   0.0277778
        k(   26) = (   0.0302568  -0.0873436   0.0000000), wk =   0.0277778
        k(   27) = (   0.0302568  -0.0698749   0.0000000), wk =   0.0277778
        k(   28) = (   0.0302568  -0.0524062   0.0000000), wk =   0.0277778
        k(   29) = (   0.0302568  -0.0349374   0.0000000), wk =   0.0277778
        k(   30) = (   0.0302568  -0.0174687   0.0000000), wk =   0.0277778
        k(   31) = (   0.0302568   0.0000000   0.0000000), wk =   0.0277778
        k(   32) = (   0.0453852   0.0262031   0.0000000), wk =   0.0277778
        k(   33) = (   0.0453852   0.0436718   0.0000000), wk =   0.0277778
        k(   34) = (   0.0453852   0.0611405   0.0000000), wk =   0.0277778
        k(   35) = (   0.0453852   0.0786093   0.0000000), wk =   0.0277778
        k(   36) = (   0.0453852   0.0960780   0.0000000), wk =   0.0277778
        k(   37) = (   0.0453852   0.1135467   0.0000000), wk =   0.0277778
        k(   38) = (   0.0453852  -0.0786092   0.0000000), wk =   0.0277778
        k(   39) = (   0.0453852  -0.0611405   0.0000000), wk =   0.0277778
        k(   40) = (   0.0453852  -0.0436718   0.0000000), wk =   0.0277778
        k(   41) = (   0.0453852  -0.0262031   0.0000000), wk =   0.0277778
        k(   42) = (   0.0453852  -0.0087344   0.0000000), wk =   0.0277778
        k(   43) = (   0.0453852   0.0087344   0.0000000), wk =   0.0277778
        k(   44) = (   0.0605136   0.0349375   0.0000000), wk =   0.0277778
        k(   45) = (   0.0605136   0.0524062   0.0000000), wk =   0.0277778
        k(   46) = (   0.0605136   0.0698749   0.0000000), wk =   0.0277778
        k(   47) = (   0.0605136   0.0873436   0.0000000), wk =   0.0277778
        k(   48) = (   0.0605136   0.1048123   0.0000000), wk =   0.0277778
        k(   49) = (   0.0605136   0.1222811   0.0000000), wk =   0.0277778
        k(   50) = (   0.0605136  -0.0698749   0.0000000), wk =   0.0277778
        k(   51) = (   0.0605136  -0.0524062   0.0000000), wk =   0.0277778
        k(   52) = (   0.0605136  -0.0349374   0.0000000), wk =   0.0277778
        k(   53) = (   0.0605136  -0.0174687   0.0000000), wk =   0.0277778
        k(   54) = (   0.0605136   0.0000000   0.0000000), wk =   0.0277778
        k(   55) = (   0.0605136   0.0174687   0.0000000), wk =   0.0277778
        k(   56) = (   0.0756420   0.0436718   0.0000000), wk =   0.0277778
        k(   57) = (   0.0756420   0.0611405   0.0000000), wk =   0.0277778
        k(   58) = (   0.0756420   0.0786093   0.0000000), wk =   0.0277778
        k(   59) = (   0.0756420   0.0960780   0.0000000), wk =   0.0277778
        k(   60) = (   0.0756420   0.1135467   0.0000000), wk =   0.0277778
        k(   61) = (   0.0756420   0.1310154   0.0000000), wk =   0.0277778
        k(   62) = (   0.0756420  -0.0611405   0.0000000), wk =   0.0277778
        k(   63) = (   0.0756420  -0.0436718   0.0000000), wk =   0.0277778
        k(   64) = (   0.0756420  -0.0262031   0.0000000), wk =   0.0277778
        k(   65) = (   0.0756420  -0.0087344   0.0000000), wk =   0.0277778
        k(   66) = (   0.0756420   0.0087344   0.0000000), wk =   0.0277778
        k(   67) = (   0.0756420   0.0262031   0.0000000), wk =   0.0277778
        k(   68) = (  -0.0907703  -0.0524062   0.0000000), wk =   0.0138889
        k(   69) = (  -0.0907703  -0.0349375   0.0000000), wk =   0.0277778
        k(   70) = (  -0.0907703  -0.0174687   0.0000000), wk =   0.0277778
        k(   71) = (  -0.0907703  -0.0000000   0.0000000), wk =   0.0277778
        k(   72) = (  -0.0907703   0.0174687   0.0000000), wk =   0.0277778
        k(   73) = (  -0.0907703   0.0349374   0.0000000), wk =   0.0277778
        k(   74) = (  -0.0907703  -0.1572185   0.0000000), wk =   0.0138889

     Initial potential from superposition of free atoms

     starting charge  179.99441, renormalised to  180.00000

     negative rho (up, down):  6.228E-03 0.000E+00

     %%%%%%%%%%%%%%%%%%%%%%%%%%%%%%%%%%%%%%%%%%%%%%%%%%%%%%%%%%%%%%%%%%%%%%%%
     %                                                                      %
     % You are using vdW-DF, which was implemented by the Thonhauser group. %
     % Please cite the following two papers that made this development      %
     % possible and the two reviews that describe the various versions:     %
     %                                                                      %
     %   T. Thonhauser et al., PRL 115, 136402 (2015).                      %
     %   T. Thonhauser et al., PRB 76, 125112 (2007).                       %
     %   K. Berland et al., Rep. Prog. Phys. 78, 066501 (2015).             %
     %   D.C. Langreth et al., J. Phys.: Condens. Matter 21, 084203 (2009). %
     %                                                                      %
     %                                                                      %
     % If you are calculating the stress with vdW-DF, please also cite:     %
     %                                                                      %
     %   R. Sabatini et al., J. Phys.: Condens. Matter 24, 424209 (2012).   %
     %                                                                      %
     %%%%%%%%%%%%%%%%%%%%%%%%%%%%%%%%%%%%%%%%%%%%%%%%%%%%%%%%%%%%%%%%%%%%%%%%

     Adding external electric field

     Computed dipole along edir(3) :
        Dipole                0.0000 Ry au,          0.0001 Debye
        Dipole field          0.0000 Ry au,

        Potential amp.       -0.0000 Ry
        Total length         45.1364 bohr

     Starting wfcs are  138 randomized atomic wfcs

     Self-consistent Calculation

     iteration #  1     ecut=    55.12 Ry     beta= 0.10
     Davidson diagonalization with overlap
     ethr =  1.00E-02,  avg # of iterations =  2.0

[...]

     total energy              =   -2163.01206589 Ry
     estimated scf accuracy    <       5.91651313 Ry

[...]

     total energy              =   -2163.49146010 Ry
     estimated scf accuracy    <       0.00002140 Ry

     iteration # 15     ecut=    55.12 Ry     beta= 0.10
     Davidson diagonalization with overlap
     ethr =  1.19E-08,  avg # of iterations =  2.3

[...]

     Adding external electric field

     Computed dipole along edir(3) :
        Dipole                0.0399 Ry au,          0.1015 Debye
        Dipole field          0.0001 Ry au,

        Potential amp.       -0.0104 Ry
        Total length         45.1364 bohr

     End of self-consistent calculation

          k = 0.0000 0.0000 0.0000 ( 30133 PWs)   bands (ev):

   -77.9954 -77.9582 -77.8478 -77.8115 -77.7429 -77.7062 -64.5809 -64.5164
   -64.3913 -64.3282 -64.3254 -64.2620 -40.0613 -39.9799 -39.8898 -39.7921
   -39.7866 -39.7272 -39.7038 -39.6365 -39.5743 -39.5678 -39.5296 -39.4792
   -39.4382 -39.4177 -39.3474 -39.2773 -39.1714 -39.0970 -36.6938 -36.5712
   -36.5318 -36.4726 -36.4207 -36.4203 -36.3938 -36.3184 -36.2566 -36.1916
   -36.1607 -36.1589 -36.1329 -36.1275 -36.0647 -36.0251 -35.9084 -35.8601
    -5.4327  -3.6662  -3.5096  -3.2700  -3.2414  -3.1181  -2.9925  -2.6659
    -2.5821  -2.3968  -2.3903  -2.3684  -2.0763  -1.9445  -1.9071  -0.7308
    -0.6694  -0.6044   0.3658   0.3740   0.3752   0.4287   0.6989   0.7083
     0.7961   1.0456   1.0599   1.0649   1.1055   1.1267   1.4854   1.4881
     1.4910   1.5836   1.6203   2.0914   2.8456   2.9458   2.9682   2.9860
     3.0824   3.1384   3.4194   3.4408   3.4943   3.9925   4.0885   4.4529
     4.5684   4.5895   4.6577   4.7404   4.8671   4.8721   5.1915   5.3359
     5.3783   5.3848   5.4639   5.8164

[...]

          k = 0.0756 0.0262 0.0000 ( 30029 PWs)   bands (ev):

[...]

          k =-0.0908-0.0524 0.0000 ( 30002 PWs)   bands (ev):

[...]

          k =-0.0908-0.1572 0.0000 ( 30002 PWs)   bands (ev):

   -77.9768 -77.9768 -77.8297 -77.8297 -77.7245 -77.7245 -64.5490 -64.5489
   -64.3600 -64.3599 -64.2940 -64.2939 -39.9194 -39.9194 -39.7462 -39.7462
   -39.7247 -39.7247 -39.6081 -39.6081 -39.5170 -39.5170 -39.4790 -39.4790
   -39.4729 -39.4729 -39.4127 -39.4127 -39.3089 -39.3089 -36.5718 -36.5717
   -36.4395 -36.4394 -36.4129 -36.4129 -36.2782 -36.2781 -36.2164 -36.2163
   -36.1860 -36.1859 -36.1669 -36.1668 -36.1469 -36.1469 -36.0515 -36.0515
    -3.6018  -3.6018  -2.3569  -2.3569  -2.0707  -2.0706  -1.9688  -1.9688
    -1.6804  -1.6804  -1.3462  -1.3462  -1.0262  -1.0261  -0.9066  -0.9066
    -0.4692  -0.4692  -0.4064  -0.4064  -0.0174  -0.0173   0.5232   0.5232
     0.7556   0.7556   0.8408   0.8408   0.9871   0.9871   1.0471   1.0471
     1.2522   1.2522   1.3754   1.3754   1.4641   1.4641   1.5325   1.5326
     2.4084   2.4084   2.5212   2.5212   2.7668   2.7668   3.1014   3.1014
     3.3754   3.3755   3.5196   3.5196   3.5579   3.5579   3.9491   3.9492
     4.2115   4.2115   4.7885   4.7886

     the Fermi energy is     2.6014 ev

!    total energy              =   -2163.49148361 Ry
     estimated scf accuracy    <       0.00000208 Ry
     smearing contrib. (-TS)   =      -0.06462454 Ry
     internal energy E=F+TS    =   -2163.42685906 Ry

     The total energy is F=E-TS. E is the sum of the following terms:
     one-electron contribution =  -18594.09490200 Ry
     hartree contribution      =    9290.29798057 Ry
     xc contribution           =    -482.70820717 Ry
     ewald contribution        =    7623.07826492 Ry
     electric field correction =       0.00000462 Ry

     convergence has been achieved in  15 iterations

     negative rho (up, down):  6.231E-03 0.000E+00

     Forces acting on atoms (cartesian axes, Ry/au):

     atom    1 type  1   force =    -0.00000113   -0.00181904    0.00959910
     atom    2 type  1   force =     0.00000079   -0.00182004    0.00958899
     atom    3 type  2   force =    -0.00000076    0.00239743    0.02746848
     atom    4 type  2   force =     0.00000044    0.00239334    0.02746481
     atom    5 type  1   force =    -0.00000062    0.00186996   -0.02111147
     atom    6 type  1   force =     0.00000082    0.00187763   -0.02110521
     atom    7 type  2   force =     0.00001013   -0.00238940   -0.01760175
     atom    8 type  2   force =    -0.00001024   -0.00239060   -0.01760084
     atom    9 type  1   force =    -0.00000008   -0.00096270    0.00132256
     atom   10 type  1   force =     0.00000020   -0.00095424    0.00133014
     atom   11 type  2   force =     0.00000306    0.00089826    0.00032354
     atom   12 type  2   force =    -0.00000263    0.00089939    0.00032164

     Total force =     0.056986     Total SCF correction =     0.008352
     SCF correction compared to forces is large: reduce conv_thr to get better values

     Writing output data file ./Tc2Re2/Tc2Re2_beef.save/

     General routines

     Parallel routines

   This run was terminated on:   6:29:56  25Jun2022

   JOB DONE.