     Program PWSCF v.6.6 starts on 27Jun2022 at  2:37: 9

     R & G space division:  proc/nbgrp/npool/nimage =      37
     Fft bands division:     nmany     =       1
     Reading input from Tc2Ta2.in
Warning: card &CELL ignored
Warning: card / ignored

     Current dimensions of program PWSCF are:
     Max number of different atomic species (ntypx) = 10
     Max number of k-points (npk) =  40000
     Max angular momentum in pseudopotentials (lmaxx) =  3
     Presently stress not available with electric field and gates

     Message from routine cell_base_init:
     DEPRECATED: use true lattice parameter, not A to a.u. conversion factor
     file Tc.pbe-spn-rrkjus_psl.0.3.0.UPF: wavefunction(s)  4S 4P renormalized
     file Ta.pbe-spfn-rrkjus_psl.1.0.0.UPF: wavefunction(s)  5S 5P renormalized

     IMPORTANT: XC functional enforced from input :
     Exchange-correlation= BEEF-VDW
                           (   1   4  43  14   2   0   0)
     Any further DFT definition will be discarded
     Please, verify this is what you really want

     Subspace diagonalization in iterative solution of the eigenvalue problem:
     a serial algorithm will be used

     Found symmetry operation: I + ( -0.5000 -0.5000  0.0000)
     This is a supercell, fractional translations are disabled

     bravais-lattice index     =            0
     lattice parameter (alat)  =       1.8897  a.u.
     unit-cell volume          =    4734.1226 (a.u.)^3
     number of atoms/cell      =           12
     number of atomic types    =            2
     number of electrons       =       252.00
     number of Kohn-Sham states=          151
     kinetic-energy cutoff     =      55.1240  Ry
     charge density cutoff     =     551.2396  Ry
     convergence threshold     =      1.0E-05
     mixing beta               =       0.1000
     number of iterations used =           10  plain     mixing
     Exchange-correlation= BEEF-VDW
                           (   1   4  43  14   2   0   0)

     celldm(1)=   1.889726  celldm(2)=   0.000000  celldm(3)=   0.000000
     celldm(4)=   0.000000  celldm(5)=   0.000000  celldm(6)=   0.000000

     crystal axes: (cart. coord. in units of alat)
               a(1) = (   5.506925   0.000000   0.000000 )
               a(2) = (   1.806082   5.202335   0.000000 )
               a(3) = (   0.000000   0.000000  24.486996 )

     reciprocal axes: (cart. coord. in units 2 pi/alat)
               b(1) = (  0.181590 -0.063042  0.000000 )
               b(2) = (  0.000000  0.192221  0.000000 )
               b(3) = (  0.000000  0.000000  0.040838 )

     PseudoPot. # 1 for Tc read from file:
     ../pseudo/Tc.pbe-spn-rrkjus_psl.0.3.0.UPF
     MD5 check sum: 5f147c0bf103030af994b79b1f5562e4
     Pseudo is Ultrasoft + core correction, Zval = 15.0
     Generated using "atomic" code by A. Dal Corso v.6.2.2
     Using radial grid of 1231 points,  6 beta functions with:
                l(1) =   0
                l(2) =   0
                l(3) =   1
                l(4) =   1
                l(5) =   2
                l(6) =   2
     Q(r) pseudized with 0 coefficients

     PseudoPot. # 2 for Ta read from file:
     ../pseudo/Ta.pbe-spfn-rrkjus_psl.1.0.0.UPF
     MD5 check sum: 39d7d349fe394e56adf8454eb9315fbb
     Pseudo is Ultrasoft + core correction, Zval = 27.0
     Generated using "atomic" code by A. Dal Corso v.6.3
     Using radial grid of 1273 points,  8 beta functions with:
                l(1) =   0
                l(2) =   0
                l(3) =   1
                l(4) =   1
                l(5) =   2
                l(6) =   2
                l(7) =   3
                l(8) =   3
     Q(r) pseudized with 0 coefficients

     atomic species   valence    mass     pseudopotential
        Tc            15.00    97.90721     Tc( 1.00)
        Ta            27.00   180.94788     Ta( 1.00)

     No symmetry found

   Cartesian axes

     site n.     atom                  positions (alat units)
         1           Tc  tau(   1) = (   0.0000000   0.0000000  10.0000000  )
         2           Tc  tau(   2) = (   3.6565039   2.6011677  10.0000000  )
         3           Ta  tau(   3) = (   2.7534627   0.0000000  10.0000000  )
         4           Ta  tau(   4) = (   0.9030412   2.6011677  10.0000000  )
         5           Tc  tau(   5) = (   5.5069255   3.9175227  12.2434980  )
         6           Tc  tau(   6) = (   1.8504216   1.3163549  12.2434980  )
         7           Ta  tau(   7) = (   2.7534627   3.9175227  12.2434980  )
         8           Ta  tau(   8) = (   4.6038843   1.3163549  12.2434980  )
         9           Tc  tau(   9) = (   3.6864631   2.6224806  14.3873620  )
        10           Tc  tau(  10) = (   0.0299601   0.0213137  14.3873665  )
        11           Ta  tau(  11) = (   0.9309393   2.6210142  14.4593597  )
        12           Ta  tau(  12) = (   2.7813600   0.0198461  14.4593604  )

     number of k points=    74  Fermi-Dirac smearing, width (Ry)=  0.0100
                       cart. coord. in units 2pi/alat
        k(    1) = (   0.0000000   0.0000000   0.0000000), wk =   0.0138889
        k(    2) = (   0.0000000   0.0160184   0.0000000), wk =   0.0277778
        k(    3) = (   0.0000000   0.0320369   0.0000000), wk =   0.0277778
        k(    4) = (   0.0000000   0.0480553   0.0000000), wk =   0.0277778
        k(    5) = (   0.0000000   0.0640738   0.0000000), wk =   0.0277778
        k(    6) = (   0.0000000   0.0800922   0.0000000), wk =   0.0277778
        k(    7) = (   0.0000000  -0.0961107   0.0000000), wk =   0.0138889
        k(    8) = (   0.0151325  -0.0052535   0.0000000), wk =   0.0277778
        k(    9) = (   0.0151325   0.0107649   0.0000000), wk =   0.0277778
        k(   10) = (   0.0151325   0.0267834   0.0000000), wk =   0.0277778
        k(   11) = (   0.0151325   0.0428018   0.0000000), wk =   0.0277778
        k(   12) = (   0.0151325   0.0588203   0.0000000), wk =   0.0277778
        k(   13) = (   0.0151325   0.0748387   0.0000000), wk =   0.0277778
        k(   14) = (   0.0151325  -0.1013642   0.0000000), wk =   0.0277778
        k(   15) = (   0.0151325  -0.0853457   0.0000000), wk =   0.0277778
        k(   16) = (   0.0151325  -0.0693273   0.0000000), wk =   0.0277778
        k(   17) = (   0.0151325  -0.0533088   0.0000000), wk =   0.0277778
        k(   18) = (   0.0151325  -0.0372904   0.0000000), wk =   0.0277778
        k(   19) = (   0.0151325  -0.0212719   0.0000000), wk =   0.0277778
        k(   20) = (   0.0302649  -0.0105070   0.0000000), wk =   0.0277778
        k(   21) = (   0.0302649   0.0055114   0.0000000), wk =   0.0277778
        k(   22) = (   0.0302649   0.0215299   0.0000000), wk =   0.0277778
        k(   23) = (   0.0302649   0.0375483   0.0000000), wk =   0.0277778
        k(   24) = (   0.0302649   0.0535668   0.0000000), wk =   0.0277778
        k(   25) = (   0.0302649   0.0695852   0.0000000), wk =   0.0277778
        k(   26) = (   0.0302649  -0.1066177   0.0000000), wk =   0.0277778
        k(   27) = (   0.0302649  -0.0905992   0.0000000), wk =   0.0277778
        k(   28) = (   0.0302649  -0.0745808   0.0000000), wk =   0.0277778
        k(   29) = (   0.0302649  -0.0585623   0.0000000), wk =   0.0277778
        k(   30) = (   0.0302649  -0.0425439   0.0000000), wk =   0.0277778
        k(   31) = (   0.0302649  -0.0265254   0.0000000), wk =   0.0277778
        k(   32) = (   0.0453974  -0.0157605   0.0000000), wk =   0.0277778
        k(   33) = (   0.0453974   0.0002579   0.0000000), wk =   0.0277778
        k(   34) = (   0.0453974   0.0162764   0.0000000), wk =   0.0277778
        k(   35) = (   0.0453974   0.0322948   0.0000000), wk =   0.0277778
        k(   36) = (   0.0453974   0.0483133   0.0000000), wk =   0.0277778
        k(   37) = (   0.0453974   0.0643317   0.0000000), wk =   0.0277778
        k(   38) = (   0.0453974  -0.1118712   0.0000000), wk =   0.0277778
        k(   39) = (   0.0453974  -0.0958527   0.0000000), wk =   0.0277778
        k(   40) = (   0.0453974  -0.0798343   0.0000000), wk =   0.0277778
        k(   41) = (   0.0453974  -0.0638158   0.0000000), wk =   0.0277778
        k(   42) = (   0.0453974  -0.0477974   0.0000000), wk =   0.0277778
        k(   43) = (   0.0453974  -0.0317789   0.0000000), wk =   0.0277778
        k(   44) = (   0.0605298  -0.0210140   0.0000000), wk =   0.0277778
        k(   45) = (   0.0605298  -0.0049956   0.0000000), wk =   0.0277778
        k(   46) = (   0.0605298   0.0110229   0.0000000), wk =   0.0277778
        k(   47) = (   0.0605298   0.0270413   0.0000000), wk =   0.0277778
        k(   48) = (   0.0605298   0.0430598   0.0000000), wk =   0.0277778
        k(   49) = (   0.0605298   0.0590782   0.0000000), wk =   0.0277778
        k(   50) = (   0.0605298  -0.1171247   0.0000000), wk =   0.0277778
        k(   51) = (   0.0605298  -0.1011062   0.0000000), wk =   0.0277778
        k(   52) = (   0.0605298  -0.0850878   0.0000000), wk =   0.0277778
        k(   53) = (   0.0605298  -0.0690693   0.0000000), wk =   0.0277778
        k(   54) = (   0.0605298  -0.0530509   0.0000000), wk =   0.0277778
        k(   55) = (   0.0605298  -0.0370324   0.0000000), wk =   0.0277778
        k(   56) = (   0.0756623  -0.0262675   0.0000000), wk =   0.0277778
        k(   57) = (   0.0756623  -0.0102491   0.0000000), wk =   0.0277778
        k(   58) = (   0.0756623   0.0057694   0.0000000), wk =   0.0277778
        k(   59) = (   0.0756623   0.0217878   0.0000000), wk =   0.0277778
        k(   60) = (   0.0756623   0.0378063   0.0000000), wk =   0.0277778
        k(   61) = (   0.0756623   0.0538247   0.0000000), wk =   0.0277778
        k(   62) = (   0.0756623  -0.1223782   0.0000000), wk =   0.0277778
        k(   63) = (   0.0756623  -0.1063597   0.0000000), wk =   0.0277778
        k(   64) = (   0.0756623  -0.0903413   0.0000000), wk =   0.0277778
        k(   65) = (   0.0756623  -0.0743228   0.0000000), wk =   0.0277778
        k(   66) = (   0.0756623  -0.0583044   0.0000000), wk =   0.0277778
        k(   67) = (   0.0756623  -0.0422859   0.0000000), wk =   0.0277778
        k(   68) = (  -0.0907948   0.0315210   0.0000000), wk =   0.0138889
        k(   69) = (  -0.0907948   0.0475394   0.0000000), wk =   0.0277778
        k(   70) = (  -0.0907948   0.0635579   0.0000000), wk =   0.0277778
        k(   71) = (  -0.0907948   0.0795763   0.0000000), wk =   0.0277778
        k(   72) = (  -0.0907948   0.0955948   0.0000000), wk =   0.0277778
        k(   73) = (  -0.0907948   0.1116132   0.0000000), wk =   0.0277778
        k(   74) = (  -0.0907948  -0.0645897   0.0000000), wk =   0.0138889

     Initial potential from superposition of free atoms

     starting charge  251.99115, renormalised to  252.00000

     negative rho (up, down):  6.120E-03 0.000E+00

     %%%%%%%%%%%%%%%%%%%%%%%%%%%%%%%%%%%%%%%%%%%%%%%%%%%%%%%%%%%%%%%%%%%%%%%%
     %                                                                      %
     % You are using vdW-DF, which was implemented by the Thonhauser group. %
     % Please cite the following two papers that made this development      %
     % possible and the two reviews that describe the various versions:     %
     %                                                                      %
     %   T. Thonhauser et al., PRL 115, 136402 (2015).                      %
     %   T. Thonhauser et al., PRB 76, 125112 (2007).                       %
     %   K. Berland et al., Rep. Prog. Phys. 78, 066501 (2015).             %
     %   D.C. Langreth et al., J. Phys.: Condens. Matter 21, 084203 (2009). %
     %                                                                      %
     %                                                                      %
     % If you are calculating the stress with vdW-DF, please also cite:     %
     %                                                                      %
     %   R. Sabatini et al., J. Phys.: Condens. Matter 24, 424209 (2012).   %
     %                                                                      %
     %%%%%%%%%%%%%%%%%%%%%%%%%%%%%%%%%%%%%%%%%%%%%%%%%%%%%%%%%%%%%%%%%%%%%%%%

     Adding external electric field

     Computed dipole along edir(3) :
        Dipole               -0.0000 Ry au,         -0.0001 Debye
        Dipole field         -0.0000 Ry au,

        Potential amp.        0.0000 Ry
        Total length         45.1169 bohr

     Starting wfcs are  180 randomized atomic wfcs

     Self-consistent Calculation

     iteration #  1     ecut=    55.12 Ry     beta= 0.10
     Davidson diagonalization with overlap
     ethr =  1.00E-02,  avg # of iterations =  2.0

[...]

     total energy              =   -5179.44046816 Ry
     estimated scf accuracy    <       8.39814188 Ry

[...]

     iteration #  7     ecut=    55.12 Ry     beta= 0.10
     Davidson diagonalization with overlap
     c_bands:  1 eigenvalues not converged
     c_bands:  1 eigenvalues not converged
     ethr =  2.13E-05,  avg # of iterations =  7.9

[...]

     iteration #  9     ecut=    55.12 Ry     beta= 0.10
     Davidson diagonalization with overlap
     c_bands:  1 eigenvalues not converged
     c_bands:  1 eigenvalues not converged
     ethr =  2.28E-06,  avg # of iterations =  8.5

[...]

     total energy              =   -5179.92573004 Ry
     estimated scf accuracy    <       0.00002712 Ry

     iteration # 15     ecut=    55.12 Ry     beta= 0.10
     Davidson diagonalization with overlap
     ethr =  1.08E-08,  avg # of iterations =  2.0

[...]

     Adding external electric field

     Computed dipole along edir(3) :
        Dipole                0.0230 Ry au,          0.0585 Debye
        Dipole field          0.0001 Ry au,

        Potential amp.       -0.0055 Ry
        Total length         45.1169 bohr

     End of self-consistent calculation

          k = 0.0000 0.0000 0.0000 ( 32703 PWs)   bands (ev):

   -65.9862 -65.9748 -65.9719 -65.9604 -65.7775 -65.7618 -64.2695 -64.2644
   -63.8220 -63.8151 -63.8016 -63.7953 -36.3484 -36.2576 -36.2380 -36.2016
   -36.1883 -36.1600 -35.8558 -35.8276 -35.8114 -35.7927 -35.7825 -35.7796
   -35.7539 -35.7538 -35.7519 -35.7347 -35.6608 -35.6546 -32.3802 -32.3579
   -32.3514 -32.3474 -32.2309 -32.1988 -32.1662 -32.1449 -32.1285 -32.1150
   -32.1141 -32.0384 -32.0121 -32.0058 -31.9949 -31.9791 -31.9545 -31.9190
   -17.6842 -17.6808 -17.6777 -17.6774 -17.6719 -17.6719 -17.6690 -17.6671
   -17.6668 -17.6624 -17.6574 -17.6486 -17.6478 -17.6407 -17.6363 -17.6362
   -17.6336 -17.6277 -17.6233 -17.6206 -17.5954 -17.5950 -17.5854 -17.5853
   -17.5817 -17.5814 -17.5717 -17.5716 -17.4162 -17.4123 -17.4046 -17.4021
   -17.4018 -17.4015 -17.3968 -17.3966 -17.3919 -17.3888 -17.3800 -17.3748
   -17.3700 -17.3700  -4.5181  -2.7341  -2.4448  -2.2750  -2.1074  -2.0644
    -1.8621  -1.7762  -1.6703  -1.6471  -1.0240  -0.9792  -0.6046  -0.2372
    -0.2135  -0.1101  -0.0359   0.0928   0.1629   0.2467   0.3452   0.3776
     0.7340   1.3437   1.3895   1.5108   1.6144   1.8186   2.0831   2.3015
     2.4243   2.6156   2.8240   3.2451   3.4791   3.6637   3.8282   4.0733
     4.0932   4.3199   4.4610   4.5451   4.5862   4.5998   4.6709   4.7350
     4.8459   4.9957   5.0095   5.0277   5.0284   5.0411   5.1049   5.2512
     5.4457   5.7332   5.7610   5.9822   6.2252   6.3094   6.4379

[...]

          k = 0.0757-0.0423 0.0000 ( 32725 PWs)   bands (ev):

[...]

          k =-0.0908 0.0315 0.0000 ( 32724 PWs)   bands (ev):

[...]

          k =-0.0908-0.0646 0.0000 ( 32722 PWs)   bands (ev):

   -65.9839 -65.9725 -65.9722 -65.9607 -65.7755 -65.7615 -64.2732 -64.2647
   -63.8246 -63.8151 -63.8042 -63.7953 -36.3146 -36.2076 -36.1989 -36.1914
   -36.1739 -36.1513 -35.8171 -35.7894 -35.7893 -35.7699 -35.7579 -35.7450
   -35.7424 -35.7389 -35.7335 -35.7283 -35.6535 -35.6458 -32.4280 -32.3800
   -32.3393 -32.3281 -32.2934 -32.2563 -32.2500 -32.2447 -32.1965 -32.1774
   -32.1730 -32.0919 -32.0416 -32.0281 -32.0107 -31.9637 -31.9436 -31.9339
   -17.6846 -17.6810 -17.6791 -17.6779 -17.6725 -17.6723 -17.6692 -17.6685
   -17.6673 -17.6626 -17.6579 -17.6485 -17.6480 -17.6408 -17.6370 -17.6361
   -17.6337 -17.6279 -17.6240 -17.6207 -17.5974 -17.5969 -17.5878 -17.5848
   -17.5837 -17.5834 -17.5741 -17.5712 -17.4175 -17.4145 -17.4044 -17.4043
   -17.4026 -17.4010 -17.3978 -17.3973 -17.3925 -17.3890 -17.3801 -17.3761
   -17.3703 -17.3701  -2.4334  -2.3953  -1.4365  -1.2408  -1.0801  -0.9531
    -0.8865  -0.8284  -0.7320  -0.1923  -0.1511  -0.0414   0.0863   0.2142
     0.2329   0.2686   0.3244   0.4633   0.4681   0.8472   1.0009   1.0831
     1.2304   1.2361   1.4744   1.4806   1.4947   1.6132   1.6606   1.7653
     1.9554   1.9829   2.0441   2.1073   2.1307   2.1928   2.2222   2.2471
     2.5381   2.6018   2.9255   3.1274   3.3806   3.4531   3.6280   3.8039
     3.9321   3.9433   4.0807   4.1688   4.3115   4.3304   4.5195   4.5578
     4.6555   4.8957   5.2275   5.3933   5.4213   5.4506   5.8884

     the Fermi energy is     2.7453 ev

!    total energy              =   -5179.92576082 Ry
     estimated scf accuracy    <       0.00000614 Ry
     smearing contrib. (-TS)   =      -0.04791759 Ry
     internal energy E=F+TS    =   -5179.87784323 Ry

     The total energy is F=E-TS. E is the sum of the following terms:
     one-electron contribution =  -35808.27387176 Ry
     hartree contribution      =   18007.57417452 Ry
     xc contribution           =    -651.04329026 Ry
     ewald contribution        =   13271.86514286 Ry
     electric field correction =       0.00000141 Ry

     convergence has been achieved in  15 iterations

     negative rho (up, down):  6.022E-03 0.000E+00

     Forces acting on atoms (cartesian axes, Ry/au):

     atom    1 type  1   force =     0.00180361    0.00128303    0.02792508
     atom    2 type  1   force =     0.00180415    0.00128252    0.02792301
     atom    3 type  2   force =     0.00299630    0.00213217   -0.00363105
     atom    4 type  2   force =     0.00299591    0.00213107   -0.00362969
     atom    5 type  1   force =    -0.00143382   -0.00102056   -0.01371015
     atom    6 type  1   force =    -0.00143407   -0.00102001   -0.01371066
     atom    7 type  2   force =    -0.00176849   -0.00125222   -0.01681770
     atom    8 type  2   force =    -0.00176275   -0.00125803   -0.01681924
     atom    9 type  1   force =    -0.00095863   -0.00068274   -0.00012466
     atom   10 type  1   force =    -0.00095854   -0.00068214   -0.00012450
     atom   11 type  2   force =    -0.00063966   -0.00045492    0.00635871
     atom   12 type  2   force =    -0.00064400   -0.00045816    0.00636087

     Total force =     0.051623     Total SCF correction =     0.031903
     SCF correction compared to forces is large: reduce conv_thr to get better values

     Writing output data file ./Tc2Ta2/Tc2Ta2_beef.save/

     General routines

     Parallel routines

   This run was terminated on:   7:26:39  27Jun2022

   JOB DONE.