     Program PWSCF v.6.6 starts on 25Jun2022 at  8:44:53

     R & G space division:  proc/nbgrp/npool/nimage =      37
     Fft bands division:     nmany     =       1
     Reading input from Tc2Y2.in
Warning: card &CELL ignored
Warning: card / ignored

     Current dimensions of program PWSCF are:
     Max number of different atomic species (ntypx) = 10
     Max number of k-points (npk) =  40000
     Max angular momentum in pseudopotentials (lmaxx) =  3
     Presently stress not available with electric field and gates

     Message from routine cell_base_init:
     DEPRECATED: use true lattice parameter, not A to a.u. conversion factor
     file Tc.pbe-spn-rrkjus_psl.0.3.0.UPF: wavefunction(s)  4S 4P renormalized
     file Y.pbe-spn-rrkjus_psl.1.0.0.UPF: wavefunction(s)  4S renormalized

     IMPORTANT: XC functional enforced from input :
     Exchange-correlation= BEEF-VDW
                           (   1   4  43  14   2   0   0)
     Any further DFT definition will be discarded
     Please, verify this is what you really want

     Subspace diagonalization in iterative solution of the eigenvalue problem:
     a serial algorithm will be used

     Found symmetry operation: I + ( -0.5000  0.5000  0.0000)
     This is a supercell, fractional translations are disabled

     bravais-lattice index     =            0
     lattice parameter (alat)  =       1.8897  a.u.
     unit-cell volume          =    5707.4508 (a.u.)^3
     number of atoms/cell      =           12
     number of atomic types    =            2
     number of electrons       =       156.00
     number of Kohn-Sham states=           94
     kinetic-energy cutoff     =      55.1240  Ry
     charge density cutoff     =     551.2396  Ry
     convergence threshold     =      1.0E-05
     mixing beta               =       0.1000
     number of iterations used =           10  plain     mixing
     Exchange-correlation= BEEF-VDW
                           (   1   4  43  14   2   0   0)

     celldm(1)=   1.889726  celldm(2)=   0.000000  celldm(3)=   0.000000
     celldm(4)=   0.000000  celldm(5)=   0.000000  celldm(6)=   0.000000

     crystal axes: (cart. coord. in units of alat)
               a(1) = (   5.992884   0.000000   0.000000 )
               a(2) = (   1.926930   5.674646   0.000000 )
               a(3) = (   0.000000   0.000000  24.869727 )

     reciprocal axes: (cart. coord. in units 2 pi/alat)
               b(1) = (  0.166865 -0.056662  0.000000 )
               b(2) = (  0.000000  0.176222  0.000000 )
               b(3) = (  0.000000  0.000000  0.040210 )

     PseudoPot. # 1 for Tc read from file:
     ../pseudo/Tc.pbe-spn-rrkjus_psl.0.3.0.UPF
     MD5 check sum: 5f147c0bf103030af994b79b1f5562e4
     Pseudo is Ultrasoft + core correction, Zval = 15.0
     Generated using "atomic" code by A. Dal Corso v.6.2.2
     Using radial grid of 1231 points,  6 beta functions with:
                l(1) =   0
                l(2) =   0
                l(3) =   1
                l(4) =   1
                l(5) =   2
                l(6) =   2
     Q(r) pseudized with 0 coefficients

     PseudoPot. # 2 for Y  read from file:
     ../pseudo/Y.pbe-spn-rrkjus_psl.1.0.0.UPF
     MD5 check sum: 5fe32e6a006803c2ec2edff47948a3c8
     Pseudo is Ultrasoft + core correction, Zval = 11.0
     Generated using "atomic" code by A. Dal Corso v.6.2.2
     Using radial grid of 1223 points,  6 beta functions with:
                l(1) =   0
                l(2) =   0
                l(3) =   1
                l(4) =   1
                l(5) =   2
                l(6) =   2
     Q(r) pseudized with 0 coefficients

     atomic species   valence    mass     pseudopotential
        Tc            15.00    97.90721     Tc( 1.00)
        Y             11.00    88.90584     Y ( 1.00)

     No symmetry found

   Cartesian axes

     site n.     atom                  positions (alat units)
         1           Tc  tau(   1) = (   0.0000000   0.0000000  10.0000000  )
         2           Tc  tau(   2) = (   3.9599070   2.8373228  10.0000000  )
         3           Y   tau(   3) = (   2.9964421   0.0000000  10.0000000  )
         4           Y   tau(   4) = (   0.9634649   2.8373228  10.0000000  )
         5           Tc  tau(   5) = (   5.9928843   4.2939765  12.4348637  )
         6           Tc  tau(   6) = (   2.0329773   1.4566536  12.4348637  )
         7           Y   tau(   7) = (   2.9964421   4.2939765  12.4348637  )
         8           Y   tau(   8) = (   5.0294194   1.4566536  12.4348637  )
         9           Tc  tau(   9) = (   4.0665738   2.9137621  14.6694338  )
        10           Tc  tau(  10) = (   0.1066676   0.0764241  14.6694652  )
        11           Y   tau(  11) = (   1.0415344   2.8932477  14.9035525  )
        12           Y   tau(  12) = (   3.0744946   0.0559382  14.9035451  )

     number of k points=    74  Fermi-Dirac smearing, width (Ry)=  0.0100
                       cart. coord. in units 2pi/alat
        k(    1) = (   0.0000000   0.0000000   0.0000000), wk =   0.0138889
        k(    2) = (   0.0000000   0.0146852   0.0000000), wk =   0.0277778
        k(    3) = (   0.0000000   0.0293704   0.0000000), wk =   0.0277778
        k(    4) = (   0.0000000   0.0440556   0.0000000), wk =   0.0277778
        k(    5) = (   0.0000000   0.0587408   0.0000000), wk =   0.0277778
        k(    6) = (   0.0000000   0.0734260   0.0000000), wk =   0.0277778
        k(    7) = (   0.0000000  -0.0881112   0.0000000), wk =   0.0138889
        k(    8) = (   0.0139054  -0.0047218   0.0000000), wk =   0.0277778
        k(    9) = (   0.0139054   0.0099634   0.0000000), wk =   0.0277778
        k(   10) = (   0.0139054   0.0246486   0.0000000), wk =   0.0277778
        k(   11) = (   0.0139054   0.0393338   0.0000000), wk =   0.0277778
        k(   12) = (   0.0139054   0.0540190   0.0000000), wk =   0.0277778
        k(   13) = (   0.0139054   0.0687042   0.0000000), wk =   0.0277778
        k(   14) = (   0.0139054  -0.0928330   0.0000000), wk =   0.0277778
        k(   15) = (   0.0139054  -0.0781478   0.0000000), wk =   0.0277778
        k(   16) = (   0.0139054  -0.0634626   0.0000000), wk =   0.0277778
        k(   17) = (   0.0139054  -0.0487774   0.0000000), wk =   0.0277778
        k(   18) = (   0.0139054  -0.0340922   0.0000000), wk =   0.0277778
        k(   19) = (   0.0139054  -0.0194070   0.0000000), wk =   0.0277778
        k(   20) = (   0.0278108  -0.0094437   0.0000000), wk =   0.0277778
        k(   21) = (   0.0278108   0.0052416   0.0000000), wk =   0.0277778
        k(   22) = (   0.0278108   0.0199268   0.0000000), wk =   0.0277778
        k(   23) = (   0.0278108   0.0346120   0.0000000), wk =   0.0277778
        k(   24) = (   0.0278108   0.0492972   0.0000000), wk =   0.0277778
        k(   25) = (   0.0278108   0.0639824   0.0000000), wk =   0.0277778
        k(   26) = (   0.0278108  -0.0975549   0.0000000), wk =   0.0277778
        k(   27) = (   0.0278108  -0.0828697   0.0000000), wk =   0.0277778
        k(   28) = (   0.0278108  -0.0681845   0.0000000), wk =   0.0277778
        k(   29) = (   0.0278108  -0.0534993   0.0000000), wk =   0.0277778
        k(   30) = (   0.0278108  -0.0388141   0.0000000), wk =   0.0277778
        k(   31) = (   0.0278108  -0.0241289   0.0000000), wk =   0.0277778
        k(   32) = (   0.0417161  -0.0141655   0.0000000), wk =   0.0277778
        k(   33) = (   0.0417161   0.0005197   0.0000000), wk =   0.0277778
        k(   34) = (   0.0417161   0.0152049   0.0000000), wk =   0.0277778
        k(   35) = (   0.0417161   0.0298901   0.0000000), wk =   0.0277778
        k(   36) = (   0.0417161   0.0445753   0.0000000), wk =   0.0277778
        k(   37) = (   0.0417161   0.0592605   0.0000000), wk =   0.0277778
        k(   38) = (   0.0417161  -0.1022767   0.0000000), wk =   0.0277778
        k(   39) = (   0.0417161  -0.0875915   0.0000000), wk =   0.0277778
        k(   40) = (   0.0417161  -0.0729063   0.0000000), wk =   0.0277778
        k(   41) = (   0.0417161  -0.0582211   0.0000000), wk =   0.0277778
        k(   42) = (   0.0417161  -0.0435359   0.0000000), wk =   0.0277778
        k(   43) = (   0.0417161  -0.0288507   0.0000000), wk =   0.0277778
        k(   44) = (   0.0556215  -0.0188873   0.0000000), wk =   0.0277778
        k(   45) = (   0.0556215  -0.0042021   0.0000000), wk =   0.0277778
        k(   46) = (   0.0556215   0.0104831   0.0000000), wk =   0.0277778
        k(   47) = (   0.0556215   0.0251683   0.0000000), wk =   0.0277778
        k(   48) = (   0.0556215   0.0398535   0.0000000), wk =   0.0277778
        k(   49) = (   0.0556215   0.0545387   0.0000000), wk =   0.0277778
        k(   50) = (   0.0556215  -0.1069985   0.0000000), wk =   0.0277778
        k(   51) = (   0.0556215  -0.0923133   0.0000000), wk =   0.0277778
        k(   52) = (   0.0556215  -0.0776281   0.0000000), wk =   0.0277778
        k(   53) = (   0.0556215  -0.0629429   0.0000000), wk =   0.0277778
        k(   54) = (   0.0556215  -0.0482577   0.0000000), wk =   0.0277778
        k(   55) = (   0.0556215  -0.0335725   0.0000000), wk =   0.0277778
        k(   56) = (   0.0695269  -0.0236091   0.0000000), wk =   0.0277778
        k(   57) = (   0.0695269  -0.0089239   0.0000000), wk =   0.0277778
        k(   58) = (   0.0695269   0.0057613   0.0000000), wk =   0.0277778
        k(   59) = (   0.0695269   0.0204465   0.0000000), wk =   0.0277778
        k(   60) = (   0.0695269   0.0351317   0.0000000), wk =   0.0277778
        k(   61) = (   0.0695269   0.0498169   0.0000000), wk =   0.0277778
        k(   62) = (   0.0695269  -0.1117204   0.0000000), wk =   0.0277778
        k(   63) = (   0.0695269  -0.0970352   0.0000000), wk =   0.0277778
        k(   64) = (   0.0695269  -0.0823499   0.0000000), wk =   0.0277778
        k(   65) = (   0.0695269  -0.0676647   0.0000000), wk =   0.0277778
        k(   66) = (   0.0695269  -0.0529795   0.0000000), wk =   0.0277778
        k(   67) = (   0.0695269  -0.0382943   0.0000000), wk =   0.0277778
        k(   68) = (  -0.0834323   0.0283310   0.0000000), wk =   0.0138889
        k(   69) = (  -0.0834323   0.0430162   0.0000000), wk =   0.0277778
        k(   70) = (  -0.0834323   0.0577014   0.0000000), wk =   0.0277778
        k(   71) = (  -0.0834323   0.0723866   0.0000000), wk =   0.0277778
        k(   72) = (  -0.0834323   0.0870718   0.0000000), wk =   0.0277778
        k(   73) = (  -0.0834323   0.1017570   0.0000000), wk =   0.0277778
        k(   74) = (  -0.0834323  -0.0597803   0.0000000), wk =   0.0138889

     Initial potential from superposition of free atoms

     starting charge  155.97171, renormalised to  156.00000

     negative rho (up, down):  6.247E-03 0.000E+00

     %%%%%%%%%%%%%%%%%%%%%%%%%%%%%%%%%%%%%%%%%%%%%%%%%%%%%%%%%%%%%%%%%%%%%%%%
     %                                                                      %
     % You are using vdW-DF, which was implemented by the Thonhauser group. %
     % Please cite the following two papers that made this development      %
     % possible and the two reviews that describe the various versions:     %
     %                                                                      %
     %   T. Thonhauser et al., PRL 115, 136402 (2015).                      %
     %   T. Thonhauser et al., PRB 76, 125112 (2007).                       %
     %   K. Berland et al., Rep. Prog. Phys. 78, 066501 (2015).             %
     %   D.C. Langreth et al., J. Phys.: Condens. Matter 21, 084203 (2009). %
     %                                                                      %
     %                                                                      %
     % If you are calculating the stress with vdW-DF, please also cite:     %
     %                                                                      %
     %   R. Sabatini et al., J. Phys.: Condens. Matter 24, 424209 (2012).   %
     %                                                                      %
     %%%%%%%%%%%%%%%%%%%%%%%%%%%%%%%%%%%%%%%%%%%%%%%%%%%%%%%%%%%%%%%%%%%%%%%%

     Adding external electric field

     Computed dipole along edir(3) :
        Dipole                0.0018 Ry au,          0.0047 Debye
        Dipole field          0.0000 Ry au,

        Potential amp.       -0.0004 Ry
        Total length         45.8220 bohr

     Starting wfcs are  156 randomized atomic wfcs

     Self-consistent Calculation

     iteration #  1     ecut=    55.12 Ry     beta= 0.10
     Davidson diagonalization with overlap
     ethr =  1.00E-02,  avg # of iterations =  2.0

[...]

     total energy              =   -1591.98041448 Ry
     estimated scf accuracy    <       8.17477962 Ry

[...]

     iteration #  9     ecut=    55.12 Ry     beta= 0.10
     Davidson diagonalization with overlap
     c_bands:  1 eigenvalues not converged
     ethr =  4.59E-05,  avg # of iterations = 10.8

[...]

     total energy              =   -1592.24840579 Ry
     estimated scf accuracy    <       0.00001698 Ry

     iteration # 18     ecut=    55.12 Ry     beta= 0.10
     Davidson diagonalization with overlap
     ethr =  1.09E-08,  avg # of iterations =  2.1

[...]

     Adding external electric field

     Computed dipole along edir(3) :
        Dipole                0.0684 Ry au,          0.1738 Debye
        Dipole field          0.0002 Ry au,

        Potential amp.       -0.0138 Ry
        Total length         45.8220 bohr

     End of self-consistent calculation

          k = 0.0000 0.0000 0.0000 ( 39517 PWs)   bands (ev):

   -64.5626 -64.5598 -64.3704 -64.3676 -64.3547 -64.3517 -40.8744 -40.8436
   -40.7308 -40.6998 -39.7399 -39.7064 -36.5316 -36.5302 -36.5148 -36.5129
   -36.4715 -36.4180 -36.3748 -36.3629 -36.3599 -36.3597 -36.3277 -36.3266
   -36.3207 -36.3083 -36.2988 -36.2939 -36.2754 -36.2696 -21.0083 -20.9252
   -20.8874 -20.8699 -20.7900 -20.7807 -20.7571 -20.7508 -20.6480 -20.6357
   -20.6234 -20.4972 -19.9518 -19.8026 -19.7635 -19.7542 -19.7267 -19.5582
    -2.9387  -1.7596  -1.2742  -1.1054  -1.0162  -1.0112  -0.9028  -0.8424
    -0.8148  -0.7616  -0.4901  -0.2259  -0.1823   0.3143   0.3429   0.4079
     0.4808   0.5007   0.5564   0.5922   0.6325   0.6462   0.8485   1.0836
     1.3375   1.3884   1.3984   1.7087   1.7373   1.8323   2.0497   2.1552
     2.4602   2.5050   2.9496   3.0504   3.2594   3.3188   3.4806   3.6207
     3.8292   3.9471   4.0163   4.1361   4.3193   4.3579

[...]

          k = 0.0695-0.0383 0.0000 ( 39433 PWs)   bands (ev):

[...]

          k =-0.0834 0.0283 0.0000 ( 39432 PWs)   bands (ev):

[...]

          k =-0.0834-0.0598 0.0000 ( 39430 PWs)   bands (ev):

   -64.5625 -64.5598 -64.3704 -64.3676 -64.3547 -64.3517 -40.8786 -40.8463
   -40.7354 -40.7027 -39.7479 -39.7093 -36.5279 -36.5274 -36.5093 -36.5044
   -36.4644 -36.4174 -36.3687 -36.3641 -36.3608 -36.3542 -36.3290 -36.3260
   -36.3205 -36.3082 -36.2929 -36.2905 -36.2681 -36.2653 -21.0302 -20.9337
   -20.8936 -20.8867 -20.8271 -20.7931 -20.7699 -20.7490 -20.6938 -20.6428
   -20.6377 -20.5047 -19.9747 -19.7984 -19.7848 -19.7637 -19.7493 -19.5675
    -1.2454  -1.1015  -0.5278  -0.3667  -0.3126  -0.2136  -0.0622  -0.0511
     0.0543   0.1302   0.1450   0.3248   0.3617   0.3848   0.4572   0.6392
     0.6692   0.7121   0.8390   0.9727   0.9780   0.9852   1.1049   1.2191
     1.3014   1.3691   1.4600   1.4677   1.5452   1.6592   1.6745   1.7257
     1.8032   1.8765   1.8934   2.0050   2.0486   2.1116   2.1470   2.2278
     2.8658   3.2075   3.4921   3.5088   3.7154   3.8392

     the Fermi energy is     1.6260 ev

!    total energy              =   -1592.24841850 Ry
     estimated scf accuracy    <       0.00000521 Ry
     smearing contrib. (-TS)   =      -0.09592118 Ry
     internal energy E=F+TS    =   -1592.15249733 Ry

     The total energy is F=E-TS. E is the sum of the following terms:
     one-electron contribution =  -10651.52047324 Ry
     hartree contribution      =    5327.54502274 Ry
     xc contribution           =    -348.57362428 Ry
     ewald contribution        =    4080.39656715 Ry
     electric field correction =       0.00001030 Ry

     convergence has been achieved in  18 iterations

     negative rho (up, down):  5.662E-03 0.000E+00

     Forces acting on atoms (cartesian axes, Ry/au):

     atom    1 type  1   force =    -0.00121915   -0.00087425    0.02497463
     atom    2 type  1   force =    -0.00121160   -0.00086673    0.02498159
     atom    3 type  2   force =     0.00409927    0.00291545   -0.01055417
     atom    4 type  2   force =     0.00407984    0.00294548   -0.01055344
     atom    5 type  1   force =    -0.00066003   -0.00047352    0.00783485
     atom    6 type  1   force =    -0.00061108   -0.00043782    0.00784257
     atom    7 type  2   force =    -0.00194067   -0.00153095   -0.02094900
     atom    8 type  2   force =    -0.00207303   -0.00134412   -0.02094605
     atom    9 type  1   force =    -0.00045172   -0.00032570    0.00008057
     atom   10 type  1   force =    -0.00045598   -0.00032664   -0.00005826
     atom   11 type  2   force =     0.00020588    0.00017966   -0.00132739
     atom   12 type  2   force =     0.00023826    0.00013913   -0.00132589

     Total force =     0.050437     Total SCF correction =     0.006759
     SCF correction compared to forces is large: reduce conv_thr to get better values

     Writing output data file ./Tc2Y2/Tc2Y2_beef.save/

     General routines

     Parallel routines

   This run was terminated on:  10: 6:57  25Jun2022

   JOB DONE.