     Program PWSCF v.6.6 starts on 25Jun2022 at  3: 6: 9

     R & G space division:  proc/nbgrp/npool/nimage =      37
     Fft bands division:     nmany     =       1
     Reading input from Ti2Au2.in
Warning: card &CELL ignored
Warning: card / ignored

     Current dimensions of program PWSCF are:
     Max number of different atomic species (ntypx) = 10
     Max number of k-points (npk) =  40000
     Max angular momentum in pseudopotentials (lmaxx) =  3
     Presently stress not available with electric field and gates

     Message from routine cell_base_init:
     DEPRECATED: use true lattice parameter, not A to a.u. conversion factor
     file Ti.pbe-spn-rrkjus_psl.1.0.0.UPF: wavefunction(s)  3S 3D renormalized

     IMPORTANT: XC functional enforced from input :
     Exchange-correlation= BEEF-VDW
                           (   1   4  43  14   2   0   0)
     Any further DFT definition will be discarded
     Please, verify this is what you really want

     Subspace diagonalization in iterative solution of the eigenvalue problem:
     a serial algorithm will be used

     bravais-lattice index     =            0
     lattice parameter (alat)  =       1.8897  a.u.
     unit-cell volume          =    4861.1795 (a.u.)^3
     number of atoms/cell      =           12
     number of atomic types    =            2
     number of electrons       =       138.00
     number of Kohn-Sham states=           83
     kinetic-energy cutoff     =      55.1240  Ry
     charge density cutoff     =     551.2396  Ry
     convergence threshold     =      1.0E-05
     mixing beta               =       0.1000
     number of iterations used =           10  plain     mixing
     Exchange-correlation= BEEF-VDW
                           (   1   4  43  14   2   0   0)

     celldm(1)=   1.889726  celldm(2)=   0.000000  celldm(3)=   0.000000
     celldm(4)=   0.000000  celldm(5)=   0.000000  celldm(6)=   0.000000

     crystal axes: (cart. coord. in units of alat)
               a(1) = (   5.767951   0.000000   0.000000 )
               a(2) = (   2.787921   5.049431   0.000000 )
               a(3) = (   0.000000   0.000000  24.733247 )

     reciprocal axes: (cart. coord. in units 2 pi/alat)
               b(1) = (  0.173372 -0.095723  0.000000 )
               b(2) = (  0.000000  0.198042  0.000000 )
               b(3) = (  0.000000  0.000000  0.040431 )

     PseudoPot. # 1 for Ti read from file:
     ../pseudo/Ti.pbe-spn-rrkjus_psl.1.0.0.UPF
     MD5 check sum: e281089c08e14b8efcf92e44a67ada65
     Pseudo is Ultrasoft + core correction, Zval = 12.0
     Generated using "atomic" code by A. Dal Corso v.6.2.2
     Using radial grid of 1177 points,  6 beta functions with:
                l(1) =   0
                l(2) =   0
                l(3) =   1
                l(4) =   1
                l(5) =   2
                l(6) =   2
     Q(r) pseudized with 0 coefficients

     PseudoPot. # 2 for Au read from file:
     ../pseudo/Au.pbe-n-rrkjus_psl.1.0.0.UPF
     MD5 check sum: d7e77ba19504afed2c9b41c931dde4f0
     Pseudo is Ultrasoft + core correction, Zval = 11.0
     Generated using "atomic" code by A. Dal Corso v.6.3
     Using radial grid of 1279 points,  6 beta functions with:
                l(1) =   0
                l(2) =   0
                l(3) =   1
                l(4) =   1
                l(5) =   2
                l(6) =   2
     Q(r) pseudized with 0 coefficients

     atomic species   valence    mass     pseudopotential
        Ti            12.00    47.86700     Ti( 1.00)
        Au            11.00   196.96657     Au( 1.00)

     No symmetry found

   Cartesian axes

     site n.     atom                  positions (alat units)
         1           Ti  tau(   1) = (   0.0000000   0.0000000  10.0000000  )
         2           Ti  tau(   2) = (   4.2779360   2.5247154  10.0000000  )
         3           Au  tau(   3) = (   2.8839754   0.0000000  10.0000000  )
         4           Au  tau(   4) = (   1.3939606   2.5247154  10.0000000  )
         5           Ti  tau(   5) = (   5.7679508   3.4040795  12.3666235  )
         6           Ti  tau(   6) = (   1.4900148   0.8793641  12.3666235  )
         7           Au  tau(   7) = (   2.8839754   3.4040795  12.3666235  )
         8           Au  tau(   8) = (   4.3739902   0.8793641  12.3666235  )
         9           Ti  tau(   9) = (   2.9751833   1.7558732  14.6116619  )
        10           Ti  tau(  10) = (   7.2531351   4.2805828  14.6116553  )
        11           Au  tau(  11) = (   5.9077104   1.7844842  14.7640396  )
        12           Au  tau(  12) = (   4.4176516   4.3092321  14.7640356  )

     number of k points=    74  Fermi-Dirac smearing, width (Ry)=  0.0100
                       cart. coord. in units 2pi/alat
        k(    1) = (   0.0000000   0.0000000   0.0000000), wk =   0.0138889
        k(    2) = (   0.0000000   0.0165035   0.0000000), wk =   0.0277778
        k(    3) = (   0.0000000   0.0330070   0.0000000), wk =   0.0277778
        k(    4) = (   0.0000000   0.0495105   0.0000000), wk =   0.0277778
        k(    5) = (   0.0000000   0.0660140   0.0000000), wk =   0.0277778
        k(    6) = (   0.0000000   0.0825175   0.0000000), wk =   0.0277778
        k(    7) = (   0.0000000  -0.0990211   0.0000000), wk =   0.0138889
        k(    8) = (   0.0144476  -0.0079769   0.0000000), wk =   0.0277778
        k(    9) = (   0.0144476   0.0085266   0.0000000), wk =   0.0277778
        k(   10) = (   0.0144476   0.0250301   0.0000000), wk =   0.0277778
        k(   11) = (   0.0144476   0.0415336   0.0000000), wk =   0.0277778
        k(   12) = (   0.0144476   0.0580371   0.0000000), wk =   0.0277778
        k(   13) = (   0.0144476   0.0745406   0.0000000), wk =   0.0277778
        k(   14) = (   0.0144476  -0.1069980   0.0000000), wk =   0.0277778
        k(   15) = (   0.0144476  -0.0904945   0.0000000), wk =   0.0277778
        k(   16) = (   0.0144476  -0.0739910   0.0000000), wk =   0.0277778
        k(   17) = (   0.0144476  -0.0574874   0.0000000), wk =   0.0277778
        k(   18) = (   0.0144476  -0.0409839   0.0000000), wk =   0.0277778
        k(   19) = (   0.0144476  -0.0244804   0.0000000), wk =   0.0277778
        k(   20) = (   0.0288953  -0.0159538   0.0000000), wk =   0.0277778
        k(   21) = (   0.0288953   0.0005497   0.0000000), wk =   0.0277778
        k(   22) = (   0.0288953   0.0170532   0.0000000), wk =   0.0277778
        k(   23) = (   0.0288953   0.0335567   0.0000000), wk =   0.0277778
        k(   24) = (   0.0288953   0.0500602   0.0000000), wk =   0.0277778
        k(   25) = (   0.0288953   0.0665637   0.0000000), wk =   0.0277778
        k(   26) = (   0.0288953  -0.1149749   0.0000000), wk =   0.0277778
        k(   27) = (   0.0288953  -0.0984714   0.0000000), wk =   0.0277778
        k(   28) = (   0.0288953  -0.0819679   0.0000000), wk =   0.0277778
        k(   29) = (   0.0288953  -0.0654644   0.0000000), wk =   0.0277778
        k(   30) = (   0.0288953  -0.0489609   0.0000000), wk =   0.0277778
        k(   31) = (   0.0288953  -0.0324573   0.0000000), wk =   0.0277778
        k(   32) = (   0.0433429  -0.0239308   0.0000000), wk =   0.0277778
        k(   33) = (   0.0433429  -0.0074272   0.0000000), wk =   0.0277778
        k(   34) = (   0.0433429   0.0090763   0.0000000), wk =   0.0277778
        k(   35) = (   0.0433429   0.0255798   0.0000000), wk =   0.0277778
        k(   36) = (   0.0433429   0.0420833   0.0000000), wk =   0.0277778
        k(   37) = (   0.0433429   0.0585868   0.0000000), wk =   0.0277778
        k(   38) = (   0.0433429  -0.1229518   0.0000000), wk =   0.0277778
        k(   39) = (   0.0433429  -0.1064483   0.0000000), wk =   0.0277778
        k(   40) = (   0.0433429  -0.0899448   0.0000000), wk =   0.0277778
        k(   41) = (   0.0433429  -0.0734413   0.0000000), wk =   0.0277778
        k(   42) = (   0.0433429  -0.0569378   0.0000000), wk =   0.0277778
        k(   43) = (   0.0433429  -0.0404343   0.0000000), wk =   0.0277778
        k(   44) = (   0.0577906  -0.0319077   0.0000000), wk =   0.0277778
        k(   45) = (   0.0577906  -0.0154042   0.0000000), wk =   0.0277778
        k(   46) = (   0.0577906   0.0010993   0.0000000), wk =   0.0277778
        k(   47) = (   0.0577906   0.0176029   0.0000000), wk =   0.0277778
        k(   48) = (   0.0577906   0.0341064   0.0000000), wk =   0.0277778
        k(   49) = (   0.0577906   0.0506099   0.0000000), wk =   0.0277778
        k(   50) = (   0.0577906  -0.1309287   0.0000000), wk =   0.0277778
        k(   51) = (   0.0577906  -0.1144252   0.0000000), wk =   0.0277778
        k(   52) = (   0.0577906  -0.0979217   0.0000000), wk =   0.0277778
        k(   53) = (   0.0577906  -0.0814182   0.0000000), wk =   0.0277778
        k(   54) = (   0.0577906  -0.0649147   0.0000000), wk =   0.0277778
        k(   55) = (   0.0577906  -0.0484112   0.0000000), wk =   0.0277778
        k(   56) = (   0.0722382  -0.0398846   0.0000000), wk =   0.0277778
        k(   57) = (   0.0722382  -0.0233811   0.0000000), wk =   0.0277778
        k(   58) = (   0.0722382  -0.0068776   0.0000000), wk =   0.0277778
        k(   59) = (   0.0722382   0.0096259   0.0000000), wk =   0.0277778
        k(   60) = (   0.0722382   0.0261294   0.0000000), wk =   0.0277778
        k(   61) = (   0.0722382   0.0426330   0.0000000), wk =   0.0277778
        k(   62) = (   0.0722382  -0.1389057   0.0000000), wk =   0.0277778
        k(   63) = (   0.0722382  -0.1224021   0.0000000), wk =   0.0277778
        k(   64) = (   0.0722382  -0.1058986   0.0000000), wk =   0.0277778
        k(   65) = (   0.0722382  -0.0893951   0.0000000), wk =   0.0277778
        k(   66) = (   0.0722382  -0.0728916   0.0000000), wk =   0.0277778
        k(   67) = (   0.0722382  -0.0563881   0.0000000), wk =   0.0277778
        k(   68) = (  -0.0866859   0.0478615   0.0000000), wk =   0.0138889
        k(   69) = (  -0.0866859   0.0643650   0.0000000), wk =   0.0277778
        k(   70) = (  -0.0866859   0.0808685   0.0000000), wk =   0.0277778
        k(   71) = (  -0.0866859   0.0973720   0.0000000), wk =   0.0277778
        k(   72) = (  -0.0866859   0.1138756   0.0000000), wk =   0.0277778
        k(   73) = (  -0.0866859   0.1303791   0.0000000), wk =   0.0277778
        k(   74) = (  -0.0866859  -0.0511595   0.0000000), wk =   0.0138889

     Initial potential from superposition of free atoms

     starting charge  137.99047, renormalised to  138.00000

     negative rho (up, down):  1.242E-03 0.000E+00

     %%%%%%%%%%%%%%%%%%%%%%%%%%%%%%%%%%%%%%%%%%%%%%%%%%%%%%%%%%%%%%%%%%%%%%%%
     %                                                                      %
     % You are using vdW-DF, which was implemented by the Thonhauser group. %
     % Please cite the following two papers that made this development      %
     % possible and the two reviews that describe the various versions:     %
     %                                                                      %
     %   T. Thonhauser et al., PRL 115, 136402 (2015).                      %
     %   T. Thonhauser et al., PRB 76, 125112 (2007).                       %
     %   K. Berland et al., Rep. Prog. Phys. 78, 066501 (2015).             %
     %   D.C. Langreth et al., J. Phys.: Condens. Matter 21, 084203 (2009). %
     %                                                                      %
     %                                                                      %
     % If you are calculating the stress with vdW-DF, please also cite:     %
     %                                                                      %
     %   R. Sabatini et al., J. Phys.: Condens. Matter 24, 424209 (2012).   %
     %                                                                      %
     %%%%%%%%%%%%%%%%%%%%%%%%%%%%%%%%%%%%%%%%%%%%%%%%%%%%%%%%%%%%%%%%%%%%%%%%

     Adding external electric field

     Computed dipole along edir(3) :
        Dipole               -0.0004 Ry au,         -0.0010 Debye
        Dipole field         -0.0000 Ry au,

        Potential amp.        0.0001 Ry
        Total length         45.5706 bohr

     Starting wfcs are  114 randomized atomic wfcs

     Self-consistent Calculation

     iteration #  1     ecut=    55.12 Ry     beta= 0.10
     Davidson diagonalization with overlap
     ethr =  1.00E-02,  avg # of iterations =  2.0

[...]

     total energy              =   -1241.07523560 Ry
     estimated scf accuracy    <       4.45022112 Ry

[...]

     iteration #  8     ecut=    55.12 Ry     beta= 0.10
     Davidson diagonalization with overlap
     c_bands:  1 eigenvalues not converged
     ethr =  8.05E-05,  avg # of iterations =  8.6

[...]

     iteration # 16     ecut=    55.12 Ry     beta= 0.10
     Davidson diagonalization with overlap
     ethr =  1.14E-07,  avg # of iterations =  2.4

[...]

     total energy              =   -1241.45669334 Ry
     estimated scf accuracy    <       0.00001993 Ry

     iteration # 18     ecut=    55.12 Ry     beta= 0.10
     Davidson diagonalization with overlap
     c_bands:  1 eigenvalues not converged
     c_bands:  1 eigenvalues not converged
     c_bands:  1 eigenvalues not converged
     c_bands:  1 eigenvalues not converged
     ethr =  1.44E-08,  avg # of iterations =  9.5

[...]

     Adding external electric field

     Computed dipole along edir(3) :
        Dipole               -0.0314 Ry au,         -0.0799 Debye
        Dipole field         -0.0001 Ry au,

        Potential amp.        0.0074 Ry
        Total length         45.5706 bohr

     End of self-consistent calculation

          k = 0.0000 0.0000 0.0000 ( 33557 PWs)   bands (ev):

   -56.4585 -56.4235 -56.3979 -56.3626 -56.2694 -56.2339 -32.8076 -32.7740
   -32.7447 -32.7145 -32.7103 -32.6814 -32.6693 -32.6571 -32.6423 -32.6358
   -32.6235 -32.6071 -32.5972 -32.3584 -32.3269 -32.3218 -32.2958 -32.2902
    -6.8043  -5.5222  -5.3140  -5.1851  -4.9722  -4.9395  -4.8168  -4.7297
    -4.7171  -4.5664  -4.4830  -4.4146  -4.3788  -4.1848  -3.9945  -3.7996
    -3.6336  -3.5686  -3.3624  -3.3440  -3.2884  -3.2514  -3.2312  -3.1627
    -3.1593  -2.9869  -2.9551  -2.8428  -2.7986  -2.4562  -2.2994  -1.7258
    -1.4567  -0.1177   0.1620   0.2175   0.2949   0.3457   0.4099   0.5909
     0.6954   0.8953   0.9161   1.1007   1.1734   1.2177   1.2261   1.5384
     1.6336   1.9357   1.9969   2.0238   2.0297   2.0981   2.1611   2.5264
     2.6501   2.7228   2.8103

[...]

          k = 0.0722-0.0564 0.0000 ( 33607 PWs)   bands (ev):

[...]

          k =-0.0867 0.0479 0.0000 ( 33628 PWs)   bands (ev):

[...]

          k =-0.0867-0.0512 0.0000 ( 33588 PWs)   bands (ev):

   -56.4583 -56.4235 -56.3977 -56.3626 -56.2694 -56.2337 -32.8094 -32.7743
   -32.7464 -32.7212 -32.7104 -32.6810 -32.6719 -32.6608 -32.6445 -32.6348
   -32.6235 -32.6080 -32.6025 -32.3588 -32.3272 -32.3230 -32.2964 -32.2910
    -5.9350  -5.3196  -5.0960  -4.9098  -4.7755  -4.6109  -4.5538  -4.3717
    -4.2798  -4.1468  -4.1423  -4.1405  -4.1035  -4.0685  -3.9666  -3.6486
    -3.5022  -3.4893  -3.4667  -3.3305  -3.2188  -3.1776  -3.1382  -3.1053
    -3.0781  -3.0228  -2.7653  -2.6917  -2.6241  -2.5236  -2.2726  -2.1617
    -1.7355  -1.7270  -1.1025  -0.5839  -0.4758  -0.1616   0.0663   0.0922
     0.1238   0.2375   0.2969   0.3482   0.4433   0.4900   0.6802   0.9079
     0.9129   1.1816   1.3389   1.4665   1.9205   1.9224   2.2012   2.3727
     2.3866   2.5183   2.5220

     the Fermi energy is     1.0774 ev

!    total energy              =   -1241.45663140 Ry
     estimated scf accuracy    <       0.00000430 Ry
     smearing contrib. (-TS)   =      -0.08369915 Ry
     internal energy E=F+TS    =   -1241.37293225 Ry

     The total energy is F=E-TS. E is the sum of the following terms:
     one-electron contribution =   -9631.52137977 Ry
     hartree contribution      =    4851.07002597 Ry
     xc contribution           =    -314.55791025 Ry
     ewald contribution        =    3853.63632924 Ry
     electric field correction =       0.00000255 Ry

     convergence has been achieved in  18 iterations

     negative rho (up, down):  1.042E-03 0.000E+00

     Forces acting on atoms (cartesian axes, Ry/au):

     atom    1 type  1   force =     0.00729660    0.00430857    0.01671460
     atom    2 type  1   force =     0.00728793    0.00429793    0.01672259
     atom    3 type  2   force =    -0.01048948   -0.00619627   -0.00939393
     atom    4 type  2   force =    -0.01048652   -0.00619015   -0.00938403
     atom    5 type  1   force =    -0.00222334   -0.00131530   -0.00241109
     atom    6 type  1   force =    -0.00224146   -0.00132493   -0.00240804
     atom    7 type  2   force =     0.00439604    0.00257616   -0.00748049
     atom    8 type  2   force =     0.00437783    0.00260603   -0.00747325
     atom    9 type  1   force =     0.00055401    0.00031897    0.00058941
     atom   10 type  1   force =     0.00054393    0.00032339    0.00058423
     atom   11 type  2   force =     0.00049050    0.00030328    0.00197004
     atom   12 type  2   force =     0.00049397    0.00029232    0.00196997

     Total force =     0.037069     Total SCF correction =     0.005312
     SCF correction compared to forces is large: reduce conv_thr to get better values

     Writing output data file ./Ti2Au2/Ti2Au2_beef.save/

     General routines

     Parallel routines

   This run was terminated on:   4: 5:55  25Jun2022

   JOB DONE.