     Program PWSCF v.6.6 starts on 25Jun2022 at  2: 5: 8

     R & G space division:  proc/nbgrp/npool/nimage =      37
     Fft bands division:     nmany     =       1
     Reading input from Ti2Ag2.in
Warning: card &CELL ignored
Warning: card / ignored

     Current dimensions of program PWSCF are:
     Max number of different atomic species (ntypx) = 10
     Max number of k-points (npk) =  40000
     Max angular momentum in pseudopotentials (lmaxx) =  3
     Presently stress not available with electric field and gates

     Message from routine cell_base_init:
     DEPRECATED: use true lattice parameter, not A to a.u. conversion factor
     file Ti.pbe-spn-rrkjus_psl.1.0.0.UPF: wavefunction(s)  3S 3D renormalized

     IMPORTANT: XC functional enforced from input :
     Exchange-correlation= BEEF-VDW
                           (   1   4  43  14   2   0   0)
     Any further DFT definition will be discarded
     Please, verify this is what you really want

     Subspace diagonalization in iterative solution of the eigenvalue problem:
     a serial algorithm will be used

     Found symmetry operation: I + (  0.5000  0.0000  0.0000)
     This is a supercell, fractional translations are disabled

     bravais-lattice index     =            0
     lattice parameter (alat)  =       1.8897  a.u.
     unit-cell volume          =    4915.5442 (a.u.)^3
     number of atoms/cell      =           12
     number of atomic types    =            2
     number of electrons       =       138.00
     number of Kohn-Sham states=           83
     kinetic-energy cutoff     =      55.1240  Ry
     charge density cutoff     =     551.2396  Ry
     convergence threshold     =      1.0E-05
     mixing beta               =       0.1000
     number of iterations used =           10  plain     mixing
     Exchange-correlation= BEEF-VDW
                           (   1   4  43  14   2   0   0)

     celldm(1)=   1.889726  celldm(2)=   0.000000  celldm(3)=   0.000000
     celldm(4)=   0.000000  celldm(5)=   0.000000  celldm(6)=   0.000000

     crystal axes: (cart. coord. in units of alat)
               a(1) = (   5.689880   0.000000   0.000000 )
               a(2) = (  -2.844940   5.172085   0.000000 )
               a(3) = (   0.000000   0.000000  24.751774 )

     reciprocal axes: (cart. coord. in units 2 pi/alat)
               b(1) = (  0.175751  0.096673 -0.000000 )
               b(2) = (  0.000000  0.193346  0.000000 )
               b(3) = (  0.000000 -0.000000  0.040401 )

     PseudoPot. # 1 for Ti read from file:
     ../pseudo/Ti.pbe-spn-rrkjus_psl.1.0.0.UPF
     MD5 check sum: e281089c08e14b8efcf92e44a67ada65
     Pseudo is Ultrasoft + core correction, Zval = 12.0
     Generated using "atomic" code by A. Dal Corso v.6.2.2
     Using radial grid of 1177 points,  6 beta functions with:
                l(1) =   0
                l(2) =   0
                l(3) =   1
                l(4) =   1
                l(5) =   2
                l(6) =   2
     Q(r) pseudized with 0 coefficients

     PseudoPot. # 2 for Ag read from file:
     ../pseudo/Ag.pbe-n-rrkjus_psl.1.0.0.UPF
     MD5 check sum: d841cbfac2b0861aec33b46768a516bf
     Pseudo is Ultrasoft + core correction, Zval = 11.0
     Generated using "atomic" code by A. Dal Corso v.6.2.2
     Using radial grid of 1237 points,  6 beta functions with:
                l(1) =   0
                l(2) =   0
                l(3) =   1
                l(4) =   1
                l(5) =   2
                l(6) =   2
     Q(r) pseudized with 0 coefficients

     atomic species   valence    mass     pseudopotential
        Ti            12.00    47.86700     Ti( 1.00)
        Ag            11.00   107.86820     Ag( 1.00)

     No symmetry found

   Cartesian axes

     site n.     atom                  positions (alat units)
         1           Ti  tau(   1) = (   0.0000000   0.0000000  10.0000000  )
         2           Ti  tau(   2) = (   2.8449399   0.0000000  10.0000000  )
         3           Ag  tau(   3) = (   1.4224700   2.5860424  10.0000000  )
         4           Ag  tau(   4) = (  -1.4224700   2.5860424  10.0000000  )
         5           Ti  tau(   5) = (   2.8449399   1.5648783  12.3758870  )
         6           Ti  tau(   6) = (   0.0000000   1.5648783  12.3758870  )
         7           Ag  tau(   7) = (  -1.4224700   4.1509207  12.3758870  )
         8           Ag  tau(   8) = (   1.4224700   4.1509207  12.3758870  )
         9           Ti  tau(   9) = (  -0.0000001   3.1181933  14.5984151  )
        10           Ti  tau(  10) = (   2.8449402   3.1181794  14.5984378  )
        11           Ag  tau(  11) = (   4.2674185   0.5774639  14.8269930  )
        12           Ag  tau(  12) = (   1.4224610   0.5774637  14.8269934  )

     number of k points=    74  Fermi-Dirac smearing, width (Ry)=  0.0100
                       cart. coord. in units 2pi/alat
        k(    1) = (   0.0000000   0.0000000   0.0000000), wk =   0.0138889
        k(    2) = (   0.0000000   0.0161121   0.0000000), wk =   0.0277778
        k(    3) = (   0.0000000   0.0322243   0.0000000), wk =   0.0277778
        k(    4) = (   0.0000000   0.0483364   0.0000000), wk =   0.0277778
        k(    5) = (   0.0000000   0.0644485   0.0000000), wk =   0.0277778
        k(    6) = (   0.0000000   0.0805607   0.0000000), wk =   0.0277778
        k(    7) = (   0.0000000  -0.0966728   0.0000000), wk =   0.0138889
        k(    8) = (   0.0146459   0.0080561   0.0000000), wk =   0.0277778
        k(    9) = (   0.0146459   0.0241682   0.0000000), wk =   0.0277778
        k(   10) = (   0.0146459   0.0402803   0.0000000), wk =   0.0277778
        k(   11) = (   0.0146459   0.0563925   0.0000000), wk =   0.0277778
        k(   12) = (   0.0146459   0.0725046   0.0000000), wk =   0.0277778
        k(   13) = (   0.0146459   0.0886167   0.0000000), wk =   0.0277778
        k(   14) = (   0.0146459  -0.0886167   0.0000000), wk =   0.0277778
        k(   15) = (   0.0146459  -0.0725046   0.0000000), wk =   0.0277778
        k(   16) = (   0.0146459  -0.0563925   0.0000000), wk =   0.0277778
        k(   17) = (   0.0146459  -0.0402803   0.0000000), wk =   0.0277778
        k(   18) = (   0.0146459  -0.0241682   0.0000000), wk =   0.0277778
        k(   19) = (   0.0146459  -0.0080561   0.0000000), wk =   0.0277778
        k(   20) = (   0.0292918   0.0161121   0.0000000), wk =   0.0277778
        k(   21) = (   0.0292918   0.0322243   0.0000000), wk =   0.0277778
        k(   22) = (   0.0292918   0.0483364   0.0000000), wk =   0.0277778
        k(   23) = (   0.0292918   0.0644485   0.0000000), wk =   0.0277778
        k(   24) = (   0.0292918   0.0805607   0.0000000), wk =   0.0277778
        k(   25) = (   0.0292918   0.0966728   0.0000000), wk =   0.0277778
        k(   26) = (   0.0292918  -0.0805607   0.0000000), wk =   0.0277778
        k(   27) = (   0.0292918  -0.0644485   0.0000000), wk =   0.0277778
        k(   28) = (   0.0292918  -0.0483364   0.0000000), wk =   0.0277778
        k(   29) = (   0.0292918  -0.0322243   0.0000000), wk =   0.0277778
        k(   30) = (   0.0292918  -0.0161121   0.0000000), wk =   0.0277778
        k(   31) = (   0.0292918  -0.0000000   0.0000000), wk =   0.0277778
        k(   32) = (   0.0439377   0.0241682   0.0000000), wk =   0.0277778
        k(   33) = (   0.0439377   0.0402803   0.0000000), wk =   0.0277778
        k(   34) = (   0.0439377   0.0563925   0.0000000), wk =   0.0277778
        k(   35) = (   0.0439377   0.0725046   0.0000000), wk =   0.0277778
        k(   36) = (   0.0439377   0.0886167   0.0000000), wk =   0.0277778
        k(   37) = (   0.0439377   0.1047289   0.0000000), wk =   0.0277778
        k(   38) = (   0.0439377  -0.0725046   0.0000000), wk =   0.0277778
        k(   39) = (   0.0439377  -0.0563925   0.0000000), wk =   0.0277778
        k(   40) = (   0.0439377  -0.0402803   0.0000000), wk =   0.0277778
        k(   41) = (   0.0439377  -0.0241682   0.0000000), wk =   0.0277778
        k(   42) = (   0.0439377  -0.0080561   0.0000000), wk =   0.0277778
        k(   43) = (   0.0439377   0.0080561   0.0000000), wk =   0.0277778
        k(   44) = (   0.0585835   0.0322243   0.0000000), wk =   0.0277778
        k(   45) = (   0.0585835   0.0483364   0.0000000), wk =   0.0277778
        k(   46) = (   0.0585835   0.0644485   0.0000000), wk =   0.0277778
        k(   47) = (   0.0585835   0.0805607   0.0000000), wk =   0.0277778
        k(   48) = (   0.0585835   0.0966728   0.0000000), wk =   0.0277778
        k(   49) = (   0.0585835   0.1127849   0.0000000), wk =   0.0277778
        k(   50) = (   0.0585835  -0.0644485   0.0000000), wk =   0.0277778
        k(   51) = (   0.0585835  -0.0483364   0.0000000), wk =   0.0277778
        k(   52) = (   0.0585835  -0.0322243   0.0000000), wk =   0.0277778
        k(   53) = (   0.0585835  -0.0161121   0.0000000), wk =   0.0277778
        k(   54) = (   0.0585835   0.0000000   0.0000000), wk =   0.0277778
        k(   55) = (   0.0585835   0.0161121   0.0000000), wk =   0.0277778
        k(   56) = (   0.0732294   0.0402803   0.0000000), wk =   0.0277778
        k(   57) = (   0.0732294   0.0563925   0.0000000), wk =   0.0277778
        k(   58) = (   0.0732294   0.0725046   0.0000000), wk =   0.0277778
        k(   59) = (   0.0732294   0.0886167   0.0000000), wk =   0.0277778
        k(   60) = (   0.0732294   0.1047289   0.0000000), wk =   0.0277778
        k(   61) = (   0.0732294   0.1208410   0.0000000), wk =   0.0277778
        k(   62) = (   0.0732294  -0.0563925   0.0000000), wk =   0.0277778
        k(   63) = (   0.0732294  -0.0402803   0.0000000), wk =   0.0277778
        k(   64) = (   0.0732294  -0.0241682   0.0000000), wk =   0.0277778
        k(   65) = (   0.0732294  -0.0080561   0.0000000), wk =   0.0277778
        k(   66) = (   0.0732294   0.0080561   0.0000000), wk =   0.0277778
        k(   67) = (   0.0732294   0.0241682   0.0000000), wk =   0.0277778
        k(   68) = (  -0.0878753  -0.0483364   0.0000000), wk =   0.0138889
        k(   69) = (  -0.0878753  -0.0322243   0.0000000), wk =   0.0277778
        k(   70) = (  -0.0878753  -0.0161121   0.0000000), wk =   0.0277778
        k(   71) = (  -0.0878753   0.0000000   0.0000000), wk =   0.0277778
        k(   72) = (  -0.0878753   0.0161121   0.0000000), wk =   0.0277778
        k(   73) = (  -0.0878753   0.0322243   0.0000000), wk =   0.0277778
        k(   74) = (  -0.0878753  -0.1450092   0.0000000), wk =   0.0138889

     Initial potential from superposition of free atoms

     starting charge  137.98873, renormalised to  138.00000

     negative rho (up, down):  8.693E-04 0.000E+00

     %%%%%%%%%%%%%%%%%%%%%%%%%%%%%%%%%%%%%%%%%%%%%%%%%%%%%%%%%%%%%%%%%%%%%%%%
     %                                                                      %
     % You are using vdW-DF, which was implemented by the Thonhauser group. %
     % Please cite the following two papers that made this development      %
     % possible and the two reviews that describe the various versions:     %
     %                                                                      %
     %   T. Thonhauser et al., PRL 115, 136402 (2015).                      %
     %   T. Thonhauser et al., PRB 76, 125112 (2007).                       %
     %   K. Berland et al., Rep. Prog. Phys. 78, 066501 (2015).             %
     %   D.C. Langreth et al., J. Phys.: Condens. Matter 21, 084203 (2009). %
     %                                                                      %
     %                                                                      %
     % If you are calculating the stress with vdW-DF, please also cite:     %
     %                                                                      %
     %   R. Sabatini et al., J. Phys.: Condens. Matter 24, 424209 (2012).   %
     %                                                                      %
     %%%%%%%%%%%%%%%%%%%%%%%%%%%%%%%%%%%%%%%%%%%%%%%%%%%%%%%%%%%%%%%%%%%%%%%%

     Adding external electric field

     Computed dipole along edir(3) :
        Dipole               -0.0004 Ry au,         -0.0011 Debye
        Dipole field         -0.0000 Ry au,

        Potential amp.        0.0001 Ry
        Total length         45.6047 bohr

     Starting wfcs are  114 randomized atomic wfcs

     Self-consistent Calculation

     iteration #  1     ecut=    55.12 Ry     beta= 0.10
     Davidson diagonalization with overlap
     ethr =  1.00E-02,  avg # of iterations =  2.0

[...]

     total energy              =   -1232.03262400 Ry
     estimated scf accuracy    <       3.66643633 Ry

[...]

     iteration #  9     ecut=    55.12 Ry     beta= 0.10
     Davidson diagonalization with overlap
     c_bands:  1 eigenvalues not converged
     ethr =  8.36E-06,  avg # of iterations =  3.4

[...]

     iteration # 11     ecut=    55.12 Ry     beta= 0.10
     Davidson diagonalization with overlap
     c_bands:  1 eigenvalues not converged
     c_bands:  1 eigenvalues not converged
     c_bands:  1 eigenvalues not converged
     c_bands:  1 eigenvalues not converged
     ethr =  1.93E-06,  avg # of iterations =  8.7

[...]

     total energy              =   -1232.48930278 Ry
     estimated scf accuracy    <       0.00003904 Ry

     iteration # 18     ecut=    55.12 Ry     beta= 0.10
     Davidson diagonalization with overlap
     ethr =  2.83E-08,  avg # of iterations =  2.0

[...]

     Adding external electric field

     Computed dipole along edir(3) :
        Dipole               -0.0463 Ry au,         -0.1178 Debye
        Dipole field         -0.0001 Ry au,

        Potential amp.        0.0108 Ry
        Total length         45.6047 bohr

     End of self-consistent calculation

          k = 0.0000 0.0000 0.0000 ( 33933 PWs)   bands (ev):

   -56.6824 -56.6328 -56.5987 -56.5485 -56.4274 -56.3770 -33.0451 -32.9991
   -32.9735 -32.9475 -32.9356 -32.9247 -32.9014 -32.8953 -32.8746 -32.8274
   -32.8242 -32.8037 -32.7559 -32.5257 -32.4802 -32.4452 -32.4161 -32.4038
    -5.8464  -5.3409  -5.2589  -5.1794  -5.1282  -5.0625  -5.0120  -4.9372
    -4.8553  -4.7884  -4.7006  -4.6459  -4.6002  -4.4707  -4.2667  -4.1273
    -4.1044  -4.0759  -3.9689  -3.9010  -3.8527  -3.7772  -3.7561  -3.6964
    -3.5999  -3.5031  -3.4648  -3.4111  -3.3677  -3.2538  -3.1209  -2.6762
    -1.4860  -0.4190  -0.3841  -0.2530  -0.2003  -0.0611   0.0037   0.2229
     0.3204   0.3499   0.4770   0.5482   0.7561   0.9733   1.0216   1.1679
     1.2173   1.3991   1.5194   1.6911   1.6918   1.8739   1.9018   1.9579
     2.3042   2.3918   2.4659

[...]

          k = 0.0732 0.0242 0.0000 ( 33972 PWs)   bands (ev):

[...]

          k =-0.0879-0.0483 0.0000 ( 34012 PWs)   bands (ev):

[...]

          k =-0.0879-0.1450 0.0000 ( 34012 PWs)   bands (ev):

   -56.6578 -56.6576 -56.5737 -56.5735 -56.4023 -56.4022 -33.0225 -33.0223
   -32.9496 -32.9495 -32.9251 -32.9251 -32.8516 -32.8516 -32.7804 -32.7803
   -32.7335 -32.7334 -32.6907 -32.6905 -32.6230 -32.6228 -32.4247 -32.4247
    -4.8861  -4.8861  -4.7929  -4.7929  -4.6555  -4.6555  -4.6225  -4.6225
    -4.4424  -4.4424  -4.3373  -4.3373  -4.2459  -4.2459  -4.1210  -4.1210
    -4.0667  -4.0667  -4.0355  -4.0355  -3.9674  -3.9674  -3.9121  -3.9121
    -3.7610  -3.7610  -3.7204  -3.7204  -3.6232  -3.6232  -3.4459  -3.4459
    -2.4384  -2.4384  -1.1523  -1.1523  -0.4008  -0.4008   0.0263   0.0264
     0.4881   0.4881   0.5994   0.5995   0.9626   0.9626   1.0219   1.0219
     1.2323   1.2324   1.3374   1.3375   1.4272   1.4273   1.5827   1.5827
     1.7565   1.7566   2.2656

     the Fermi energy is     0.7012 ev

!    total energy              =   -1232.48921330 Ry
     estimated scf accuracy    <       0.00000451 Ry
     smearing contrib. (-TS)   =      -0.08244003 Ry
     internal energy E=F+TS    =   -1232.40677326 Ry

     The total energy is F=E-TS. E is the sum of the following terms:
     one-electron contribution =   -9624.96045140 Ry
     hartree contribution      =    4849.44082038 Ry
     xc contribution           =    -254.27208899 Ry
     ewald contribution        =    3797.38494125 Ry
     electric field correction =       0.00000549 Ry

     convergence has been achieved in  18 iterations

     negative rho (up, down):  6.664E-04 0.000E+00

     Forces acting on atoms (cartesian axes, Ry/au):

     atom    1 type  1   force =     0.00000578    0.00750991    0.02185873
     atom    2 type  1   force =    -0.00001058    0.00750786    0.02185504
     atom    3 type  2   force =    -0.00000112   -0.00877286   -0.01313246
     atom    4 type  2   force =     0.00000007   -0.00877052   -0.01313110
     atom    5 type  1   force =     0.00000519   -0.00593340   -0.00193227
     atom    6 type  1   force =     0.00000169   -0.00594752   -0.00198228
     atom    7 type  2   force =    -0.00000223    0.00787207   -0.00675667
     atom    8 type  2   force =     0.00000191    0.00787125   -0.00675676
     atom    9 type  1   force =    -0.00000276   -0.00036875   -0.00024258
     atom   10 type  1   force =     0.00000121   -0.00036600   -0.00026748
     atom   11 type  2   force =    -0.00000308   -0.00030149    0.00024379
     atom   12 type  2   force =     0.00000392   -0.00030056    0.00024402

     Total force =     0.043141     Total SCF correction =     0.007153
     SCF correction compared to forces is large: reduce conv_thr to get better values

     Writing output data file ./Ti2Ag2/Ti2Ag2_beef.save/

     General routines

     Parallel routines

   This run was terminated on:   3: 6: 7  25Jun2022

   JOB DONE.