     Program PWSCF v.6.6 starts on 25Jun2022 at  6:49:49

     R & G space division:  proc/nbgrp/npool/nimage =      37
     Fft bands division:     nmany     =       1
     Reading input from Ti2Cu2.in
Warning: card &CELL ignored
Warning: card / ignored

     Current dimensions of program PWSCF are:
     Max number of different atomic species (ntypx) = 10
     Max number of k-points (npk) =  40000
     Max angular momentum in pseudopotentials (lmaxx) =  3
     Presently stress not available with electric field and gates

     Message from routine cell_base_init:
     DEPRECATED: use true lattice parameter, not A to a.u. conversion factor
     file Ti.pbe-spn-rrkjus_psl.1.0.0.UPF: wavefunction(s)  3S 3D renormalized
     file Cu.pbe-dn-rrkjus_psl.1.0.0.UPF: wavefunction(s)  3D renormalized

     IMPORTANT: XC functional enforced from input :
     Exchange-correlation= BEEF-VDW
                           (   1   4  43  14   2   0   0)
     Any further DFT definition will be discarded
     Please, verify this is what you really want

     Subspace diagonalization in iterative solution of the eigenvalue problem:
     a serial algorithm will be used

     bravais-lattice index     =            0
     lattice parameter (alat)  =       1.8897  a.u.
     unit-cell volume          =    4273.9069 (a.u.)^3
     number of atoms/cell      =           12
     number of atomic types    =            2
     number of electrons       =       138.00
     number of Kohn-Sham states=           83
     kinetic-energy cutoff     =      55.1240  Ry
     charge density cutoff     =     551.2396  Ry
     convergence threshold     =      1.0E-05
     mixing beta               =       0.1000
     number of iterations used =           10  plain     mixing
     Exchange-correlation= BEEF-VDW
                           (   1   4  43  14   2   0   0)

     celldm(1)=   1.889726  celldm(2)=   0.000000  celldm(3)=   0.000000
     celldm(4)=   0.000000  celldm(5)=   0.000000  celldm(6)=   0.000000

     crystal axes: (cart. coord. in units of alat)
               a(1) = (   5.452922   0.000000   0.000000 )
               a(2) = (  -2.726461   4.747563   0.000000 )
               a(3) = (   0.000000   0.000000  24.464059 )

     reciprocal axes: (cart. coord. in units 2 pi/alat)
               b(1) = (  0.183388  0.105317 -0.000000 )
               b(2) = (  0.000000  0.210634  0.000000 )
               b(3) = (  0.000000 -0.000000  0.040876 )

     PseudoPot. # 1 for Ti read from file:
     ../pseudo/Ti.pbe-spn-rrkjus_psl.1.0.0.UPF
     MD5 check sum: e281089c08e14b8efcf92e44a67ada65
     Pseudo is Ultrasoft + core correction, Zval = 12.0
     Generated using "atomic" code by A. Dal Corso v.6.2.2
     Using radial grid of 1177 points,  6 beta functions with:
                l(1) =   0
                l(2) =   0
                l(3) =   1
                l(4) =   1
                l(5) =   2
                l(6) =   2
     Q(r) pseudized with 0 coefficients

     PseudoPot. # 2 for Cu read from file:
     ../pseudo/Cu.pbe-dn-rrkjus_psl.1.0.0.UPF
     MD5 check sum: 8469560995d0c2df1ffe68c099c04a63
     Pseudo is Ultrasoft + core correction, Zval = 11.0
     Generated using "atomic" code by A. Dal Corso v.6.3
     Using radial grid of 1199 points,  6 beta functions with:
                l(1) =   0
                l(2) =   0
                l(3) =   1
                l(4) =   1
                l(5) =   2
                l(6) =   2
     Q(r) pseudized with 0 coefficients

     atomic species   valence    mass     pseudopotential
        Ti            12.00    47.86700     Ti( 1.00)
        Cu            11.00    63.54600     Cu( 1.00)

     No symmetry found

   Cartesian axes

     site n.     atom                  positions (alat units)
         1           Ti  tau(   1) = (   0.0000000   0.0000000  10.0000000  )
         2           Ti  tau(   2) = (   2.7264611   0.0000000  10.0000000  )
         3           Cu  tau(   3) = (   1.3632305   2.3737814  10.0000000  )
         4           Cu  tau(   4) = (  -1.3632305   2.3737814  10.0000000  )
         5           Ti  tau(   5) = (   2.7264611   1.5657697  12.2320294  )
         6           Ti  tau(   6) = (   0.0000000   1.5657697  12.2320294  )
         7           Cu  tau(   7) = (  -1.3632305   3.9395511  12.2320294  )
         8           Cu  tau(   8) = (   1.3632305   3.9395511  12.2320294  )
         9           Ti  tau(   9) = (   0.0000011   3.2304623  14.4095741  )
        10           Ti  tau(  10) = (   2.7264672   3.2312023  14.4095461  )
        11           Cu  tau(  11) = (   4.0893923   0.8337663  14.4337943  )
        12           Cu  tau(  12) = (   1.3635440   0.8337660  14.4337790  )

     number of k points=    74  Fermi-Dirac smearing, width (Ry)=  0.0100
                       cart. coord. in units 2pi/alat
        k(    1) = (   0.0000000   0.0000000   0.0000000), wk =   0.0138889
        k(    2) = (   0.0000000   0.0175529   0.0000000), wk =   0.0277778
        k(    3) = (   0.0000000   0.0351057   0.0000000), wk =   0.0277778
        k(    4) = (   0.0000000   0.0526586   0.0000000), wk =   0.0277778
        k(    5) = (   0.0000000   0.0702115   0.0000000), wk =   0.0277778
        k(    6) = (   0.0000000   0.0877643   0.0000000), wk =   0.0277778
        k(    7) = (   0.0000000  -0.1053172   0.0000000), wk =   0.0138889
        k(    8) = (   0.0152823   0.0087764   0.0000000), wk =   0.0277778
        k(    9) = (   0.0152823   0.0263293   0.0000000), wk =   0.0277778
        k(   10) = (   0.0152823   0.0438822   0.0000000), wk =   0.0277778
        k(   11) = (   0.0152823   0.0614350   0.0000000), wk =   0.0277778
        k(   12) = (   0.0152823   0.0789879   0.0000000), wk =   0.0277778
        k(   13) = (   0.0152823   0.0965408   0.0000000), wk =   0.0277778
        k(   14) = (   0.0152823  -0.0965408   0.0000000), wk =   0.0277778
        k(   15) = (   0.0152823  -0.0789879   0.0000000), wk =   0.0277778
        k(   16) = (   0.0152823  -0.0614350   0.0000000), wk =   0.0277778
        k(   17) = (   0.0152823  -0.0438822   0.0000000), wk =   0.0277778
        k(   18) = (   0.0152823  -0.0263293   0.0000000), wk =   0.0277778
        k(   19) = (   0.0152823  -0.0087764   0.0000000), wk =   0.0277778
        k(   20) = (   0.0305647   0.0175529   0.0000000), wk =   0.0277778
        k(   21) = (   0.0305647   0.0351057   0.0000000), wk =   0.0277778
        k(   22) = (   0.0305647   0.0526586   0.0000000), wk =   0.0277778
        k(   23) = (   0.0305647   0.0702115   0.0000000), wk =   0.0277778
        k(   24) = (   0.0305647   0.0877643   0.0000000), wk =   0.0277778
        k(   25) = (   0.0305647   0.1053172   0.0000000), wk =   0.0277778
        k(   26) = (   0.0305647  -0.0877643   0.0000000), wk =   0.0277778
        k(   27) = (   0.0305647  -0.0702115   0.0000000), wk =   0.0277778
        k(   28) = (   0.0305647  -0.0526586   0.0000000), wk =   0.0277778
        k(   29) = (   0.0305647  -0.0351057   0.0000000), wk =   0.0277778
        k(   30) = (   0.0305647  -0.0175529   0.0000000), wk =   0.0277778
        k(   31) = (   0.0305647  -0.0000000   0.0000000), wk =   0.0277778
        k(   32) = (   0.0458470   0.0263293   0.0000000), wk =   0.0277778
        k(   33) = (   0.0458470   0.0438822   0.0000000), wk =   0.0277778
        k(   34) = (   0.0458470   0.0614350   0.0000000), wk =   0.0277778
        k(   35) = (   0.0458470   0.0789879   0.0000000), wk =   0.0277778
        k(   36) = (   0.0458470   0.0965408   0.0000000), wk =   0.0277778
        k(   37) = (   0.0458470   0.1140936   0.0000000), wk =   0.0277778
        k(   38) = (   0.0458470  -0.0789879   0.0000000), wk =   0.0277778
        k(   39) = (   0.0458470  -0.0614350   0.0000000), wk =   0.0277778
        k(   40) = (   0.0458470  -0.0438822   0.0000000), wk =   0.0277778
        k(   41) = (   0.0458470  -0.0263293   0.0000000), wk =   0.0277778
        k(   42) = (   0.0458470  -0.0087764   0.0000000), wk =   0.0277778
        k(   43) = (   0.0458470   0.0087764   0.0000000), wk =   0.0277778
        k(   44) = (   0.0611293   0.0351057   0.0000000), wk =   0.0277778
        k(   45) = (   0.0611293   0.0526586   0.0000000), wk =   0.0277778
        k(   46) = (   0.0611293   0.0702115   0.0000000), wk =   0.0277778
        k(   47) = (   0.0611293   0.0877643   0.0000000), wk =   0.0277778
        k(   48) = (   0.0611293   0.1053172   0.0000000), wk =   0.0277778
        k(   49) = (   0.0611293   0.1228701   0.0000000), wk =   0.0277778
        k(   50) = (   0.0611293  -0.0702115   0.0000000), wk =   0.0277778
        k(   51) = (   0.0611293  -0.0526586   0.0000000), wk =   0.0277778
        k(   52) = (   0.0611293  -0.0351057   0.0000000), wk =   0.0277778
        k(   53) = (   0.0611293  -0.0175529   0.0000000), wk =   0.0277778
        k(   54) = (   0.0611293   0.0000000   0.0000000), wk =   0.0277778
        k(   55) = (   0.0611293   0.0175529   0.0000000), wk =   0.0277778
        k(   56) = (   0.0764116   0.0438822   0.0000000), wk =   0.0277778
        k(   57) = (   0.0764116   0.0614350   0.0000000), wk =   0.0277778
        k(   58) = (   0.0764116   0.0789879   0.0000000), wk =   0.0277778
        k(   59) = (   0.0764116   0.0965408   0.0000000), wk =   0.0277778
        k(   60) = (   0.0764116   0.1140936   0.0000000), wk =   0.0277778
        k(   61) = (   0.0764116   0.1316465   0.0000000), wk =   0.0277778
        k(   62) = (   0.0764116  -0.0614350   0.0000000), wk =   0.0277778
        k(   63) = (   0.0764116  -0.0438822   0.0000000), wk =   0.0277778
        k(   64) = (   0.0764116  -0.0263293   0.0000000), wk =   0.0277778
        k(   65) = (   0.0764116  -0.0087764   0.0000000), wk =   0.0277778
        k(   66) = (   0.0764116   0.0087764   0.0000000), wk =   0.0277778
        k(   67) = (   0.0764116   0.0263293   0.0000000), wk =   0.0277778
        k(   68) = (  -0.0916940  -0.0526586   0.0000000), wk =   0.0138889
        k(   69) = (  -0.0916940  -0.0351057   0.0000000), wk =   0.0277778
        k(   70) = (  -0.0916940  -0.0175529   0.0000000), wk =   0.0277778
        k(   71) = (  -0.0916940   0.0000000   0.0000000), wk =   0.0277778
        k(   72) = (  -0.0916940   0.0175529   0.0000000), wk =   0.0277778
        k(   73) = (  -0.0916940   0.0351057   0.0000000), wk =   0.0277778
        k(   74) = (  -0.0916940  -0.1579758   0.0000000), wk =   0.0138889

     Check: negative core charge=   -0.000001

     Initial potential from superposition of free atoms

     starting charge  137.98974, renormalised to  138.00000

     negative rho (up, down):  8.644E-04 0.000E+00

     %%%%%%%%%%%%%%%%%%%%%%%%%%%%%%%%%%%%%%%%%%%%%%%%%%%%%%%%%%%%%%%%%%%%%%%%
     %                                                                      %
     % You are using vdW-DF, which was implemented by the Thonhauser group. %
     % Please cite the following two papers that made this development      %
     % possible and the two reviews that describe the various versions:     %
     %                                                                      %
     %   T. Thonhauser et al., PRL 115, 136402 (2015).                      %
     %   T. Thonhauser et al., PRB 76, 125112 (2007).                       %
     %   K. Berland et al., Rep. Prog. Phys. 78, 066501 (2015).             %
     %   D.C. Langreth et al., J. Phys.: Condens. Matter 21, 084203 (2009). %
     %                                                                      %
     %                                                                      %
     % If you are calculating the stress with vdW-DF, please also cite:     %
     %                                                                      %
     %   R. Sabatini et al., J. Phys.: Condens. Matter 24, 424209 (2012).   %
     %                                                                      %
     %%%%%%%%%%%%%%%%%%%%%%%%%%%%%%%%%%%%%%%%%%%%%%%%%%%%%%%%%%%%%%%%%%%%%%%%

     Adding external electric field

     Computed dipole along edir(3) :
        Dipole               -0.0001 Ry au,         -0.0001 Debye
        Dipole field         -0.0000 Ry au,

        Potential amp.        0.0000 Ry
        Total length         45.0746 bohr

     Starting wfcs are  114 randomized atomic wfcs

     Self-consistent Calculation

     iteration #  1     ecut=    55.12 Ry     beta= 0.10
     Davidson diagonalization with overlap
     ethr =  1.00E-02,  avg # of iterations =  2.0

[...]

     total energy              =   -1465.97765587 Ry
     estimated scf accuracy    <       4.69445944 Ry

[...]

     iteration #  9     ecut=    55.12 Ry     beta= 0.10
     Davidson diagonalization with overlap
     c_bands:  1 eigenvalues not converged
     ethr =  5.09E-06,  avg # of iterations =  9.9

[...]

     iteration # 14     ecut=    55.12 Ry     beta= 0.10
     Davidson diagonalization with overlap
     c_bands:  1 eigenvalues not converged
     c_bands:  1 eigenvalues not converged
     ethr =  4.55E-07,  avg # of iterations =  5.9

[...]

     total energy              =   -1466.43135850 Ry
     estimated scf accuracy    <       0.00005139 Ry

     iteration # 17     ecut=    55.12 Ry     beta= 0.10
     Davidson diagonalization with overlap
     ethr =  3.22E-08,  avg # of iterations =  2.3

[...]

     Adding external electric field

     Computed dipole along edir(3) :
        Dipole                0.0053 Ry au,          0.0135 Debye
        Dipole field          0.0000 Ry au,

        Potential amp.       -0.0014 Ry
        Total length         45.0746 bohr

     End of self-consistent calculation

          k = 0.0000 0.0000 0.0000 ( 29505 PWs)   bands (ev):

   -56.7359 -56.7281 -56.6546 -56.6468 -56.4966 -56.4146 -33.1274 -33.1103
   -33.1024 -33.0717 -33.0511 -33.0272 -33.0000 -32.9914 -32.9798 -32.9579
   -32.9089 -32.8172 -32.7404 -32.5667 -32.5054 -32.5025 -32.4996 -32.3885
    -6.5330  -4.9900  -4.0755  -3.7208  -3.6709  -3.6043  -3.5119  -3.5092
    -3.5077  -3.3565  -3.3047  -3.2785  -3.2556  -3.2237  -3.1251  -2.8895
    -2.8044  -2.6553  -2.6253  -2.6131  -2.6053  -2.5402  -2.4766  -2.4461
    -2.4330  -2.3947  -2.3386  -2.2925  -2.2583  -2.0762  -1.9994  -1.7906
    -1.6005  -0.7932  -0.5710  -0.5357  -0.4858  -0.3953  -0.1783  -0.1164
    -0.1163   0.2242   0.2331   0.3307   0.5660   0.6714   0.7587   0.9838
     1.0137   1.1380   1.5929   1.6401   1.6755   1.6960   1.9090   1.9286
     2.2553   2.2852   2.4842

[...]

          k = 0.0764 0.0263 0.0000 ( 29559 PWs)   bands (ev):

[...]

          k =-0.0917-0.0527 0.0000 ( 29590 PWs)   bands (ev):

[...]

          k =-0.0917-0.1580 0.0000 ( 29590 PWs)   bands (ev):

   -56.6955 -56.6953 -56.6877 -56.6875 -56.4558 -56.4557 -33.0900 -33.0900
   -33.0357 -33.0357 -32.9938 -32.9938 -32.9455 -32.9455 -32.8134 -32.8133
   -32.8067 -32.8064 -32.7792 -32.7791 -32.6954 -32.6954 -32.5350 -32.5347
    -4.9039  -4.9037  -3.7194  -3.7191  -3.2398  -3.2397  -3.2209  -3.2208
    -3.1467  -3.1466  -3.0096  -3.0096  -2.9416  -2.9416  -2.8556  -2.8555
    -2.7229  -2.7227  -2.6869  -2.6868  -2.5863  -2.5860  -2.5597  -2.5594
    -2.5413  -2.5412  -2.5053  -2.5052  -2.4501  -2.4499  -2.3908  -2.3907
    -2.2830  -2.2829  -1.4205  -1.4204  -0.6615  -0.6612  -0.2731  -0.2731
     0.2233   0.2236   0.4550   0.4553   0.7090   0.7093   0.8031   0.8034
     1.0920   1.0925   1.1768   1.1770   1.3265   1.3270   1.4711   1.4711
     1.7423   1.7425   2.2685

     the Fermi energy is     0.4738 ev

!    total energy              =   -1466.43128693 Ry
     estimated scf accuracy    <       0.00000661 Ry
     smearing contrib. (-TS)   =      -0.07711432 Ry
     internal energy E=F+TS    =   -1466.35417261 Ry

     The total energy is F=E-TS. E is the sum of the following terms:
     one-electron contribution =  -11317.94592435 Ry
     hartree contribution      =    5723.01863252 Ry
     xc contribution           =    -390.84925507 Ry
     ewald contribution        =    4519.42237421 Ry
     electric field correction =       0.00000008 Ry

     convergence has been achieved in  17 iterations

     negative rho (up, down):  6.843E-04 0.000E+00

     Forces acting on atoms (cartesian axes, Ry/au):

     atom    1 type  1   force =    -0.00000145   -0.00643729    0.00707230
     atom    2 type  1   force =    -0.00000130   -0.00645338    0.00704309
     atom    3 type  2   force =     0.00001124    0.00073980    0.00119157
     atom    4 type  2   force =    -0.00001407    0.00074526    0.00120192
     atom    5 type  1   force =    -0.00000041    0.00183616   -0.00326901
     atom    6 type  1   force =     0.00000005    0.00183224   -0.00325811
     atom    7 type  2   force =    -0.00010452    0.00341079   -0.00702672
     atom    8 type  2   force =     0.00010391    0.00340827   -0.00702154
     atom    9 type  1   force =     0.00000014   -0.00008242   -0.00128596
     atom   10 type  1   force =     0.00000427   -0.00011306   -0.00126513
     atom   11 type  2   force =     0.00001180    0.00055660    0.00330732
     atom   12 type  2   force =    -0.00000965    0.00055705    0.00331026

     Total force =     0.019038     Total SCF correction =     0.009463
     SCF correction compared to forces is large: reduce conv_thr to get better values

     Writing output data file ./Ti2Cu2/Ti2Cu2_beef.save/

     General routines

     Parallel routines

   This run was terminated on:   7:36:10  25Jun2022

   JOB DONE.