     Program PWSCF v.6.6 starts on 25Jun2022 at  5:32:38

     R & G space division:  proc/nbgrp/npool/nimage =      37
     Fft bands division:     nmany     =       1
     Reading input from Ti2Cr2.in
Warning: card &CELL ignored
Warning: card / ignored

     Current dimensions of program PWSCF are:
     Max number of different atomic species (ntypx) = 10
     Max number of k-points (npk) =  40000
     Max angular momentum in pseudopotentials (lmaxx) =  3
     Presently stress not available with electric field and gates

     Message from routine cell_base_init:
     DEPRECATED: use true lattice parameter, not A to a.u. conversion factor
     file Ti.pbe-spn-rrkjus_psl.1.0.0.UPF: wavefunction(s)  3S 3D renormalized
     file Cr.pbe-spn-rrkjus_psl.1.0.0.UPF: wavefunction(s)  3P renormalized

     IMPORTANT: XC functional enforced from input :
     Exchange-correlation= BEEF-VDW
                           (   1   4  43  14   2   0   0)
     Any further DFT definition will be discarded
     Please, verify this is what you really want

     Subspace diagonalization in iterative solution of the eigenvalue problem:
     a serial algorithm will be used

     Found symmetry operation: I + ( -0.5000  0.5000  0.0000)
     This is a supercell, fractional translations are disabled

     bravais-lattice index     =            0
     lattice parameter (alat)  =       1.8897  a.u.
     unit-cell volume          =    4278.0149 (a.u.)^3
     number of atoms/cell      =           12
     number of atomic types    =            2
     number of electrons       =       156.00
     number of Kohn-Sham states=           94
     kinetic-energy cutoff     =      55.1240  Ry
     charge density cutoff     =     551.2396  Ry
     convergence threshold     =      1.0E-05
     mixing beta               =       0.1000
     number of iterations used =           10  plain     mixing
     Exchange-correlation= BEEF-VDW
                           (   1   4  43  14   2   0   0)

     celldm(1)=   1.889726  celldm(2)=   0.000000  celldm(3)=   0.000000
     celldm(4)=   0.000000  celldm(5)=   0.000000  celldm(6)=   0.000000

     crystal axes: (cart. coord. in units of alat)
               a(1) = (   5.260940   0.000000   0.000000 )
               a(2) = (   1.754872   4.959629   0.000000 )
               a(3) = (   0.000000   0.000000  24.295914 )

     reciprocal axes: (cart. coord. in units 2 pi/alat)
               b(1) = (  0.190080 -0.067256  0.000000 )
               b(2) = (  0.000000  0.201628  0.000000 )
               b(3) = (  0.000000  0.000000  0.041159 )

     PseudoPot. # 1 for Ti read from file:
     ../pseudo/Ti.pbe-spn-rrkjus_psl.1.0.0.UPF
     MD5 check sum: e281089c08e14b8efcf92e44a67ada65
     Pseudo is Ultrasoft + core correction, Zval = 12.0
     Generated using "atomic" code by A. Dal Corso v.6.2.2
     Using radial grid of 1177 points,  6 beta functions with:
                l(1) =   0
                l(2) =   0
                l(3) =   1
                l(4) =   1
                l(5) =   2
                l(6) =   2
     Q(r) pseudized with 0 coefficients

     PseudoPot. # 2 for Cr read from file:
     ../pseudo/Cr.pbe-spn-rrkjus_psl.1.0.0.UPF
     MD5 check sum: 793d051e4f89dd1e3290b85340a92c0a
     Pseudo is Ultrasoft + core correction, Zval = 14.0
     Generated using "atomic" code by A. Dal Corso v.6.2.2
     Using radial grid of 1183 points,  6 beta functions with:
                l(1) =   0
                l(2) =   0
                l(3) =   1
                l(4) =   1
                l(5) =   2
                l(6) =   2
     Q(r) pseudized with 0 coefficients

     atomic species   valence    mass     pseudopotential
        Ti            12.00    47.86700     Ti( 1.00)
        Cr            14.00    51.99610     Cr( 1.00)

     No symmetry found

   Cartesian axes

     site n.     atom                  positions (alat units)
         1           Ti  tau(   1) = (   0.0000000   0.0000000  10.0000000  )
         2           Ti  tau(   2) = (   3.5079061   2.4798144  10.0000000  )
         3           Cr  tau(   3) = (   2.6304702   0.0000000  10.0000000  )
         4           Cr  tau(   4) = (   0.8774359   2.4798144  10.0000000  )
         5           Ti  tau(   5) = (   5.2609404   3.7190721  12.1479572  )
         6           Ti  tau(   6) = (   1.7530343   1.2392577  12.1479572  )
         7           Cr  tau(   7) = (   2.6304702   3.7190721  12.1479572  )
         8           Cr  tau(   8) = (   4.3835045   1.2392577  12.1479572  )
         9           Ti  tau(   9) = (   3.5066335   2.4788942  14.2483695  )
        10           Ti  tau(  10) = (   7.0145229   4.9587374  14.2483697  )
        11           Cr  tau(  11) = (   6.1367379   2.4786546  14.1680337  )
        12           Cr  tau(  12) = (   4.3837175   4.9584803  14.1680281  )

     number of k points=    74  Fermi-Dirac smearing, width (Ry)=  0.0100
                       cart. coord. in units 2pi/alat
        k(    1) = (   0.0000000   0.0000000   0.0000000), wk =   0.0138889
        k(    2) = (   0.0000000   0.0168023   0.0000000), wk =   0.0277778
        k(    3) = (   0.0000000   0.0336047   0.0000000), wk =   0.0277778
        k(    4) = (   0.0000000   0.0504070   0.0000000), wk =   0.0277778
        k(    5) = (   0.0000000   0.0672093   0.0000000), wk =   0.0277778
        k(    6) = (   0.0000000   0.0840117   0.0000000), wk =   0.0277778
        k(    7) = (   0.0000000  -0.1008140   0.0000000), wk =   0.0138889
        k(    8) = (   0.0158400  -0.0056047   0.0000000), wk =   0.0277778
        k(    9) = (   0.0158400   0.0111976   0.0000000), wk =   0.0277778
        k(   10) = (   0.0158400   0.0280000   0.0000000), wk =   0.0277778
        k(   11) = (   0.0158400   0.0448023   0.0000000), wk =   0.0277778
        k(   12) = (   0.0158400   0.0616046   0.0000000), wk =   0.0277778
        k(   13) = (   0.0158400   0.0784070   0.0000000), wk =   0.0277778
        k(   14) = (   0.0158400  -0.1064187   0.0000000), wk =   0.0277778
        k(   15) = (   0.0158400  -0.0896164   0.0000000), wk =   0.0277778
        k(   16) = (   0.0158400  -0.0728140   0.0000000), wk =   0.0277778
        k(   17) = (   0.0158400  -0.0560117   0.0000000), wk =   0.0277778
        k(   18) = (   0.0158400  -0.0392094   0.0000000), wk =   0.0277778
        k(   19) = (   0.0158400  -0.0224070   0.0000000), wk =   0.0277778
        k(   20) = (   0.0316800  -0.0112094   0.0000000), wk =   0.0277778
        k(   21) = (   0.0316800   0.0055930   0.0000000), wk =   0.0277778
        k(   22) = (   0.0316800   0.0223953   0.0000000), wk =   0.0277778
        k(   23) = (   0.0316800   0.0391976   0.0000000), wk =   0.0277778
        k(   24) = (   0.0316800   0.0559999   0.0000000), wk =   0.0277778
        k(   25) = (   0.0316800   0.0728023   0.0000000), wk =   0.0277778
        k(   26) = (   0.0316800  -0.1120234   0.0000000), wk =   0.0277778
        k(   27) = (   0.0316800  -0.0952210   0.0000000), wk =   0.0277778
        k(   28) = (   0.0316800  -0.0784187   0.0000000), wk =   0.0277778
        k(   29) = (   0.0316800  -0.0616164   0.0000000), wk =   0.0277778
        k(   30) = (   0.0316800  -0.0448140   0.0000000), wk =   0.0277778
        k(   31) = (   0.0316800  -0.0280117   0.0000000), wk =   0.0277778
        k(   32) = (   0.0475200  -0.0168141   0.0000000), wk =   0.0277778
        k(   33) = (   0.0475200  -0.0000117   0.0000000), wk =   0.0277778
        k(   34) = (   0.0475200   0.0167906   0.0000000), wk =   0.0277778
        k(   35) = (   0.0475200   0.0335929   0.0000000), wk =   0.0277778
        k(   36) = (   0.0475200   0.0503953   0.0000000), wk =   0.0277778
        k(   37) = (   0.0475200   0.0671976   0.0000000), wk =   0.0277778
        k(   38) = (   0.0475200  -0.1176281   0.0000000), wk =   0.0277778
        k(   39) = (   0.0475200  -0.1008257   0.0000000), wk =   0.0277778
        k(   40) = (   0.0475200  -0.0840234   0.0000000), wk =   0.0277778
        k(   41) = (   0.0475200  -0.0672211   0.0000000), wk =   0.0277778
        k(   42) = (   0.0475200  -0.0504187   0.0000000), wk =   0.0277778
        k(   43) = (   0.0475200  -0.0336164   0.0000000), wk =   0.0277778
        k(   44) = (   0.0633600  -0.0224188   0.0000000), wk =   0.0277778
        k(   45) = (   0.0633600  -0.0056164   0.0000000), wk =   0.0277778
        k(   46) = (   0.0633600   0.0111859   0.0000000), wk =   0.0277778
        k(   47) = (   0.0633600   0.0279882   0.0000000), wk =   0.0277778
        k(   48) = (   0.0633600   0.0447906   0.0000000), wk =   0.0277778
        k(   49) = (   0.0633600   0.0615929   0.0000000), wk =   0.0277778
        k(   50) = (   0.0633600  -0.1232328   0.0000000), wk =   0.0277778
        k(   51) = (   0.0633600  -0.1064304   0.0000000), wk =   0.0277778
        k(   52) = (   0.0633600  -0.0896281   0.0000000), wk =   0.0277778
        k(   53) = (   0.0633600  -0.0728258   0.0000000), wk =   0.0277778
        k(   54) = (   0.0633600  -0.0560234   0.0000000), wk =   0.0277778
        k(   55) = (   0.0633600  -0.0392211   0.0000000), wk =   0.0277778
        k(   56) = (   0.0792000  -0.0280235   0.0000000), wk =   0.0277778
        k(   57) = (   0.0792000  -0.0112211   0.0000000), wk =   0.0277778
        k(   58) = (   0.0792000   0.0055812   0.0000000), wk =   0.0277778
        k(   59) = (   0.0792000   0.0223835   0.0000000), wk =   0.0277778
        k(   60) = (   0.0792000   0.0391859   0.0000000), wk =   0.0277778
        k(   61) = (   0.0792000   0.0559882   0.0000000), wk =   0.0277778
        k(   62) = (   0.0792000  -0.1288374   0.0000000), wk =   0.0277778
        k(   63) = (   0.0792000  -0.1120351   0.0000000), wk =   0.0277778
        k(   64) = (   0.0792000  -0.0952328   0.0000000), wk =   0.0277778
        k(   65) = (   0.0792000  -0.0784305   0.0000000), wk =   0.0277778
        k(   66) = (   0.0792000  -0.0616281   0.0000000), wk =   0.0277778
        k(   67) = (   0.0792000  -0.0448258   0.0000000), wk =   0.0277778
        k(   68) = (  -0.0950400   0.0336281   0.0000000), wk =   0.0138889
        k(   69) = (  -0.0950400   0.0504305   0.0000000), wk =   0.0277778
        k(   70) = (  -0.0950400   0.0672328   0.0000000), wk =   0.0277778
        k(   71) = (  -0.0950400   0.0840351   0.0000000), wk =   0.0277778
        k(   72) = (  -0.0950400   0.1008375   0.0000000), wk =   0.0277778
        k(   73) = (  -0.0950400   0.1176398   0.0000000), wk =   0.0277778
        k(   74) = (  -0.0950400  -0.0671858   0.0000000), wk =   0.0138889

     Check: negative core charge=   -0.000002

     Initial potential from superposition of free atoms

     starting charge  155.98649, renormalised to  156.00000

     negative rho (up, down):  3.403E-03 0.000E+00

     %%%%%%%%%%%%%%%%%%%%%%%%%%%%%%%%%%%%%%%%%%%%%%%%%%%%%%%%%%%%%%%%%%%%%%%%
     %                                                                      %
     % You are using vdW-DF, which was implemented by the Thonhauser group. %
     % Please cite the following two papers that made this development      %
     % possible and the two reviews that describe the various versions:     %
     %                                                                      %
     %   T. Thonhauser et al., PRL 115, 136402 (2015).                      %
     %   T. Thonhauser et al., PRB 76, 125112 (2007).                       %
     %   K. Berland et al., Rep. Prog. Phys. 78, 066501 (2015).             %
     %   D.C. Langreth et al., J. Phys.: Condens. Matter 21, 084203 (2009). %
     %                                                                      %
     %                                                                      %
     % If you are calculating the stress with vdW-DF, please also cite:     %
     %                                                                      %
     %   R. Sabatini et al., J. Phys.: Condens. Matter 24, 424209 (2012).   %
     %                                                                      %
     %%%%%%%%%%%%%%%%%%%%%%%%%%%%%%%%%%%%%%%%%%%%%%%%%%%%%%%%%%%%%%%%%%%%%%%%

     Adding external electric field

     Computed dipole along edir(3) :
        Dipole                0.0001 Ry au,          0.0003 Debye
        Dipole field          0.0000 Ry au,

        Potential amp.       -0.0000 Ry
        Total length         44.7648 bohr

     Starting wfcs are  120 randomized atomic wfcs

     Self-consistent Calculation

     iteration #  1     ecut=    55.12 Ry     beta= 0.10
     Davidson diagonalization with overlap
     ethr =  1.00E-02,  avg # of iterations =  2.2

[...]

     total energy              =   -1775.42768082 Ry
     estimated scf accuracy    <      13.37327947 Ry

[...]

     iteration # 10     ecut=    55.12 Ry     beta= 0.10
     Davidson diagonalization with overlap
     c_bands:  1 eigenvalues not converged
     c_bands:  1 eigenvalues not converged
     c_bands:  4 eigenvalues not converged
     c_bands:  1 eigenvalues not converged
     c_bands:  1 eigenvalues not converged
     c_bands:  1 eigenvalues not converged
     c_bands:  1 eigenvalues not converged
     c_bands:  3 eigenvalues not converged
     c_bands:  1 eigenvalues not converged
     c_bands:  1 eigenvalues not converged
     c_bands:  2 eigenvalues not converged
     c_bands:  1 eigenvalues not converged
     c_bands:  2 eigenvalues not converged
     c_bands:  1 eigenvalues not converged
     c_bands:  2 eigenvalues not converged
     c_bands:  2 eigenvalues not converged
     c_bands:  1 eigenvalues not converged
     c_bands:  1 eigenvalues not converged
     c_bands:  2 eigenvalues not converged
     c_bands:  3 eigenvalues not converged
     c_bands:  1 eigenvalues not converged
     c_bands:  1 eigenvalues not converged
     c_bands:  2 eigenvalues not converged
     c_bands:  3 eigenvalues not converged
     c_bands:  2 eigenvalues not converged
     c_bands:  2 eigenvalues not converged
     c_bands:  2 eigenvalues not converged
     c_bands:  2 eigenvalues not converged
     c_bands:  3 eigenvalues not converged
     c_bands:  1 eigenvalues not converged
     c_bands:  1 eigenvalues not converged
     c_bands:  3 eigenvalues not converged
     c_bands:  1 eigenvalues not converged
     c_bands:  1 eigenvalues not converged
     ethr =  2.30E-05,  avg # of iterations = 15.7

[...]

     iteration # 24     ecut=    55.12 Ry     beta= 0.10
     Davidson diagonalization with overlap
     c_bands:  1 eigenvalues not converged
     ethr =  1.28E-08,  avg # of iterations =  6.7

[...]

     total energy              =   -1776.77742098 Ry
     estimated scf accuracy    <       0.00004259 Ry

     iteration # 25     ecut=    55.12 Ry     beta= 0.10
     Davidson diagonalization with overlap
     ethr =  1.28E-08,  avg # of iterations =  1.8

[...]

     Adding external electric field

     Computed dipole along edir(3) :
        Dipole                0.0330 Ry au,          0.0838 Debye
        Dipole field          0.0001 Ry au,

        Potential amp.       -0.0087 Ry
        Total length         44.7648 bohr

     End of self-consistent calculation

          k = 0.0000 0.0000 0.0000 ( 29623 PWs)   bands (ev):

   -70.4951 -70.4874 -70.4296 -70.4227 -70.4076 -70.4007 -55.8377 -55.8161
   -55.8135 -55.7916 -55.4274 -55.4038 -41.8476 -41.8445 -41.8334 -41.8241
   -41.8023 -41.7960 -41.7806 -41.7673 -41.7669 -41.7539 -41.7518 -41.6947
   -41.6869 -41.6782 -41.6778 -41.6775 -41.6647 -41.6637 -32.1626 -32.1485
   -32.1370 -32.1353 -32.1291 -32.1135 -32.0333 -32.0220 -32.0145 -31.9981
   -31.9365 -31.9112 -31.7671 -31.6819 -31.6611 -31.6501 -31.6438 -31.5370
    -4.9656  -3.4161  -2.3642  -2.0656  -1.8994  -1.7933  -1.7603  -1.7576
    -1.6653  -1.6362  -1.2763  -1.1798  -0.9841  -0.4050  -0.3076  -0.2083
    -0.2058  -0.2039  -0.1901  -0.1864  -0.1596   0.0858   0.3070   0.4340
     0.5240   0.5942   0.8825   0.9285   1.0298   1.2357   1.2840   1.3772
     1.5306   1.5517   1.9484   2.0843   2.4945   2.5990   2.6315   2.6329
     2.6428   2.6853   2.7614   2.7798   2.8486   2.9645

[...]

          k = 0.0792-0.0448 0.0000 ( 29557 PWs)   bands (ev):

[...]

          k =-0.0950 0.0336 0.0000 ( 29626 PWs)   bands (ev):

[...]

          k =-0.0950-0.0672 0.0000 ( 29502 PWs)   bands (ev):

   -70.4945 -70.4879 -70.4296 -70.4226 -70.4078 -70.4004 -55.8387 -55.8169
   -55.8145 -55.7927 -55.4296 -55.4034 -41.8432 -41.8335 -41.8281 -41.8183
   -41.8063 -41.7985 -41.7756 -41.7610 -41.7605 -41.7604 -41.7472 -41.6905
   -41.6787 -41.6781 -41.6725 -41.6684 -41.6645 -41.6644 -32.1771 -32.1646
   -32.1512 -32.1315 -32.1292 -32.1083 -32.0664 -32.0379 -32.0298 -32.0093
   -31.9401 -31.9148 -31.7795 -31.6791 -31.6672 -31.6595 -31.6536 -31.5412
    -2.9540  -2.9142  -1.7976  -1.7621  -1.6356  -1.5297  -1.1654  -1.1419
    -0.8639  -0.7773  -0.4372  -0.3833  -0.3163  -0.2827  -0.2744  -0.1953
    -0.1117  -0.0580  -0.0061   0.2077   0.2246   0.3200   0.3278   0.4453
     0.5667   0.6775   0.6955   0.7510   0.8018   0.8475   0.8910   0.8934
     0.9512   1.0702   1.1107   1.1140   1.3048   1.3081   1.5456   1.6783
     1.7292   1.7924   2.0827   2.2813   2.3290   2.4060

     the Fermi energy is     0.8669 ev

!    total energy              =   -1776.77742341 Ry
     estimated scf accuracy    <       0.00000713 Ry
     smearing contrib. (-TS)   =      -0.10133882 Ry
     internal energy E=F+TS    =   -1776.67608459 Ry

     The total energy is F=E-TS. E is the sum of the following terms:
     one-electron contribution =  -14735.42509923 Ry
     hartree contribution      =    7356.62060384 Ry
     xc contribution           =    -254.38888220 Ry
     ewald contribution        =    5856.51728980 Ry
     electric field correction =       0.00000319 Ry

     convergence has been achieved in  25 iterations

     negative rho (up, down):  3.075E-03 0.000E+00

     Forces acting on atoms (cartesian axes, Ry/au):

     atom    1 type  1   force =    -0.00006784   -0.00005455    0.00254605
     atom    2 type  1   force =    -0.00007720   -0.00004843    0.00256641
     atom    3 type  2   force =    -0.00003110   -0.00002766    0.01514236
     atom    4 type  2   force =    -0.00000979   -0.00000385    0.01519118
     atom    5 type  1   force =     0.00002780    0.00003228   -0.01733085
     atom    6 type  1   force =     0.00002932    0.00000715   -0.01733241
     atom    7 type  2   force =    -0.00011624    0.00021751   -0.00252228
     atom    8 type  2   force =     0.00015955   -0.00018522   -0.00253144
     atom    9 type  1   force =     0.00000762    0.00002247   -0.00020676
     atom   10 type  1   force =     0.00002389   -0.00000221   -0.00020594
     atom   11 type  2   force =     0.00002094    0.00005069    0.00237028
     atom   12 type  2   force =     0.00003305   -0.00000817    0.00231341

     Total force =     0.033134     Total SCF correction =     0.008702
     SCF correction compared to forces is large: reduce conv_thr to get better values

     Writing output data file ./Ti2Cr2/Ti2Cr2_beef.save/

     General routines

     Parallel routines

   This run was terminated on:   6:49:47  25Jun2022

   JOB DONE.