     Program PWSCF v.6.6 starts on 27Jun2022 at  7:26:47

     R & G space division:  proc/nbgrp/npool/nimage =      37
     Fft bands division:     nmany     =       1
     Reading input from Ti2Hf2.in
Warning: card &CELL ignored
Warning: card / ignored

     Current dimensions of program PWSCF are:
     Max number of different atomic species (ntypx) = 10
     Max number of k-points (npk) =  40000
     Max angular momentum in pseudopotentials (lmaxx) =  3
     Presently stress not available with electric field and gates

     Message from routine cell_base_init:
     DEPRECATED: use true lattice parameter, not A to a.u. conversion factor
     file Ti.pbe-spn-rrkjus_psl.1.0.0.UPF: wavefunction(s)  3S 3D renormalized

     IMPORTANT: XC functional enforced from input :
     Exchange-correlation= BEEF-VDW
                           (   1   4  43  14   2   0   0)
     Any further DFT definition will be discarded
     Please, verify this is what you really want

     Subspace diagonalization in iterative solution of the eigenvalue problem:
     a serial algorithm will be used

     bravais-lattice index     =            0
     lattice parameter (alat)  =       1.8897  a.u.
     unit-cell volume          =    5404.5623 (a.u.)^3
     number of atoms/cell      =           12
     number of atomic types    =            2
     number of electrons       =       144.00
     number of Kohn-Sham states=           86
     kinetic-energy cutoff     =      55.1240  Ry
     charge density cutoff     =     551.2396  Ry
     convergence threshold     =      1.0E-05
     mixing beta               =       0.1000
     number of iterations used =           10  plain     mixing
     Exchange-correlation= BEEF-VDW
                           (   1   4  43  14   2   0   0)

     celldm(1)=   1.889726  celldm(2)=   0.000000  celldm(3)=   0.000000
     celldm(4)=   0.000000  celldm(5)=   0.000000  celldm(6)=   0.000000

     crystal axes: (cart. coord. in units of alat)
               a(1) = (   6.027650   0.000000   0.000000 )
               a(2) = (   2.829083   5.322486   0.000000 )
               a(3) = (   0.000000   0.000000  24.963269 )

     reciprocal axes: (cart. coord. in units 2 pi/alat)
               b(1) = (  0.165902 -0.088183  0.000000 )
               b(2) = (  0.000000  0.187882  0.000000 )
               b(3) = (  0.000000  0.000000  0.040059 )

     PseudoPot. # 1 for Ti read from file:
     ../pseudo/Ti.pbe-spn-rrkjus_psl.1.0.0.UPF
     MD5 check sum: e281089c08e14b8efcf92e44a67ada65
     Pseudo is Ultrasoft + core correction, Zval = 12.0
     Generated using "atomic" code by A. Dal Corso v.6.2.2
     Using radial grid of 1177 points,  6 beta functions with:
                l(1) =   0
                l(2) =   0
                l(3) =   1
                l(4) =   1
                l(5) =   2
                l(6) =   2
     Q(r) pseudized with 0 coefficients

     PseudoPot. # 2 for Hf read from file:
     ../pseudo/Hf.pbe-spn-rrkjus_psl.1.0.0.UPF
     MD5 check sum: 9605440c6f839e558204c6a924125fd0
     Pseudo is Ultrasoft + core correction, Zval = 12.0
     Generated using "atomic" code by A. Dal Corso v.6.2.2
     Using radial grid of 1271 points,  6 beta functions with:
                l(1) =   0
                l(2) =   0
                l(3) =   1
                l(4) =   1
                l(5) =   2
                l(6) =   2
     Q(r) pseudized with 0 coefficients

     atomic species   valence    mass     pseudopotential
        Ti            12.00    47.86700     Ti( 1.00)
        Hf            12.00   178.49000     Hf( 1.00)

     No symmetry found

   Cartesian axes

     site n.     atom                  positions (alat units)
         1           Ti  tau(   1) = (   0.0000000   0.0000000  10.0000000  )
         2           Ti  tau(   2) = (   4.4283662   2.6612429  10.0000000  )
         3           Hf  tau(   3) = (   3.0138249   0.0000000  10.0000000  )
         4           Hf  tau(   4) = (   1.4145413   2.6612429  10.0000000  )
         5           Ti  tau(   5) = (   6.0276498   3.6223382  12.4816344  )
         6           Ti  tau(   6) = (   1.5992836   0.9610954  12.4816344  )
         7           Hf  tau(   7) = (   3.0138249   3.6223382  12.4816344  )
         8           Hf  tau(   8) = (   4.6131085   0.9610954  12.4816344  )
         9           Ti  tau(   9) = (   3.1269811   1.8791696  14.7950389  )
        10           Ti  tau(  10) = (   7.5553915   4.5404408  14.7949873  )
        11           Hf  tau(  11) = (   6.2139874   1.9232213  14.8603018  )
        12           Hf  tau(  12) = (   4.6147659   4.5843543  14.8603018  )

     number of k points=    74  Fermi-Dirac smearing, width (Ry)=  0.0100
                       cart. coord. in units 2pi/alat
        k(    1) = (   0.0000000   0.0000000   0.0000000), wk =   0.0138889
        k(    2) = (   0.0000000   0.0156568   0.0000000), wk =   0.0277778
        k(    3) = (   0.0000000   0.0313137   0.0000000), wk =   0.0277778
        k(    4) = (   0.0000000   0.0469705   0.0000000), wk =   0.0277778
        k(    5) = (   0.0000000   0.0626274   0.0000000), wk =   0.0277778
        k(    6) = (   0.0000000   0.0782842   0.0000000), wk =   0.0277778
        k(    7) = (   0.0000000  -0.0939411   0.0000000), wk =   0.0138889
        k(    8) = (   0.0138252  -0.0073486   0.0000000), wk =   0.0277778
        k(    9) = (   0.0138252   0.0083083   0.0000000), wk =   0.0277778
        k(   10) = (   0.0138252   0.0239651   0.0000000), wk =   0.0277778
        k(   11) = (   0.0138252   0.0396220   0.0000000), wk =   0.0277778
        k(   12) = (   0.0138252   0.0552788   0.0000000), wk =   0.0277778
        k(   13) = (   0.0138252   0.0709357   0.0000000), wk =   0.0277778
        k(   14) = (   0.0138252  -0.1012896   0.0000000), wk =   0.0277778
        k(   15) = (   0.0138252  -0.0856328   0.0000000), wk =   0.0277778
        k(   16) = (   0.0138252  -0.0699759   0.0000000), wk =   0.0277778
        k(   17) = (   0.0138252  -0.0543191   0.0000000), wk =   0.0277778
        k(   18) = (   0.0138252  -0.0386622   0.0000000), wk =   0.0277778
        k(   19) = (   0.0138252  -0.0230054   0.0000000), wk =   0.0277778
        k(   20) = (   0.0276504  -0.0146971   0.0000000), wk =   0.0277778
        k(   21) = (   0.0276504   0.0009597   0.0000000), wk =   0.0277778
        k(   22) = (   0.0276504   0.0166166   0.0000000), wk =   0.0277778
        k(   23) = (   0.0276504   0.0322734   0.0000000), wk =   0.0277778
        k(   24) = (   0.0276504   0.0479303   0.0000000), wk =   0.0277778
        k(   25) = (   0.0276504   0.0635871   0.0000000), wk =   0.0277778
        k(   26) = (   0.0276504  -0.1086382   0.0000000), wk =   0.0277778
        k(   27) = (   0.0276504  -0.0929813   0.0000000), wk =   0.0277778
        k(   28) = (   0.0276504  -0.0773245   0.0000000), wk =   0.0277778
        k(   29) = (   0.0276504  -0.0616676   0.0000000), wk =   0.0277778
        k(   30) = (   0.0276504  -0.0460108   0.0000000), wk =   0.0277778
        k(   31) = (   0.0276504  -0.0303540   0.0000000), wk =   0.0277778
        k(   32) = (   0.0414755  -0.0220457   0.0000000), wk =   0.0277778
        k(   33) = (   0.0414755  -0.0063888   0.0000000), wk =   0.0277778
        k(   34) = (   0.0414755   0.0092680   0.0000000), wk =   0.0277778
        k(   35) = (   0.0414755   0.0249249   0.0000000), wk =   0.0277778
        k(   36) = (   0.0414755   0.0405817   0.0000000), wk =   0.0277778
        k(   37) = (   0.0414755   0.0562386   0.0000000), wk =   0.0277778
        k(   38) = (   0.0414755  -0.1159867   0.0000000), wk =   0.0277778
        k(   39) = (   0.0414755  -0.1003299   0.0000000), wk =   0.0277778
        k(   40) = (   0.0414755  -0.0846730   0.0000000), wk =   0.0277778
        k(   41) = (   0.0414755  -0.0690162   0.0000000), wk =   0.0277778
        k(   42) = (   0.0414755  -0.0533594   0.0000000), wk =   0.0277778
        k(   43) = (   0.0414755  -0.0377025   0.0000000), wk =   0.0277778
        k(   44) = (   0.0553007  -0.0293942   0.0000000), wk =   0.0277778
        k(   45) = (   0.0553007  -0.0137374   0.0000000), wk =   0.0277778
        k(   46) = (   0.0553007   0.0019195   0.0000000), wk =   0.0277778
        k(   47) = (   0.0553007   0.0175763   0.0000000), wk =   0.0277778
        k(   48) = (   0.0553007   0.0332332   0.0000000), wk =   0.0277778
        k(   49) = (   0.0553007   0.0488900   0.0000000), wk =   0.0277778
        k(   50) = (   0.0553007  -0.1233353   0.0000000), wk =   0.0277778
        k(   51) = (   0.0553007  -0.1076784   0.0000000), wk =   0.0277778
        k(   52) = (   0.0553007  -0.0920216   0.0000000), wk =   0.0277778
        k(   53) = (   0.0553007  -0.0763647   0.0000000), wk =   0.0277778
        k(   54) = (   0.0553007  -0.0607079   0.0000000), wk =   0.0277778
        k(   55) = (   0.0553007  -0.0450511   0.0000000), wk =   0.0277778
        k(   56) = (   0.0691259  -0.0367428   0.0000000), wk =   0.0277778
        k(   57) = (   0.0691259  -0.0210859   0.0000000), wk =   0.0277778
        k(   58) = (   0.0691259  -0.0054291   0.0000000), wk =   0.0277778
        k(   59) = (   0.0691259   0.0102278   0.0000000), wk =   0.0277778
        k(   60) = (   0.0691259   0.0258846   0.0000000), wk =   0.0277778
        k(   61) = (   0.0691259   0.0415415   0.0000000), wk =   0.0277778
        k(   62) = (   0.0691259  -0.1306838   0.0000000), wk =   0.0277778
        k(   63) = (   0.0691259  -0.1150270   0.0000000), wk =   0.0277778
        k(   64) = (   0.0691259  -0.0993701   0.0000000), wk =   0.0277778
        k(   65) = (   0.0691259  -0.0837133   0.0000000), wk =   0.0277778
        k(   66) = (   0.0691259  -0.0680565   0.0000000), wk =   0.0277778
        k(   67) = (   0.0691259  -0.0523996   0.0000000), wk =   0.0277778
        k(   68) = (  -0.0829511   0.0440913   0.0000000), wk =   0.0138889
        k(   69) = (  -0.0829511   0.0597482   0.0000000), wk =   0.0277778
        k(   70) = (  -0.0829511   0.0754050   0.0000000), wk =   0.0277778
        k(   71) = (  -0.0829511   0.0910619   0.0000000), wk =   0.0277778
        k(   72) = (  -0.0829511   0.1067187   0.0000000), wk =   0.0277778
        k(   73) = (  -0.0829511   0.1223755   0.0000000), wk =   0.0277778
        k(   74) = (  -0.0829511  -0.0498497   0.0000000), wk =   0.0138889

     Initial potential from superposition of free atoms

     starting charge  143.97950, renormalised to  144.00000

     negative rho (up, down):  9.758E-04 0.000E+00

     %%%%%%%%%%%%%%%%%%%%%%%%%%%%%%%%%%%%%%%%%%%%%%%%%%%%%%%%%%%%%%%%%%%%%%%%
     %                                                                      %
     % You are using vdW-DF, which was implemented by the Thonhauser group. %
     % Please cite the following two papers that made this development      %
     % possible and the two reviews that describe the various versions:     %
     %                                                                      %
     %   T. Thonhauser et al., PRL 115, 136402 (2015).                      %
     %   T. Thonhauser et al., PRB 76, 125112 (2007).                       %
     %   K. Berland et al., Rep. Prog. Phys. 78, 066501 (2015).             %
     %   D.C. Langreth et al., J. Phys.: Condens. Matter 21, 084203 (2009). %
     %                                                                      %
     %                                                                      %
     % If you are calculating the stress with vdW-DF, please also cite:     %
     %                                                                      %
     %   R. Sabatini et al., J. Phys.: Condens. Matter 24, 424209 (2012).   %
     %                                                                      %
     %%%%%%%%%%%%%%%%%%%%%%%%%%%%%%%%%%%%%%%%%%%%%%%%%%%%%%%%%%%%%%%%%%%%%%%%

     Adding external electric field

     Computed dipole along edir(3) :
        Dipole                0.0001 Ry au,          0.0001 Debye
        Dipole field          0.0000 Ry au,

        Potential amp.       -0.0000 Ry
        Total length         45.9944 bohr

     Starting wfcs are  120 randomized atomic wfcs

     Self-consistent Calculation

     iteration #  1     ecut=    55.12 Ry     beta= 0.10
     Davidson diagonalization with overlap
     ethr =  1.00E-02,  avg # of iterations =  2.3

[...]

     total energy              =   -1478.12233439 Ry
     estimated scf accuracy    <       9.99753844 Ry

[...]

     iteration # 12     ecut=    55.12 Ry     beta= 0.10
     Davidson diagonalization with overlap
     c_bands:  1 eigenvalues not converged
     c_bands:  1 eigenvalues not converged
     c_bands:  2 eigenvalues not converged
     c_bands:  1 eigenvalues not converged
     ethr =  1.18E-05,  avg # of iterations =  8.3

[...]

     iteration # 17     ecut=    55.12 Ry     beta= 0.10
     Davidson diagonalization with overlap
     c_bands:  1 eigenvalues not converged
     ethr =  3.02E-06,  avg # of iterations =  1.6

[...]

     total energy              =   -1479.26453845 Ry
     estimated scf accuracy    <       0.00009219 Ry

     iteration # 22     ecut=    55.12 Ry     beta= 0.10
     Davidson diagonalization with overlap
     ethr =  6.40E-08,  avg # of iterations =  2.5

[...]

     Adding external electric field

     Computed dipole along edir(3) :
        Dipole               -0.0006 Ry au,         -0.0016 Debye
        Dipole field         -0.0000 Ry au,

        Potential amp.        0.0001 Ry
        Total length         45.9944 bohr

     End of self-consistent calculation

          k = 0.0000 0.0000 0.0000 ( 37389 PWs)   bands (ev):

   -61.3720 -61.3467 -61.3195 -61.2940 -60.8239 -60.7979 -56.0327 -56.0151
   -55.9623 -55.9446 -55.8093 -55.7917 -32.3457 -32.3146 -32.2895 -32.2888
   -32.2817 -32.2510 -32.2503 -32.2319 -32.2267 -32.1998 -32.1480 -32.1128
   -32.0851 -32.0770 -32.0371 -32.0174 -31.9934 -31.9086 -30.0416 -29.9996
   -29.9277 -29.8901 -29.8841 -29.8409 -29.8243 -29.7917 -29.7910 -29.7586
   -29.5738 -29.5551 -29.5345 -29.3386 -29.2981 -29.2887 -29.2489 -29.0803
    -5.0795  -3.7189  -2.4202  -1.7675  -1.6635  -1.5577  -1.5515  -1.4886
    -1.3878  -1.0756  -0.9517  -0.9501  -0.6918  -0.5633  -0.4647   0.0404
     0.1179   0.2995   0.9373   1.0422   1.2691   1.3341   1.4719   1.5335
     1.5421   1.5996   1.6427   1.8107   1.8662   1.8992   1.9332   1.9506
     1.9606   2.0422   2.2216   2.2332   2.4637   2.4905

[...]

          k = 0.0691-0.0524 0.0000 ( 37370 PWs)   bands (ev):

[...]

          k =-0.0830 0.0441 0.0000 ( 37382 PWs)   bands (ev):

[...]

          k =-0.0830-0.0498 0.0000 ( 37210 PWs)   bands (ev):

   -61.3719 -61.3467 -61.3194 -61.2940 -60.8238 -60.7979 -56.0330 -56.0151
   -55.9626 -55.9446 -55.8095 -55.7916 -32.3330 -32.3070 -32.2851 -32.2756
   -32.2657 -32.2415 -32.2399 -32.2188 -32.2062 -32.1840 -32.1462 -32.1017
   -32.0832 -32.0612 -32.0348 -32.0123 -31.9931 -31.9075 -30.0618 -30.0194
   -29.9538 -29.8974 -29.8765 -29.8639 -29.8331 -29.8291 -29.8095 -29.7767
   -29.5766 -29.5717 -29.5374 -29.3509 -29.3047 -29.3009 -29.2537 -29.0827
    -3.6204  -3.3386  -2.4906  -1.7289  -1.6672  -1.0630  -0.9482  -0.9327
    -0.7794  -0.7006  -0.1387   0.0013   0.1297   0.1535   0.2369   0.2373
     0.4735   0.4785   0.5128   0.5979   0.6250   0.6674   0.8507   0.8864
     0.9173   0.9437   1.0142   1.0398   1.1508   1.3581   1.5273   1.5334
     1.6635   1.6792   1.8874   2.1158   2.1465   2.2644

     the Fermi energy is     1.0536 ev

!    total energy              =   -1479.26451731 Ry
     estimated scf accuracy    <       0.00000784 Ry
     smearing contrib. (-TS)   =      -0.10808906 Ry
     internal energy E=F+TS    =   -1479.15642825 Ry

     The total energy is F=E-TS. E is the sum of the following terms:
     one-electron contribution =   -9642.65473705 Ry
     hartree contribution      =    4806.08399300 Ry
     xc contribution           =    -372.04484378 Ry
     ewald contribution        =    3729.45915958 Ry
     electric field correction =       0.00000000 Ry

     convergence has been achieved in  22 iterations

     negative rho (up, down):  6.711E-04 0.000E+00

     Forces acting on atoms (cartesian axes, Ry/au):

     atom    1 type  1   force =     0.00545703    0.00327813    0.01295727
     atom    2 type  1   force =     0.00545581    0.00327860    0.01297667
     atom    3 type  2   force =    -0.00499420   -0.00299672    0.00969948
     atom    4 type  2   force =    -0.00499045   -0.00300226    0.00970119
     atom    5 type  1   force =     0.00165803    0.00099723   -0.00760706
     atom    6 type  1   force =     0.00167167    0.00100478   -0.00758943
     atom    7 type  2   force =    -0.00061238   -0.00039255   -0.01415608
     atom    8 type  2   force =    -0.00063584   -0.00035535   -0.01415580
     atom    9 type  1   force =    -0.00157494   -0.00094680   -0.00010898
     atom   10 type  1   force =    -0.00157717   -0.00094806   -0.00006680
     atom   11 type  2   force =     0.00008127    0.00002511   -0.00082599
     atom   12 type  2   force =     0.00006118    0.00005789   -0.00082445

     Total force =     0.034733     Total SCF correction =     0.006041
     SCF correction compared to forces is large: reduce conv_thr to get better values

     Writing output data file ./Ti2Hf2/Ti2Hf2_beef.save/

     General routines

     Parallel routines

   This run was terminated on:   9:15:10  27Jun2022

   JOB DONE.