     Program PWSCF v.6.6 starts on 25Jun2022 at  7:36:13

     R & G space division:  proc/nbgrp/npool/nimage =      37
     Fft bands division:     nmany     =       1
     Reading input from Ti2Hg2.in
Warning: card &CELL ignored
Warning: card / ignored

     Current dimensions of program PWSCF are:
     Max number of different atomic species (ntypx) = 10
     Max number of k-points (npk) =  40000
     Max angular momentum in pseudopotentials (lmaxx) =  3
     Presently stress not available with electric field and gates

     Message from routine cell_base_init:
     DEPRECATED: use true lattice parameter, not A to a.u. conversion factor
     file Ti.pbe-spn-rrkjus_psl.1.0.0.UPF: wavefunction(s)  3S 3D renormalized
     file Hg.pbe-n-rrkjus_psl.1.0.0.UPF: wavefunction(s)  6S renormalized

     IMPORTANT: XC functional enforced from input :
     Exchange-correlation= BEEF-VDW
                           (   1   4  43  14   2   0   0)
     Any further DFT definition will be discarded
     Please, verify this is what you really want

     Subspace diagonalization in iterative solution of the eigenvalue problem:
     a serial algorithm will be used

     Found symmetry operation: I + ( -0.5000 -0.5000  0.0000)
     This is a supercell, fractional translations are disabled

     bravais-lattice index     =            0
     lattice parameter (alat)  =       1.8897  a.u.
     unit-cell volume          =    5249.1637 (a.u.)^3
     number of atoms/cell      =           12
     number of atomic types    =            2
     number of electrons       =       144.00
     number of Kohn-Sham states=           86
     kinetic-energy cutoff     =      55.1240  Ry
     charge density cutoff     =     551.2396  Ry
     convergence threshold     =      1.0E-05
     mixing beta               =       0.1000
     number of iterations used =           10  plain     mixing
     Exchange-correlation= BEEF-VDW
                           (   1   4  43  14   2   0   0)

     celldm(1)=   1.889726  celldm(2)=   0.000000  celldm(3)=   0.000000
     celldm(4)=   0.000000  celldm(5)=   0.000000  celldm(6)=   0.000000

     crystal axes: (cart. coord. in units of alat)
               a(1) = (   5.967599   0.000000   0.000000 )
               a(2) = (   2.865713   5.234494   0.000000 )
               a(3) = (   0.000000   0.000000  24.901142 )

     reciprocal axes: (cart. coord. in units 2 pi/alat)
               b(1) = (  0.167572 -0.091740  0.000000 )
               b(2) = (  0.000000  0.191040  0.000000 )
               b(3) = (  0.000000  0.000000  0.040159 )

     PseudoPot. # 1 for Ti read from file:
     ../pseudo/Ti.pbe-spn-rrkjus_psl.1.0.0.UPF
     MD5 check sum: e281089c08e14b8efcf92e44a67ada65
     Pseudo is Ultrasoft + core correction, Zval = 12.0
     Generated using "atomic" code by A. Dal Corso v.6.2.2
     Using radial grid of 1177 points,  6 beta functions with:
                l(1) =   0
                l(2) =   0
                l(3) =   1
                l(4) =   1
                l(5) =   2
                l(6) =   2
     Q(r) pseudized with 0 coefficients

     PseudoPot. # 2 for Hg read from file:
     ../pseudo/Hg.pbe-n-rrkjus_psl.1.0.0.UPF
     MD5 check sum: 7519ac2e5b9cac440d3cfd4127d6ea3c
     Pseudo is Ultrasoft + core correction, Zval = 12.0
     Generated using "atomic" code by A. Dal Corso v.6.3
     Using radial grid of 1279 points,  6 beta functions with:
                l(1) =   0
                l(2) =   0
                l(3) =   1
                l(4) =   1
                l(5) =   2
                l(6) =   2
     Q(r) pseudized with 0 coefficients

     atomic species   valence    mass     pseudopotential
        Ti            12.00    47.86700     Ti( 1.00)
        Hg            12.00   200.59200     Hg( 1.00)

     No symmetry found

   Cartesian axes

     site n.     atom                  positions (alat units)
         1           Ti  tau(   1) = (   0.0000000   0.0000000  10.0000000  )
         2           Ti  tau(   2) = (   4.4166563   2.6172472  10.0000000  )
         3           Hg  tau(   3) = (   2.9837997   0.0000000  10.0000000  )
         4           Hg  tau(   4) = (   1.4328566   2.6172472  10.0000000  )
         5           Ti  tau(   5) = (   5.9675994   3.5363139  12.4505712  )
         6           Ti  tau(   6) = (   1.5509432   0.9190667  12.4505712  )
         7           Hg  tau(   7) = (   2.9837997   3.5363139  12.4505712  )
         8           Hg  tau(   8) = (   4.5347429   0.9190667  12.4505712  )
         9           Ti  tau(   9) = (   2.9337043   1.7384752  14.7378054  )
        10           Ti  tau(  10) = (   7.3503723   4.3557291  14.7377824  )
        11           Hg  tau(  11) = (   5.9556050   1.7610561  15.1209114  )
        12           Hg  tau(  12) = (   4.4046662   4.3782982  15.1209174  )

     number of k points=    74  Fermi-Dirac smearing, width (Ry)=  0.0100
                       cart. coord. in units 2pi/alat
        k(    1) = (   0.0000000   0.0000000   0.0000000), wk =   0.0138889
        k(    2) = (   0.0000000   0.0159200   0.0000000), wk =   0.0277778
        k(    3) = (   0.0000000   0.0318401   0.0000000), wk =   0.0277778
        k(    4) = (   0.0000000   0.0477601   0.0000000), wk =   0.0277778
        k(    5) = (   0.0000000   0.0636801   0.0000000), wk =   0.0277778
        k(    6) = (   0.0000000   0.0796002   0.0000000), wk =   0.0277778
        k(    7) = (   0.0000000  -0.0955202   0.0000000), wk =   0.0138889
        k(    8) = (   0.0139643  -0.0076450   0.0000000), wk =   0.0277778
        k(    9) = (   0.0139643   0.0082750   0.0000000), wk =   0.0277778
        k(   10) = (   0.0139643   0.0241951   0.0000000), wk =   0.0277778
        k(   11) = (   0.0139643   0.0401151   0.0000000), wk =   0.0277778
        k(   12) = (   0.0139643   0.0560352   0.0000000), wk =   0.0277778
        k(   13) = (   0.0139643   0.0719552   0.0000000), wk =   0.0277778
        k(   14) = (   0.0139643  -0.1031652   0.0000000), wk =   0.0277778
        k(   15) = (   0.0139643  -0.0872452   0.0000000), wk =   0.0277778
        k(   16) = (   0.0139643  -0.0713251   0.0000000), wk =   0.0277778
        k(   17) = (   0.0139643  -0.0554051   0.0000000), wk =   0.0277778
        k(   18) = (   0.0139643  -0.0394851   0.0000000), wk =   0.0277778
        k(   19) = (   0.0139643  -0.0235650   0.0000000), wk =   0.0277778
        k(   20) = (   0.0279286  -0.0152900   0.0000000), wk =   0.0277778
        k(   21) = (   0.0279286   0.0006300   0.0000000), wk =   0.0277778
        k(   22) = (   0.0279286   0.0165501   0.0000000), wk =   0.0277778
        k(   23) = (   0.0279286   0.0324701   0.0000000), wk =   0.0277778
        k(   24) = (   0.0279286   0.0483902   0.0000000), wk =   0.0277778
        k(   25) = (   0.0279286   0.0643102   0.0000000), wk =   0.0277778
        k(   26) = (   0.0279286  -0.1108102   0.0000000), wk =   0.0277778
        k(   27) = (   0.0279286  -0.0948902   0.0000000), wk =   0.0277778
        k(   28) = (   0.0279286  -0.0789701   0.0000000), wk =   0.0277778
        k(   29) = (   0.0279286  -0.0630501   0.0000000), wk =   0.0277778
        k(   30) = (   0.0279286  -0.0471301   0.0000000), wk =   0.0277778
        k(   31) = (   0.0279286  -0.0312100   0.0000000), wk =   0.0277778
        k(   32) = (   0.0418929  -0.0229350   0.0000000), wk =   0.0277778
        k(   33) = (   0.0418929  -0.0070149   0.0000000), wk =   0.0277778
        k(   34) = (   0.0418929   0.0089051   0.0000000), wk =   0.0277778
        k(   35) = (   0.0418929   0.0248251   0.0000000), wk =   0.0277778
        k(   36) = (   0.0418929   0.0407452   0.0000000), wk =   0.0277778
        k(   37) = (   0.0418929   0.0566652   0.0000000), wk =   0.0277778
        k(   38) = (   0.0418929  -0.1184552   0.0000000), wk =   0.0277778
        k(   39) = (   0.0418929  -0.1025352   0.0000000), wk =   0.0277778
        k(   40) = (   0.0418929  -0.0866151   0.0000000), wk =   0.0277778
        k(   41) = (   0.0418929  -0.0706951   0.0000000), wk =   0.0277778
        k(   42) = (   0.0418929  -0.0547751   0.0000000), wk =   0.0277778
        k(   43) = (   0.0418929  -0.0388550   0.0000000), wk =   0.0277778
        k(   44) = (   0.0558572  -0.0305800   0.0000000), wk =   0.0277778
        k(   45) = (   0.0558572  -0.0146599   0.0000000), wk =   0.0277778
        k(   46) = (   0.0558572   0.0012601   0.0000000), wk =   0.0277778
        k(   47) = (   0.0558572   0.0171801   0.0000000), wk =   0.0277778
        k(   48) = (   0.0558572   0.0331002   0.0000000), wk =   0.0277778
        k(   49) = (   0.0558572   0.0490202   0.0000000), wk =   0.0277778
        k(   50) = (   0.0558572  -0.1261002   0.0000000), wk =   0.0277778
        k(   51) = (   0.0558572  -0.1101802   0.0000000), wk =   0.0277778
        k(   52) = (   0.0558572  -0.0942601   0.0000000), wk =   0.0277778
        k(   53) = (   0.0558572  -0.0783401   0.0000000), wk =   0.0277778
        k(   54) = (   0.0558572  -0.0624200   0.0000000), wk =   0.0277778
        k(   55) = (   0.0558572  -0.0465000   0.0000000), wk =   0.0277778
        k(   56) = (   0.0698215  -0.0382250   0.0000000), wk =   0.0277778
        k(   57) = (   0.0698215  -0.0223049   0.0000000), wk =   0.0277778
        k(   58) = (   0.0698215  -0.0063849   0.0000000), wk =   0.0277778
        k(   59) = (   0.0698215   0.0095351   0.0000000), wk =   0.0277778
        k(   60) = (   0.0698215   0.0254552   0.0000000), wk =   0.0277778
        k(   61) = (   0.0698215   0.0413752   0.0000000), wk =   0.0277778
        k(   62) = (   0.0698215  -0.1337452   0.0000000), wk =   0.0277778
        k(   63) = (   0.0698215  -0.1178251   0.0000000), wk =   0.0277778
        k(   64) = (   0.0698215  -0.1019051   0.0000000), wk =   0.0277778
        k(   65) = (   0.0698215  -0.0859851   0.0000000), wk =   0.0277778
        k(   66) = (   0.0698215  -0.0700650   0.0000000), wk =   0.0277778
        k(   67) = (   0.0698215  -0.0541450   0.0000000), wk =   0.0277778
        k(   68) = (  -0.0837858   0.0458700   0.0000000), wk =   0.0138889
        k(   69) = (  -0.0837858   0.0617900   0.0000000), wk =   0.0277778
        k(   70) = (  -0.0837858   0.0777100   0.0000000), wk =   0.0277778
        k(   71) = (  -0.0837858   0.0936301   0.0000000), wk =   0.0277778
        k(   72) = (  -0.0837858   0.1095501   0.0000000), wk =   0.0277778
        k(   73) = (  -0.0837858   0.1254701   0.0000000), wk =   0.0277778
        k(   74) = (  -0.0837858  -0.0496503   0.0000000), wk =   0.0138889

     Initial potential from superposition of free atoms

     starting charge  143.99063, renormalised to  144.00000

     negative rho (up, down):  1.467E-03 0.000E+00

     %%%%%%%%%%%%%%%%%%%%%%%%%%%%%%%%%%%%%%%%%%%%%%%%%%%%%%%%%%%%%%%%%%%%%%%%
     %                                                                      %
     % You are using vdW-DF, which was implemented by the Thonhauser group. %
     % Please cite the following two papers that made this development      %
     % possible and the two reviews that describe the various versions:     %
     %                                                                      %
     %   T. Thonhauser et al., PRL 115, 136402 (2015).                      %
     %   T. Thonhauser et al., PRB 76, 125112 (2007).                       %
     %   K. Berland et al., Rep. Prog. Phys. 78, 066501 (2015).             %
     %   D.C. Langreth et al., J. Phys.: Condens. Matter 21, 084203 (2009). %
     %                                                                      %
     %                                                                      %
     % If you are calculating the stress with vdW-DF, please also cite:     %
     %                                                                      %
     %   R. Sabatini et al., J. Phys.: Condens. Matter 24, 424209 (2012).   %
     %                                                                      %
     %%%%%%%%%%%%%%%%%%%%%%%%%%%%%%%%%%%%%%%%%%%%%%%%%%%%%%%%%%%%%%%%%%%%%%%%

     Adding external electric field

     Computed dipole along edir(3) :
        Dipole               -0.0010 Ry au,         -0.0026 Debye
        Dipole field         -0.0000 Ry au,

        Potential amp.        0.0002 Ry
        Total length         45.8799 bohr

     Starting wfcs are  114 randomized atomic wfcs

     Self-consistent Calculation

     iteration #  1     ecut=    55.12 Ry     beta= 0.10
     Davidson diagonalization with overlap
     ethr =  1.00E-02,  avg # of iterations =  2.0

[...]

     total energy              =   -1328.46219200 Ry
     estimated scf accuracy    <       3.90401771 Ry

[...]

     iteration #  9     ecut=    55.12 Ry     beta= 0.10
     Davidson diagonalization with overlap
     ethr =  6.07E-05,  avg # of iterations =  2.1

[...]

     iteration # 10     ecut=    55.12 Ry     beta= 0.10
     Davidson diagonalization with overlap
     c_bands:  1 eigenvalues not converged
     c_bands:  1 eigenvalues not converged
     c_bands:  1 eigenvalues not converged
     c_bands:  1 eigenvalues not converged
     c_bands:  2 eigenvalues not converged
     c_bands:  2 eigenvalues not converged
     c_bands:  1 eigenvalues not converged
     c_bands:  1 eigenvalues not converged
     c_bands:  1 eigenvalues not converged
     c_bands:  1 eigenvalues not converged
     c_bands:  2 eigenvalues not converged
     ethr =  1.61E-05,  avg # of iterations = 12.8

[...]

     total energy              =   -1328.89733081 Ry
     estimated scf accuracy    <       0.00003831 Ry

     iteration # 19     ecut=    55.12 Ry     beta= 0.10
     Davidson diagonalization with overlap
     c_bands:  1 eigenvalues not converged
     c_bands:  2 eigenvalues not converged
     ethr =  1.74E-08,  avg # of iterations =  3.1

[...]

     Adding external electric field

     Computed dipole along edir(3) :
        Dipole               -0.0851 Ry au,         -0.2162 Debye
        Dipole field         -0.0002 Ry au,

        Potential amp.        0.0187 Ry
        Total length         45.8799 bohr

     End of self-consistent calculation

          k = 0.0000 0.0000 0.0000 ( 36293 PWs)   bands (ev):

   -56.5440 -56.5218 -56.4163 -56.3938 -56.2438 -56.2211 -32.9089 -32.8859
   -32.7846 -32.7769 -32.7610 -32.7538 -32.7159 -32.6557 -32.6455 -32.6312
   -32.6288 -32.6034 -32.5332 -32.4978 -32.4252 -32.3119 -32.3085 -32.2871
    -7.6064  -7.2607  -7.2591  -7.1720  -7.1317  -7.0499  -6.9622  -6.8599
    -6.8332  -6.7406  -6.7231  -6.7087  -6.5371  -6.4288  -6.3236  -6.2969
    -6.2234  -6.2151  -6.1663  -6.1109  -6.0714  -6.0551  -6.0081  -5.9470
    -5.9117  -5.8185  -5.7724  -5.7097  -5.6128  -5.5393  -5.3003  -5.1757
    -3.4553  -2.4267  -1.7785  -1.2304  -0.5417  -0.4040  -0.1308   0.1293
     0.2171   0.3079   0.3929   0.5253   0.7855   0.8475   0.9724   1.0737
     1.1913   1.1960   1.3237   1.3508   1.4433   1.6282   1.7149   1.9096
     2.2114   2.3165   2.3315   2.4195   2.4625   2.6214

[...]

          k = 0.0698-0.0541 0.0000 ( 36271 PWs)   bands (ev):

[...]

          k =-0.0838 0.0459 0.0000 ( 36284 PWs)   bands (ev):

[...]

          k =-0.0838-0.0497 0.0000 ( 36284 PWs)   bands (ev):

   -56.5439 -56.5218 -56.4162 -56.3938 -56.2438 -56.2210 -32.9097 -32.8861
   -32.7862 -32.7789 -32.7613 -32.7540 -32.7170 -32.6570 -32.6464 -32.6310
   -32.6293 -32.6055 -32.5341 -32.4981 -32.4254 -32.3121 -32.3091 -32.2876
    -7.4624  -7.2055  -7.1526  -7.0392  -7.0214  -6.9820  -6.8062  -6.7552
    -6.7340  -6.6591  -6.6072  -6.5510  -6.3470  -6.3000  -6.2856  -6.2261
    -6.1655  -6.1627  -6.1344  -6.0736  -6.0564  -6.0341  -5.9553  -5.8620
    -5.8001  -5.7491  -5.6974  -5.6170  -5.5387  -5.5221  -5.1739  -5.1699
    -3.6259  -2.6619  -2.3772  -1.7953  -1.6667  -1.2539  -0.8902  -0.5324
    -0.4299  -0.2721  -0.2432   0.0124   0.1621   0.2950   0.3740   0.6426
     0.7490   0.7554   0.7961   1.0129   1.5176   1.7187   1.8367   2.1214
     2.1649   2.1796   2.2552   2.3160   2.4017   2.4413

     the Fermi energy is     0.9840 ev

!    total energy              =   -1328.89728878 Ry
     estimated scf accuracy    <       0.00000462 Ry
     smearing contrib. (-TS)   =      -0.08793687 Ry
     internal energy E=F+TS    =   -1328.80935191 Ry

     The total energy is F=E-TS. E is the sum of the following terms:
     one-electron contribution =   -9601.54149646 Ry
     hartree contribution      =    4835.66644289 Ry
     xc contribution           =    -316.14170207 Ry
     ewald contribution        =    3753.20738642 Ry
     electric field correction =       0.00001732 Ry

     convergence has been achieved in  19 iterations

     negative rho (up, down):  1.219E-03 0.000E+00

     Forces acting on atoms (cartesian axes, Ry/au):

     atom    1 type  1   force =     0.00817556    0.00484561    0.02244199
     atom    2 type  1   force =     0.00817740    0.00484451    0.02242705
     atom    3 type  2   force =    -0.00448458   -0.00261260   -0.02329902
     atom    4 type  2   force =    -0.00444814   -0.00267670   -0.02329972
     atom    5 type  1   force =    -0.00935078   -0.00554276    0.00271093
     atom    6 type  1   force =    -0.00934484   -0.00554210    0.00271529
     atom    7 type  2   force =     0.00559968    0.00335565   -0.00236451
     atom    8 type  2   force =     0.00563165    0.00329781   -0.00236327
     atom    9 type  1   force =     0.00002350    0.00001418   -0.00041697
     atom   10 type  1   force =     0.00002410    0.00001331   -0.00038639
     atom   11 type  2   force =     0.00000405   -0.00001022    0.00091538
     atom   12 type  2   force =    -0.00000759    0.00001333    0.00091924

     Total force =     0.051732     Total SCF correction =     0.006625
     SCF correction compared to forces is large: reduce conv_thr to get better values

     Writing output data file ./Ti2Hg2/Ti2Hg2_beef.save/

     General routines

     Parallel routines

   This run was terminated on:   8:48:41  25Jun2022

   JOB DONE.