     Program PWSCF v.6.6 starts on 25Jun2022 at 10: 6:59

     R & G space division:  proc/nbgrp/npool/nimage =      37
     Fft bands division:     nmany     =       1
     Reading input from Ti2Ir2.in
Warning: card &CELL ignored
Warning: card / ignored

     Current dimensions of program PWSCF are:
     Max number of different atomic species (ntypx) = 10
     Max number of k-points (npk) =  40000
     Max angular momentum in pseudopotentials (lmaxx) =  3
     Presently stress not available with electric field and gates

     Message from routine cell_base_init:
     DEPRECATED: use true lattice parameter, not A to a.u. conversion factor
     file Ti.pbe-spn-rrkjus_psl.1.0.0.UPF: wavefunction(s)  3S 3D renormalized
     file Ir.pbe-n-rrkjus_psl.0.2.3.UPF: wavefunction(s)  5D renormalized

     IMPORTANT: XC functional enforced from input :
     Exchange-correlation= BEEF-VDW
                           (   1   4  43  14   2   0   0)
     Any further DFT definition will be discarded
     Please, verify this is what you really want

     Subspace diagonalization in iterative solution of the eigenvalue problem:
     a serial algorithm will be used

     Found symmetry operation: I + ( -0.5000  0.5000  0.0000)
     This is a supercell, fractional translations are disabled

     bravais-lattice index     =            0
     lattice parameter (alat)  =       1.8897  a.u.
     unit-cell volume          =    4450.9645 (a.u.)^3
     number of atoms/cell      =           12
     number of atomic types    =            2
     number of electrons       =       126.00
     number of Kohn-Sham states=           76
     kinetic-energy cutoff     =      55.1240  Ry
     charge density cutoff     =     551.2396  Ry
     convergence threshold     =      1.0E-05
     mixing beta               =       0.1000
     number of iterations used =           10  plain     mixing
     Exchange-correlation= BEEF-VDW
                           (   1   4  43  14   2   0   0)

     celldm(1)=   1.889726  celldm(2)=   0.000000  celldm(3)=   0.000000
     celldm(4)=   0.000000  celldm(5)=   0.000000  celldm(6)=   0.000000

     crystal axes: (cart. coord. in units of alat)
               a(1) = (   5.434540   0.000000   0.000000 )
               a(2) = (   2.235910   4.953275   0.000000 )
               a(3) = (   0.000000   0.000000  24.502048 )

     reciprocal axes: (cart. coord. in units 2 pi/alat)
               b(1) = (  0.184008 -0.083061  0.000000 )
               b(2) = (  0.000000  0.201887  0.000000 )
               b(3) = (  0.000000  0.000000  0.040813 )

     PseudoPot. # 1 for Ti read from file:
     ../pseudo/Ti.pbe-spn-rrkjus_psl.1.0.0.UPF
     MD5 check sum: e281089c08e14b8efcf92e44a67ada65
     Pseudo is Ultrasoft + core correction, Zval = 12.0
     Generated using "atomic" code by A. Dal Corso v.6.2.2
     Using radial grid of 1177 points,  6 beta functions with:
                l(1) =   0
                l(2) =   0
                l(3) =   1
                l(4) =   1
                l(5) =   2
                l(6) =   2
     Q(r) pseudized with 0 coefficients

     PseudoPot. # 2 for Ir read from file:
     ../pseudo/Ir.pbe-n-rrkjus_psl.0.2.3.UPF
     MD5 check sum: a93e608e8ddc29ee62145620b5f41564
     Pseudo is Ultrasoft + core correction, Zval =  9.0
     Generated using "atomic" code by A. Dal Corso v.5.0.2 svn rev. 9415
     Using radial grid of 1277 points,  6 beta functions with:
                l(1) =   0
                l(2) =   0
                l(3) =   1
                l(4) =   1
                l(5) =   2
                l(6) =   2
     Q(r) pseudized with 0 coefficients

     atomic species   valence    mass     pseudopotential
        Ti            12.00    47.86700     Ti( 1.00)
        Ir             9.00   192.21700     Ir( 1.00)

     No symmetry found

   Cartesian axes

     site n.     atom                  positions (alat units)
         1           Ti  tau(   1) = (   0.0000000   0.0000000  10.0000000  )
         2           Ti  tau(   2) = (   3.8352253   2.4766374  10.0000000  )
         3           Ir  tau(   3) = (   2.7172701   0.0000000  10.0000000  )
         4           Ir  tau(   4) = (   1.1179552   2.4766374  10.0000000  )
         5           Ti  tau(   5) = (   5.4345401   3.5094119  12.2510241  )
         6           Ti  tau(   6) = (   1.5993148   1.0327745  12.2510241  )
         7           Ir  tau(   7) = (   2.7172701   3.5094119  12.2510241  )
         8           Ir  tau(   8) = (   4.3165849   1.0327745  12.2510241  )
         9           Ti  tau(   9) = (   3.5372564   2.2842209  14.5336016  )
        10           Ti  tau(  10) = (   7.3724836   4.7608569  14.5336140  )
        11           Ir  tau(  11) = (   6.2600357   2.2877789  14.3259622  )
        12           Ir  tau(  12) = (   4.6607196   4.7644143  14.3259584  )

     number of k points=    74  Fermi-Dirac smearing, width (Ry)=  0.0100
                       cart. coord. in units 2pi/alat
        k(    1) = (   0.0000000   0.0000000   0.0000000), wk =   0.0138889
        k(    2) = (   0.0000000   0.0168239   0.0000000), wk =   0.0277778
        k(    3) = (   0.0000000   0.0336478   0.0000000), wk =   0.0277778
        k(    4) = (   0.0000000   0.0504717   0.0000000), wk =   0.0277778
        k(    5) = (   0.0000000   0.0672955   0.0000000), wk =   0.0277778
        k(    6) = (   0.0000000   0.0841194   0.0000000), wk =   0.0277778
        k(    7) = (   0.0000000  -0.1009433   0.0000000), wk =   0.0138889
        k(    8) = (   0.0153340  -0.0069218   0.0000000), wk =   0.0277778
        k(    9) = (   0.0153340   0.0099021   0.0000000), wk =   0.0277778
        k(   10) = (   0.0153340   0.0267260   0.0000000), wk =   0.0277778
        k(   11) = (   0.0153340   0.0435499   0.0000000), wk =   0.0277778
        k(   12) = (   0.0153340   0.0603738   0.0000000), wk =   0.0277778
        k(   13) = (   0.0153340   0.0771976   0.0000000), wk =   0.0277778
        k(   14) = (   0.0153340  -0.1078651   0.0000000), wk =   0.0277778
        k(   15) = (   0.0153340  -0.0910412   0.0000000), wk =   0.0277778
        k(   16) = (   0.0153340  -0.0742173   0.0000000), wk =   0.0277778
        k(   17) = (   0.0153340  -0.0573934   0.0000000), wk =   0.0277778
        k(   18) = (   0.0153340  -0.0405696   0.0000000), wk =   0.0277778
        k(   19) = (   0.0153340  -0.0237457   0.0000000), wk =   0.0277778
        k(   20) = (   0.0306680  -0.0138436   0.0000000), wk =   0.0277778
        k(   21) = (   0.0306680   0.0029803   0.0000000), wk =   0.0277778
        k(   22) = (   0.0306680   0.0198042   0.0000000), wk =   0.0277778
        k(   23) = (   0.0306680   0.0366281   0.0000000), wk =   0.0277778
        k(   24) = (   0.0306680   0.0534520   0.0000000), wk =   0.0277778
        k(   25) = (   0.0306680   0.0702759   0.0000000), wk =   0.0277778
        k(   26) = (   0.0306680  -0.1147869   0.0000000), wk =   0.0277778
        k(   27) = (   0.0306680  -0.0979630   0.0000000), wk =   0.0277778
        k(   28) = (   0.0306680  -0.0811391   0.0000000), wk =   0.0277778
        k(   29) = (   0.0306680  -0.0643152   0.0000000), wk =   0.0277778
        k(   30) = (   0.0306680  -0.0474913   0.0000000), wk =   0.0277778
        k(   31) = (   0.0306680  -0.0306674   0.0000000), wk =   0.0277778
        k(   32) = (   0.0460021  -0.0207653   0.0000000), wk =   0.0277778
        k(   33) = (   0.0460021  -0.0039415   0.0000000), wk =   0.0277778
        k(   34) = (   0.0460021   0.0128824   0.0000000), wk =   0.0277778
        k(   35) = (   0.0460021   0.0297063   0.0000000), wk =   0.0277778
        k(   36) = (   0.0460021   0.0465302   0.0000000), wk =   0.0277778
        k(   37) = (   0.0460021   0.0633541   0.0000000), wk =   0.0277778
        k(   38) = (   0.0460021  -0.1217087   0.0000000), wk =   0.0277778
        k(   39) = (   0.0460021  -0.1048848   0.0000000), wk =   0.0277778
        k(   40) = (   0.0460021  -0.0880609   0.0000000), wk =   0.0277778
        k(   41) = (   0.0460021  -0.0712370   0.0000000), wk =   0.0277778
        k(   42) = (   0.0460021  -0.0544131   0.0000000), wk =   0.0277778
        k(   43) = (   0.0460021  -0.0375892   0.0000000), wk =   0.0277778
        k(   44) = (   0.0613361  -0.0276871   0.0000000), wk =   0.0277778
        k(   45) = (   0.0613361  -0.0108632   0.0000000), wk =   0.0277778
        k(   46) = (   0.0613361   0.0059606   0.0000000), wk =   0.0277778
        k(   47) = (   0.0613361   0.0227845   0.0000000), wk =   0.0277778
        k(   48) = (   0.0613361   0.0396084   0.0000000), wk =   0.0277778
        k(   49) = (   0.0613361   0.0564323   0.0000000), wk =   0.0277778
        k(   50) = (   0.0613361  -0.1286304   0.0000000), wk =   0.0277778
        k(   51) = (   0.0613361  -0.1118066   0.0000000), wk =   0.0277778
        k(   52) = (   0.0613361  -0.0949827   0.0000000), wk =   0.0277778
        k(   53) = (   0.0613361  -0.0781588   0.0000000), wk =   0.0277778
        k(   54) = (   0.0613361  -0.0613349   0.0000000), wk =   0.0277778
        k(   55) = (   0.0613361  -0.0445110   0.0000000), wk =   0.0277778
        k(   56) = (   0.0766701  -0.0346089   0.0000000), wk =   0.0277778
        k(   57) = (   0.0766701  -0.0177850   0.0000000), wk =   0.0277778
        k(   58) = (   0.0766701  -0.0009611   0.0000000), wk =   0.0277778
        k(   59) = (   0.0766701   0.0158628   0.0000000), wk =   0.0277778
        k(   60) = (   0.0766701   0.0326866   0.0000000), wk =   0.0277778
        k(   61) = (   0.0766701   0.0495105   0.0000000), wk =   0.0277778
        k(   62) = (   0.0766701  -0.1355522   0.0000000), wk =   0.0277778
        k(   63) = (   0.0766701  -0.1187283   0.0000000), wk =   0.0277778
        k(   64) = (   0.0766701  -0.1019044   0.0000000), wk =   0.0277778
        k(   65) = (   0.0766701  -0.0850806   0.0000000), wk =   0.0277778
        k(   66) = (   0.0766701  -0.0682567   0.0000000), wk =   0.0277778
        k(   67) = (   0.0766701  -0.0514328   0.0000000), wk =   0.0277778
        k(   68) = (  -0.0920041   0.0415307   0.0000000), wk =   0.0138889
        k(   69) = (  -0.0920041   0.0583546   0.0000000), wk =   0.0277778
        k(   70) = (  -0.0920041   0.0751785   0.0000000), wk =   0.0277778
        k(   71) = (  -0.0920041   0.0920023   0.0000000), wk =   0.0277778
        k(   72) = (  -0.0920041   0.1088262   0.0000000), wk =   0.0277778
        k(   73) = (  -0.0920041   0.1256501   0.0000000), wk =   0.0277778
        k(   74) = (  -0.0920041  -0.0594126   0.0000000), wk =   0.0138889

     Initial potential from superposition of free atoms

     starting charge  125.99023, renormalised to  126.00000

     negative rho (up, down):  9.171E-04 0.000E+00

     %%%%%%%%%%%%%%%%%%%%%%%%%%%%%%%%%%%%%%%%%%%%%%%%%%%%%%%%%%%%%%%%%%%%%%%%
     %                                                                      %
     % You are using vdW-DF, which was implemented by the Thonhauser group. %
     % Please cite the following two papers that made this development      %
     % possible and the two reviews that describe the various versions:     %
     %                                                                      %
     %   T. Thonhauser et al., PRL 115, 136402 (2015).                      %
     %   T. Thonhauser et al., PRB 76, 125112 (2007).                       %
     %   K. Berland et al., Rep. Prog. Phys. 78, 066501 (2015).             %
     %   D.C. Langreth et al., J. Phys.: Condens. Matter 21, 084203 (2009). %
     %                                                                      %
     %                                                                      %
     % If you are calculating the stress with vdW-DF, please also cite:     %
     %                                                                      %
     %   R. Sabatini et al., J. Phys.: Condens. Matter 24, 424209 (2012).   %
     %                                                                      %
     %%%%%%%%%%%%%%%%%%%%%%%%%%%%%%%%%%%%%%%%%%%%%%%%%%%%%%%%%%%%%%%%%%%%%%%%

     Adding external electric field

     Computed dipole along edir(3) :
        Dipole                0.0004 Ry au,          0.0011 Debye
        Dipole field          0.0000 Ry au,

        Potential amp.       -0.0001 Ry
        Total length         45.1446 bohr

     Starting wfcs are  114 randomized atomic wfcs

     Self-consistent Calculation

     iteration #  1     ecut=    55.12 Ry     beta= 0.10
     Davidson diagonalization with overlap
     ethr =  1.00E-02,  avg # of iterations =  2.0

[...]

     total energy              =   -1101.10035852 Ry
     estimated scf accuracy    <       3.89082970 Ry

[...]

     iteration #  9     ecut=    55.12 Ry     beta= 0.10
     Davidson diagonalization with overlap
     ethr =  4.02E-05,  avg # of iterations =  4.9

[...]

     iteration # 10     ecut=    55.12 Ry     beta= 0.10
     Davidson diagonalization with overlap
     c_bands:  1 eigenvalues not converged
     c_bands:  1 eigenvalues not converged
     c_bands:  4 eigenvalues not converged
     c_bands:  1 eigenvalues not converged
     c_bands:  1 eigenvalues not converged
     c_bands:  1 eigenvalues not converged
     c_bands:  1 eigenvalues not converged
     c_bands:  3 eigenvalues not converged
     c_bands:  1 eigenvalues not converged
     c_bands:  1 eigenvalues not converged
     c_bands:  1 eigenvalues not converged
     c_bands:  1 eigenvalues not converged
     c_bands:  1 eigenvalues not converged
     c_bands:  3 eigenvalues not converged
     c_bands:  1 eigenvalues not converged
     c_bands:  1 eigenvalues not converged
     c_bands:  2 eigenvalues not converged
     c_bands:  1 eigenvalues not converged
     c_bands:  1 eigenvalues not converged
     c_bands:  1 eigenvalues not converged
     c_bands:  1 eigenvalues not converged
     c_bands:  1 eigenvalues not converged
     c_bands:  2 eigenvalues not converged
     c_bands:  1 eigenvalues not converged
     c_bands:  1 eigenvalues not converged
     c_bands:  3 eigenvalues not converged
     c_bands:  1 eigenvalues not converged
     c_bands:  1 eigenvalues not converged
     c_bands:  1 eigenvalues not converged
     c_bands:  2 eigenvalues not converged
     ethr =  1.19E-05,  avg # of iterations = 14.1

[...]

     total energy              =   -1101.42785683 Ry
     estimated scf accuracy    <       0.00001063 Ry

     iteration # 19     ecut=    55.12 Ry     beta= 0.10
     Davidson diagonalization with overlap
     c_bands:  1 eigenvalues not converged
     c_bands:  1 eigenvalues not converged
     ethr =  8.44E-09,  avg # of iterations =  7.8

[...]

     Adding external electric field

     Computed dipole along edir(3) :
        Dipole                0.0936 Ry au,          0.2380 Debye
        Dipole field          0.0003 Ry au,

        Potential amp.       -0.0239 Ry
        Total length         45.1446 bohr

     End of self-consistent calculation

          k = 0.0000 0.0000 0.0000 ( 30677 PWs)   bands (ev):

   -56.4713 -56.4380 -56.4057 -56.3808 -56.3708 -56.3494 -32.8049 -32.7914
   -32.7767 -32.7442 -32.7129 -32.7125 -32.6569 -32.6471 -32.6186 -32.6047
   -32.5784 -32.5775 -32.5545 -32.5198 -32.4868 -32.4815 -32.4187 -32.3521
    -6.6108  -4.8282  -4.3923  -4.0010  -3.9622  -3.9409  -3.8963  -3.7148
    -3.6495  -3.5889  -3.1043  -2.9463  -2.8589  -2.6130  -2.3990  -2.2426
    -2.0556  -1.9181  -1.8584  -1.6311  -1.4916  -1.3440  -1.0986  -1.0488
    -1.0216  -0.8684  -0.5805  -0.3026  -0.1977   0.0135   0.1318   0.3477
     0.5418   0.5754   1.4223   1.5408   1.5527   1.5903   1.7730   1.7767
     1.8570   2.0099   2.0105   2.1447   2.2558   2.3688   2.3980   2.5845
     2.6541   2.7017   2.7325   2.8471

[...]

          k = 0.0767-0.0514 0.0000 ( 30761 PWs)   bands (ev):

[...]

          k =-0.0920 0.0415 0.0000 ( 30750 PWs)   bands (ev):

[...]

          k =-0.0920-0.0594 0.0000 ( 30866 PWs)   bands (ev):

   -56.4700 -56.4380 -56.4036 -56.3815 -56.3713 -56.3477 -32.8128 -32.8001
   -32.7745 -32.7491 -32.7183 -32.7138 -32.6640 -32.6537 -32.6339 -32.6170
   -32.5918 -32.5800 -32.5485 -32.5145 -32.4951 -32.4886 -32.4208 -32.3543
    -5.1304  -4.5798  -4.0352  -3.7222  -3.3217  -3.1912  -3.0789  -3.0260
    -2.8212  -2.6796  -2.5283  -2.4037  -2.3903  -2.2569  -2.2231  -2.1601
    -1.7068  -1.6449  -1.5057  -1.4449  -1.3713  -1.3211  -1.0732  -0.9361
    -0.7860  -0.7547  -0.6502  -0.6343  -0.5503  -0.1885  -0.0786  -0.0388
     0.1544   0.1890   0.2115   0.2134   0.4499   0.4601   0.5214   0.6539
     0.8106   1.0859   1.2694   1.2790   1.4055   1.5255   1.5912   1.9662
     1.9867   2.0147   2.2445   2.2947

     the Fermi energy is     1.2261 ev

!    total energy              =   -1101.42775899 Ry
     estimated scf accuracy    <       0.00000167 Ry
     smearing contrib. (-TS)   =      -0.04813669 Ry
     internal energy E=F+TS    =   -1101.37962230 Ry

     The total energy is F=E-TS. E is the sum of the following terms:
     one-electron contribution =   -8815.91760554 Ry
     hartree contribution      =    4434.22977555 Ry
     xc contribution           =    -310.67450364 Ry
     ewald contribution        =    3590.98268658 Ry
     electric field correction =       0.00002474 Ry

     convergence has been achieved in  19 iterations

     negative rho (up, down):  8.215E-04 0.000E+00

     Forces acting on atoms (cartesian axes, Ry/au):

     atom    1 type  1   force =    -0.01469954   -0.00949115   -0.02071044
     atom    2 type  1   force =    -0.01468747   -0.00947818   -0.02070662
     atom    3 type  2   force =    -0.00585956   -0.00376885    0.03717349
     atom    4 type  2   force =    -0.00584925   -0.00378805    0.03717309
     atom    5 type  1   force =     0.01140208    0.00736306   -0.02560866
     atom    6 type  1   force =     0.01140979    0.00736163   -0.02560970
     atom    7 type  2   force =     0.00898207    0.00580806    0.00651924
     atom    8 type  2   force =     0.00899008    0.00579968    0.00653477
     atom    9 type  1   force =    -0.00043974   -0.00028406    0.00204405
     atom   10 type  1   force =    -0.00044273   -0.00028783    0.00203654
     atom   11 type  2   force =     0.00059803    0.00037354    0.00057445
     atom   12 type  2   force =     0.00059624    0.00039215    0.00057980

     Total force =     0.079593     Total SCF correction =     0.005284

     Writing output data file ./Ti2Ir2/Ti2Ir2_beef.save/

     General routines

     Parallel routines

   This run was terminated on:  11: 3: 9  25Jun2022

   JOB DONE.