     Program PWSCF v.6.6 starts on 27Jun2022 at  6:53:55

     R & G space division:  proc/nbgrp/npool/nimage =      37
     Fft bands division:     nmany     =       1
     Reading input from Ti2La2.in
Warning: card &CELL ignored
Warning: card / ignored

     Current dimensions of program PWSCF are:
     Max number of different atomic species (ntypx) = 10
     Max number of k-points (npk) =  40000
     Max angular momentum in pseudopotentials (lmaxx) =  3
     Presently stress not available with electric field and gates

     Message from routine cell_base_init:
     DEPRECATED: use true lattice parameter, not A to a.u. conversion factor
     file Ti.pbe-spn-rrkjus_psl.1.0.0.UPF: wavefunction(s)  3S 3D renormalized
     file La.pbe-spfn-rrkjus_psl.1.0.0.UPF: wavefunction(s)  4F renormalized

     IMPORTANT: XC functional enforced from input :
     Exchange-correlation= BEEF-VDW
                           (   1   4  43  14   2   0   0)
     Any further DFT definition will be discarded
     Please, verify this is what you really want

     Subspace diagonalization in iterative solution of the eigenvalue problem:
     a serial algorithm will be used

     bravais-lattice index     =            0
     lattice parameter (alat)  =       1.8897  a.u.
     unit-cell volume          =    6669.3931 (a.u.)^3
     number of atoms/cell      =           12
     number of atomic types    =            2
     number of electrons       =       138.00
     number of Kohn-Sham states=           83
     kinetic-energy cutoff     =      55.1240  Ry
     charge density cutoff     =     551.2396  Ry
     convergence threshold     =      1.0E-05
     mixing beta               =       0.1000
     number of iterations used =           10  plain     mixing
     Exchange-correlation= BEEF-VDW
                           (   1   4  43  14   2   0   0)

     celldm(1)=   1.889726  celldm(2)=   0.000000  celldm(3)=   0.000000
     celldm(4)=   0.000000  celldm(5)=   0.000000  celldm(6)=   0.000000

     crystal axes: (cart. coord. in units of alat)
               a(1) = (   6.456115   0.000000   0.000000 )
               a(2) = (   2.251125   6.050939   0.000000 )
               a(3) = (   0.000000   0.000000  25.298558 )

     reciprocal axes: (cart. coord. in units 2 pi/alat)
               b(1) = (  0.154892 -0.057624  0.000000 )
               b(2) = (  0.000000  0.165264  0.000000 )
               b(3) = (  0.000000  0.000000  0.039528 )

     PseudoPot. # 1 for Ti read from file:
     ../pseudo/Ti.pbe-spn-rrkjus_psl.1.0.0.UPF
     MD5 check sum: e281089c08e14b8efcf92e44a67ada65
     Pseudo is Ultrasoft + core correction, Zval = 12.0
     Generated using "atomic" code by A. Dal Corso v.6.2.2
     Using radial grid of 1177 points,  6 beta functions with:
                l(1) =   0
                l(2) =   0
                l(3) =   1
                l(4) =   1
                l(5) =   2
                l(6) =   2
     Q(r) pseudized with 0 coefficients

     PseudoPot. # 2 for La read from file:
     ../pseudo/La.pbe-spfn-rrkjus_psl.1.0.0.UPF
     MD5 check sum: e3bc141c2ecb461b8d0a035ce9ac970e
     Pseudo is Ultrasoft + core correction, Zval = 11.0
     Generated using "atomic" code by A. Dal Corso v.6.2.2
     Using radial grid of 1253 points,  8 beta functions with:
                l(1) =   0
                l(2) =   0
                l(3) =   1
                l(4) =   1
                l(5) =   2
                l(6) =   2
                l(7) =   3
                l(8) =   3
     Q(r) pseudized with 0 coefficients

     atomic species   valence    mass     pseudopotential
        Ti            12.00    47.86700     Ti( 1.00)
        La            11.00   138.90547     La( 1.00)

     No symmetry found

   Cartesian axes

     site n.     atom                  positions (alat units)
         1           Ti  tau(   1) = (   0.0000000   0.0000000  10.0000000  )
         2           Ti  tau(   2) = (   4.3536201   3.0254695  10.0000000  )
         3           La  tau(   3) = (   3.2280577   0.0000000  10.0000000  )
         4           La  tau(   4) = (   1.1255625   3.0254695  10.0000000  )
         5           Ti  tau(   5) = (   6.4561153   4.4865604  12.6492789  )
         6           Ti  tau(   6) = (   2.1024952   1.4610910  12.6492789  )
         7           La  tau(   7) = (   3.2280577   4.4865604  12.6492789  )
         8           La  tau(   8) = (   5.3305529   1.4610910  12.6492789  )
         9           Ti  tau(   9) = (   3.6858741   2.5616289  14.9096183  )
        10           Ti  tau(  10) = (   8.0405139   5.5873949  14.9098918  )
        11           La  tau(  11) = (   7.0210248   2.6365127  15.5092346  )
        12           La  tau(  12) = (   4.9192443   5.6611471  15.5093090  )

     number of k points=    74  Fermi-Dirac smearing, width (Ry)=  0.0100
                       cart. coord. in units 2pi/alat
        k(    1) = (   0.0000000   0.0000000   0.0000000), wk =   0.0138889
        k(    2) = (   0.0000000   0.0137720   0.0000000), wk =   0.0277778
        k(    3) = (   0.0000000   0.0275439   0.0000000), wk =   0.0277778
        k(    4) = (   0.0000000   0.0413159   0.0000000), wk =   0.0277778
        k(    5) = (   0.0000000   0.0550879   0.0000000), wk =   0.0277778
        k(    6) = (   0.0000000   0.0688598   0.0000000), wk =   0.0277778
        k(    7) = (   0.0000000  -0.0826318   0.0000000), wk =   0.0138889
        k(    8) = (   0.0129077  -0.0048020   0.0000000), wk =   0.0277778
        k(    9) = (   0.0129077   0.0089699   0.0000000), wk =   0.0277778
        k(   10) = (   0.0129077   0.0227419   0.0000000), wk =   0.0277778
        k(   11) = (   0.0129077   0.0365139   0.0000000), wk =   0.0277778
        k(   12) = (   0.0129077   0.0502858   0.0000000), wk =   0.0277778
        k(   13) = (   0.0129077   0.0640578   0.0000000), wk =   0.0277778
        k(   14) = (   0.0129077  -0.0874338   0.0000000), wk =   0.0277778
        k(   15) = (   0.0129077  -0.0736619   0.0000000), wk =   0.0277778
        k(   16) = (   0.0129077  -0.0598899   0.0000000), wk =   0.0277778
        k(   17) = (   0.0129077  -0.0461179   0.0000000), wk =   0.0277778
        k(   18) = (   0.0129077  -0.0323460   0.0000000), wk =   0.0277778
        k(   19) = (   0.0129077  -0.0185740   0.0000000), wk =   0.0277778
        k(   20) = (   0.0258153  -0.0096040   0.0000000), wk =   0.0277778
        k(   21) = (   0.0258153   0.0041679   0.0000000), wk =   0.0277778
        k(   22) = (   0.0258153   0.0179399   0.0000000), wk =   0.0277778
        k(   23) = (   0.0258153   0.0317119   0.0000000), wk =   0.0277778
        k(   24) = (   0.0258153   0.0454838   0.0000000), wk =   0.0277778
        k(   25) = (   0.0258153   0.0592558   0.0000000), wk =   0.0277778
        k(   26) = (   0.0258153  -0.0922359   0.0000000), wk =   0.0277778
        k(   27) = (   0.0258153  -0.0784639   0.0000000), wk =   0.0277778
        k(   28) = (   0.0258153  -0.0646919   0.0000000), wk =   0.0277778
        k(   29) = (   0.0258153  -0.0509199   0.0000000), wk =   0.0277778
        k(   30) = (   0.0258153  -0.0371480   0.0000000), wk =   0.0277778
        k(   31) = (   0.0258153  -0.0233760   0.0000000), wk =   0.0277778
        k(   32) = (   0.0387230  -0.0144061   0.0000000), wk =   0.0277778
        k(   33) = (   0.0387230  -0.0006341   0.0000000), wk =   0.0277778
        k(   34) = (   0.0387230   0.0131379   0.0000000), wk =   0.0277778
        k(   35) = (   0.0387230   0.0269098   0.0000000), wk =   0.0277778
        k(   36) = (   0.0387230   0.0406818   0.0000000), wk =   0.0277778
        k(   37) = (   0.0387230   0.0544538   0.0000000), wk =   0.0277778
        k(   38) = (   0.0387230  -0.0970379   0.0000000), wk =   0.0277778
        k(   39) = (   0.0387230  -0.0832659   0.0000000), wk =   0.0277778
        k(   40) = (   0.0387230  -0.0694939   0.0000000), wk =   0.0277778
        k(   41) = (   0.0387230  -0.0557220   0.0000000), wk =   0.0277778
        k(   42) = (   0.0387230  -0.0419500   0.0000000), wk =   0.0277778
        k(   43) = (   0.0387230  -0.0281780   0.0000000), wk =   0.0277778
        k(   44) = (   0.0516306  -0.0192081   0.0000000), wk =   0.0277778
        k(   45) = (   0.0516306  -0.0054361   0.0000000), wk =   0.0277778
        k(   46) = (   0.0516306   0.0083358   0.0000000), wk =   0.0277778
        k(   47) = (   0.0516306   0.0221078   0.0000000), wk =   0.0277778
        k(   48) = (   0.0516306   0.0358798   0.0000000), wk =   0.0277778
        k(   49) = (   0.0516306   0.0496517   0.0000000), wk =   0.0277778
        k(   50) = (   0.0516306  -0.1018399   0.0000000), wk =   0.0277778
        k(   51) = (   0.0516306  -0.0880679   0.0000000), wk =   0.0277778
        k(   52) = (   0.0516306  -0.0742960   0.0000000), wk =   0.0277778
        k(   53) = (   0.0516306  -0.0605240   0.0000000), wk =   0.0277778
        k(   54) = (   0.0516306  -0.0467520   0.0000000), wk =   0.0277778
        k(   55) = (   0.0516306  -0.0329801   0.0000000), wk =   0.0277778
        k(   56) = (   0.0645383  -0.0240101   0.0000000), wk =   0.0277778
        k(   57) = (   0.0645383  -0.0102382   0.0000000), wk =   0.0277778
        k(   58) = (   0.0645383   0.0035338   0.0000000), wk =   0.0277778
        k(   59) = (   0.0645383   0.0173058   0.0000000), wk =   0.0277778
        k(   60) = (   0.0645383   0.0310777   0.0000000), wk =   0.0277778
        k(   61) = (   0.0645383   0.0448497   0.0000000), wk =   0.0277778
        k(   62) = (   0.0645383  -0.1066419   0.0000000), wk =   0.0277778
        k(   63) = (   0.0645383  -0.0928700   0.0000000), wk =   0.0277778
        k(   64) = (   0.0645383  -0.0790980   0.0000000), wk =   0.0277778
        k(   65) = (   0.0645383  -0.0653260   0.0000000), wk =   0.0277778
        k(   66) = (   0.0645383  -0.0515541   0.0000000), wk =   0.0277778
        k(   67) = (   0.0645383  -0.0377821   0.0000000), wk =   0.0277778
        k(   68) = (  -0.0774460   0.0288121   0.0000000), wk =   0.0138889
        k(   69) = (  -0.0774460   0.0425841   0.0000000), wk =   0.0277778
        k(   70) = (  -0.0774460   0.0563561   0.0000000), wk =   0.0277778
        k(   71) = (  -0.0774460   0.0701280   0.0000000), wk =   0.0277778
        k(   72) = (  -0.0774460   0.0839000   0.0000000), wk =   0.0277778
        k(   73) = (  -0.0774460   0.0976720   0.0000000), wk =   0.0277778
        k(   74) = (  -0.0774460  -0.0538197   0.0000000), wk =   0.0138889

     Check: negative core charge=   -0.000001

     Initial potential from superposition of free atoms

     starting charge  137.81239, renormalised to  138.00000

     negative rho (up, down):  1.060E-03 0.000E+00

     %%%%%%%%%%%%%%%%%%%%%%%%%%%%%%%%%%%%%%%%%%%%%%%%%%%%%%%%%%%%%%%%%%%%%%%%
     %                                                                      %
     % You are using vdW-DF, which was implemented by the Thonhauser group. %
     % Please cite the following two papers that made this development      %
     % possible and the two reviews that describe the various versions:     %
     %                                                                      %
     %   T. Thonhauser et al., PRL 115, 136402 (2015).                      %
     %   T. Thonhauser et al., PRB 76, 125112 (2007).                       %
     %   K. Berland et al., Rep. Prog. Phys. 78, 066501 (2015).             %
     %   D.C. Langreth et al., J. Phys.: Condens. Matter 21, 084203 (2009). %
     %                                                                      %
     %                                                                      %
     % If you are calculating the stress with vdW-DF, please also cite:     %
     %                                                                      %
     %   R. Sabatini et al., J. Phys.: Condens. Matter 24, 424209 (2012).   %
     %                                                                      %
     %%%%%%%%%%%%%%%%%%%%%%%%%%%%%%%%%%%%%%%%%%%%%%%%%%%%%%%%%%%%%%%%%%%%%%%%

     Adding external electric field

     Computed dipole along edir(3) :
        Dipole                0.0337 Ry au,          0.0856 Debye
        Dipole field          0.0001 Ry au,

        Potential amp.       -0.0059 Ry
        Total length         46.6122 bohr

     Starting wfcs are  180 randomized atomic wfcs

     Self-consistent Calculation

     iteration #  1     ecut=    55.12 Ry     beta= 0.10
     Davidson diagonalization with overlap
     ethr =  1.00E-02,  avg # of iterations =  2.0

[...]

     total energy              =   -1484.81009453 Ry
     estimated scf accuracy    <      11.71818935 Ry

[...]

     iteration # 16     ecut=    55.12 Ry     beta= 0.10
     Davidson diagonalization with overlap
     c_bands:  2 eigenvalues not converged
     c_bands:  2 eigenvalues not converged
     c_bands:  2 eigenvalues not converged
     c_bands:  1 eigenvalues not converged
     c_bands:  1 eigenvalues not converged
     c_bands:  1 eigenvalues not converged
     c_bands:  2 eigenvalues not converged
     c_bands:  2 eigenvalues not converged
     c_bands:  2 eigenvalues not converged
     c_bands:  1 eigenvalues not converged
     c_bands:  2 eigenvalues not converged
     c_bands:  1 eigenvalues not converged
     c_bands:  1 eigenvalues not converged
     c_bands:  1 eigenvalues not converged
     c_bands:  2 eigenvalues not converged
     c_bands:  2 eigenvalues not converged
     c_bands:  2 eigenvalues not converged
     c_bands:  2 eigenvalues not converged
     c_bands:  2 eigenvalues not converged
     c_bands:  2 eigenvalues not converged
     c_bands:  1 eigenvalues not converged
     c_bands:  2 eigenvalues not converged
     c_bands:  1 eigenvalues not converged
     c_bands:  2 eigenvalues not converged
     c_bands:  2 eigenvalues not converged
     c_bands:  2 eigenvalues not converged
     c_bands:  2 eigenvalues not converged
     c_bands:  2 eigenvalues not converged
     c_bands:  1 eigenvalues not converged
     c_bands:  1 eigenvalues not converged
     c_bands:  1 eigenvalues not converged
     c_bands:  1 eigenvalues not converged
     c_bands:  2 eigenvalues not converged
     c_bands:  2 eigenvalues not converged
     c_bands:  1 eigenvalues not converged
     c_bands:  2 eigenvalues not converged
     c_bands:  2 eigenvalues not converged
     c_bands:  2 eigenvalues not converged
     c_bands:  3 eigenvalues not converged
     c_bands:  1 eigenvalues not converged
     c_bands:  2 eigenvalues not converged
     c_bands:  1 eigenvalues not converged
     c_bands:  1 eigenvalues not converged
     c_bands:  1 eigenvalues not converged
     c_bands:  1 eigenvalues not converged
     c_bands:  2 eigenvalues not converged
     c_bands:  3 eigenvalues not converged
     c_bands:  2 eigenvalues not converged
     c_bands:  2 eigenvalues not converged
     c_bands:  1 eigenvalues not converged
     c_bands:  1 eigenvalues not converged
     c_bands:  3 eigenvalues not converged
     c_bands:  2 eigenvalues not converged
     c_bands:  2 eigenvalues not converged
     c_bands:  1 eigenvalues not converged
     c_bands:  3 eigenvalues not converged
     c_bands:  1 eigenvalues not converged
     ethr =  3.41E-06,  avg # of iterations = 18.9

[...]

     iteration # 19     ecut=    55.12 Ry     beta= 0.10
     Davidson diagonalization with overlap
     c_bands:  1 eigenvalues not converged
     c_bands:  2 eigenvalues not converged
     c_bands:  1 eigenvalues not converged
     c_bands:  2 eigenvalues not converged
     ethr =  9.97E-07,  avg # of iterations =  7.9

[...]

     total energy              =   -1485.99091201 Ry
     estimated scf accuracy    <       0.00003161 Ry

     iteration # 28     ecut=    55.12 Ry     beta= 0.10
     Davidson diagonalization with overlap
     ethr =  8.37E-09,  avg # of iterations =  1.0

[...]

     Adding external electric field

     Computed dipole along edir(3) :
        Dipole                0.1339 Ry au,          0.3402 Debye
        Dipole field          0.0003 Ry au,

        Potential amp.       -0.0235 Ry
        Total length         46.6122 bohr

     End of self-consistent calculation

          k = 0.0000 0.0000 0.0000 ( 46219 PWs)   bands (ev):

   -55.7105 -55.7088 -55.5786 -55.5767 -55.5128 -55.5109 -32.0179 -32.0115
   -31.9487 -31.9153 -31.9039 -31.9000 -31.8755 -31.8720 -31.8272 -31.8203
   -31.8082 -31.8020 -31.7871 -31.7807 -31.7682 -31.7642 -31.6580 -31.6515
   -31.3556 -31.2840 -31.1013 -31.0269 -30.4437 -30.3741 -15.4210 -15.2375
   -15.2301 -15.1313 -15.0321 -14.9565 -14.9171 -14.8567 -14.8251 -14.7866
   -14.7065 -14.5994 -14.3984 -14.2742 -14.1699 -14.1424 -14.0578 -13.8230
    -2.1139  -1.1259  -0.8379  -0.8268  -0.7920  -0.2579  -0.1162   0.0660
     0.1393   0.3589   0.4121   0.6262   0.7459   0.8669   0.8868   1.0689
     1.3032   1.4406   1.5854   1.6179   1.6496   1.6536   1.6909   1.7831
     1.8826   2.0562   2.2621   2.3528   2.3894   2.4776   2.4913   2.5117
     2.5332   2.8033   2.8810

[...]

          k = 0.0645-0.0378 0.0000 ( 46081 PWs)   bands (ev):

[...]

          k =-0.0774 0.0288 0.0000 ( 46080 PWs)   bands (ev):

[...]

          k =-0.0774-0.0538 0.0000 ( 46092 PWs)   bands (ev):

   -55.7105 -55.7088 -55.5785 -55.5767 -55.5128 -55.5109 -32.0197 -32.0113
   -31.9609 -31.9329 -31.9151 -31.8995 -31.8982 -31.8687 -31.8481 -31.8123
   -31.8072 -31.8043 -31.8030 -31.7864 -31.7686 -31.7628 -31.6677 -31.6518
   -31.3129 -31.2676 -31.0684 -31.0140 -30.4276 -30.3649 -15.4421 -15.2695
   -15.2607 -15.1283 -15.0900 -14.9438 -14.9417 -14.9318 -14.8109 -14.7774
   -14.7246 -14.6042 -14.4043 -14.2531 -14.1746 -14.1701 -14.0839 -13.8338
    -0.5666  -0.4456   0.0715   0.0789   0.1558   0.3637   0.4217   0.4622
     0.5563   0.6469   0.7757   0.9097   0.9532   1.1280   1.1294   1.2285
     1.2400   1.3180   1.3798   1.5268   1.5564   1.5594   1.7022   1.7832
     1.8252   1.8955   1.9264   1.9651   1.9864   2.0807   2.1145   2.2197
     2.2913   2.3127   2.3574

     the Fermi energy is     1.5712 ev

!    total energy              =   -1485.99090401 Ry
     estimated scf accuracy    <       0.00000406 Ry
     smearing contrib. (-TS)   =      -0.12390093 Ry
     internal energy E=F+TS    =   -1485.86700308 Ry

     The total energy is F=E-TS. E is the sum of the following terms:
     one-electron contribution =   -7059.75952850 Ry
     hartree contribution      =    3532.46028729 Ry
     xc contribution           =    -563.29254630 Ry
     ewald contribution        =    2604.72475067 Ry
     electric field correction =       0.00003376 Ry

     convergence has been achieved in  28 iterations

     negative rho (up, down):  5.897E-04 0.000E+00

     Forces acting on atoms (cartesian axes, Ry/au):

     atom    1 type  1   force =     0.00091575    0.00063684    0.01384301
     atom    2 type  1   force =     0.00092485    0.00064352    0.01386720
     atom    3 type  2   force =     0.00097202    0.00065678   -0.01837155
     atom    4 type  2   force =     0.00095629    0.00068383   -0.01836952
     atom    5 type  1   force =     0.00891283    0.00619248    0.02630882
     atom    6 type  1   force =     0.00886636    0.00616219    0.02631417
     atom    7 type  2   force =    -0.01041523   -0.00720246   -0.01951829
     atom    8 type  2   force =    -0.01039060   -0.00726093   -0.01950533
     atom    9 type  1   force =     0.00065173    0.00045715   -0.00040628
     atom   10 type  1   force =     0.00056576    0.00039156   -0.00045037
     atom   11 type  2   force =    -0.00096415   -0.00070494   -0.00185188
     atom   12 type  2   force =    -0.00099562   -0.00065602   -0.00185998

     Total force =     0.061456     Total SCF correction =     0.005731

     Writing output data file ./Ti2La2/Ti2La2_beef.save/

     General routines

     Parallel routines

   This run was terminated on:   9:47:44  27Jun2022

   JOB DONE.