     Program PWSCF v.6.6 starts on 25Jun2022 at  8:48:44

     R & G space division:  proc/nbgrp/npool/nimage =      37
     Fft bands division:     nmany     =       1
     Reading input from Ti2Mo2.in
Warning: card &CELL ignored
Warning: card / ignored

     Current dimensions of program PWSCF are:
     Max number of different atomic species (ntypx) = 10
     Max number of k-points (npk) =  40000
     Max angular momentum in pseudopotentials (lmaxx) =  3
     Presently stress not available with electric field and gates

     Message from routine cell_base_init:
     DEPRECATED: use true lattice parameter, not A to a.u. conversion factor
     file Ti.pbe-spn-rrkjus_psl.1.0.0.UPF: wavefunction(s)  3S 3D renormalized
     file Mo.pbe-spn-rrkjus_psl.1.0.0.UPF: wavefunction(s)  4S renormalized

     IMPORTANT: XC functional enforced from input :
     Exchange-correlation= BEEF-VDW
                           (   1   4  43  14   2   0   0)
     Any further DFT definition will be discarded
     Please, verify this is what you really want

     Subspace diagonalization in iterative solution of the eigenvalue problem:
     a serial algorithm will be used

     Found symmetry operation: I + ( -0.5000  0.0000  0.0000)
     This is a supercell, fractional translations are disabled

     bravais-lattice index     =            0
     lattice parameter (alat)  =       1.8897  a.u.
     unit-cell volume          =    4707.7684 (a.u.)^3
     number of atoms/cell      =           12
     number of atomic types    =            2
     number of electrons       =       156.00
     number of Kohn-Sham states=           94
     kinetic-energy cutoff     =      55.1240  Ry
     charge density cutoff     =     551.2396  Ry
     convergence threshold     =      1.0E-05
     mixing beta               =       0.1000
     number of iterations used =           10  plain     mixing
     Exchange-correlation= BEEF-VDW
                           (   1   4  43  14   2   0   0)

     celldm(1)=   1.889726  celldm(2)=   0.000000  celldm(3)=   0.000000
     celldm(4)=   0.000000  celldm(5)=   0.000000  celldm(6)=   0.000000

     crystal axes: (cart. coord. in units of alat)
               a(1) = (   5.305113   0.000000   0.000000 )
               a(2) = (  -2.652556   5.344303   0.000000 )
               a(3) = (   0.000000   0.000000  24.605538 )

     reciprocal axes: (cart. coord. in units 2 pi/alat)
               b(1) = (  0.188497  0.093558 -0.000000 )
               b(2) = (  0.000000  0.187115  0.000000 )
               b(3) = (  0.000000 -0.000000  0.040641 )

     PseudoPot. # 1 for Ti read from file:
     ../pseudo/Ti.pbe-spn-rrkjus_psl.1.0.0.UPF
     MD5 check sum: e281089c08e14b8efcf92e44a67ada65
     Pseudo is Ultrasoft + core correction, Zval = 12.0
     Generated using "atomic" code by A. Dal Corso v.6.2.2
     Using radial grid of 1177 points,  6 beta functions with:
                l(1) =   0
                l(2) =   0
                l(3) =   1
                l(4) =   1
                l(5) =   2
                l(6) =   2
     Q(r) pseudized with 0 coefficients

     PseudoPot. # 2 for Mo read from file:
     ../pseudo/Mo.pbe-spn-rrkjus_psl.1.0.0.UPF
     MD5 check sum: 03f09b12e49601d1a456a78ce8b2d514
     Pseudo is Ultrasoft + core correction, Zval = 14.0
     Generated using "atomic" code by A. Dal Corso v.6.3
     Using radial grid of 1229 points,  6 beta functions with:
                l(1) =   0
                l(2) =   0
                l(3) =   1
                l(4) =   1
                l(5) =   2
                l(6) =   2
     Q(r) pseudized with 0 coefficients

     atomic species   valence    mass     pseudopotential
        Ti            12.00    47.86700     Ti( 1.00)
        Mo            14.00    95.95000     Mo( 1.00)

     No symmetry found

   Cartesian axes

     site n.     atom                  positions (alat units)
         1           Ti  tau(   1) = (   0.0000000   0.0000000  10.0000000  )
         2           Ti  tau(   2) = (   2.6525565   0.0000000  10.0000000  )
         3           Mo  tau(   3) = (   1.3262782   2.6721513  10.0000000  )
         4           Mo  tau(   4) = (  -1.3262782   2.6721513  10.0000000  )
         5           Ti  tau(   5) = (   2.6525565   1.3165526  12.3027690  )
         6           Ti  tau(   6) = (   0.0000000   1.3165526  12.3027690  )
         7           Mo  tau(   7) = (  -1.3262782   3.9887040  12.3027690  )
         8           Mo  tau(   8) = (   1.3262782   3.9887040  12.3027690  )
         9           Ti  tau(   9) = (   0.0001186   2.7055711  14.6907665  )
        10           Ti  tau(  10) = (   2.6526759   2.7055743  14.6907444  )
        11           Mo  tau(  11) = (   3.9787590   0.0136851  14.4817303  )
        12           Mo  tau(  12) = (   1.3261884   0.0136860  14.4817249  )

     number of k points=    74  Fermi-Dirac smearing, width (Ry)=  0.0100
                       cart. coord. in units 2pi/alat
        k(    1) = (   0.0000000   0.0000000   0.0000000), wk =   0.0138889
        k(    2) = (   0.0000000   0.0155929   0.0000000), wk =   0.0277778
        k(    3) = (   0.0000000   0.0311859   0.0000000), wk =   0.0277778
        k(    4) = (   0.0000000   0.0467788   0.0000000), wk =   0.0277778
        k(    5) = (   0.0000000   0.0623717   0.0000000), wk =   0.0277778
        k(    6) = (   0.0000000   0.0779646   0.0000000), wk =   0.0277778
        k(    7) = (   0.0000000  -0.0935576   0.0000000), wk =   0.0138889
        k(    8) = (   0.0157081   0.0077965   0.0000000), wk =   0.0277778
        k(    9) = (   0.0157081   0.0233894   0.0000000), wk =   0.0277778
        k(   10) = (   0.0157081   0.0389823   0.0000000), wk =   0.0277778
        k(   11) = (   0.0157081   0.0545752   0.0000000), wk =   0.0277778
        k(   12) = (   0.0157081   0.0701682   0.0000000), wk =   0.0277778
        k(   13) = (   0.0157081   0.0857611   0.0000000), wk =   0.0277778
        k(   14) = (   0.0157081  -0.0857611   0.0000000), wk =   0.0277778
        k(   15) = (   0.0157081  -0.0701682   0.0000000), wk =   0.0277778
        k(   16) = (   0.0157081  -0.0545753   0.0000000), wk =   0.0277778
        k(   17) = (   0.0157081  -0.0389823   0.0000000), wk =   0.0277778
        k(   18) = (   0.0157081  -0.0233894   0.0000000), wk =   0.0277778
        k(   19) = (   0.0157081  -0.0077965   0.0000000), wk =   0.0277778
        k(   20) = (   0.0314162   0.0155929   0.0000000), wk =   0.0277778
        k(   21) = (   0.0314162   0.0311859   0.0000000), wk =   0.0277778
        k(   22) = (   0.0314162   0.0467788   0.0000000), wk =   0.0277778
        k(   23) = (   0.0314162   0.0623717   0.0000000), wk =   0.0277778
        k(   24) = (   0.0314162   0.0779646   0.0000000), wk =   0.0277778
        k(   25) = (   0.0314162   0.0935576   0.0000000), wk =   0.0277778
        k(   26) = (   0.0314162  -0.0779646   0.0000000), wk =   0.0277778
        k(   27) = (   0.0314162  -0.0623717   0.0000000), wk =   0.0277778
        k(   28) = (   0.0314162  -0.0467788   0.0000000), wk =   0.0277778
        k(   29) = (   0.0314162  -0.0311859   0.0000000), wk =   0.0277778
        k(   30) = (   0.0314162  -0.0155929   0.0000000), wk =   0.0277778
        k(   31) = (   0.0314162  -0.0000000   0.0000000), wk =   0.0277778
        k(   32) = (   0.0471243   0.0233894   0.0000000), wk =   0.0277778
        k(   33) = (   0.0471243   0.0389823   0.0000000), wk =   0.0277778
        k(   34) = (   0.0471243   0.0545752   0.0000000), wk =   0.0277778
        k(   35) = (   0.0471243   0.0701682   0.0000000), wk =   0.0277778
        k(   36) = (   0.0471243   0.0857611   0.0000000), wk =   0.0277778
        k(   37) = (   0.0471243   0.1013540   0.0000000), wk =   0.0277778
        k(   38) = (   0.0471243  -0.0701682   0.0000000), wk =   0.0277778
        k(   39) = (   0.0471243  -0.0545753   0.0000000), wk =   0.0277778
        k(   40) = (   0.0471243  -0.0389823   0.0000000), wk =   0.0277778
        k(   41) = (   0.0471243  -0.0233894   0.0000000), wk =   0.0277778
        k(   42) = (   0.0471243  -0.0077965   0.0000000), wk =   0.0277778
        k(   43) = (   0.0471243   0.0077965   0.0000000), wk =   0.0277778
        k(   44) = (   0.0628325   0.0311859   0.0000000), wk =   0.0277778
        k(   45) = (   0.0628325   0.0467788   0.0000000), wk =   0.0277778
        k(   46) = (   0.0628325   0.0623717   0.0000000), wk =   0.0277778
        k(   47) = (   0.0628325   0.0779646   0.0000000), wk =   0.0277778
        k(   48) = (   0.0628325   0.0935576   0.0000000), wk =   0.0277778
        k(   49) = (   0.0628325   0.1091505   0.0000000), wk =   0.0277778
        k(   50) = (   0.0628325  -0.0623717   0.0000000), wk =   0.0277778
        k(   51) = (   0.0628325  -0.0467788   0.0000000), wk =   0.0277778
        k(   52) = (   0.0628325  -0.0311859   0.0000000), wk =   0.0277778
        k(   53) = (   0.0628325  -0.0155929   0.0000000), wk =   0.0277778
        k(   54) = (   0.0628325  -0.0000000   0.0000000), wk =   0.0277778
        k(   55) = (   0.0628325   0.0155929   0.0000000), wk =   0.0277778
        k(   56) = (   0.0785406   0.0389823   0.0000000), wk =   0.0277778
        k(   57) = (   0.0785406   0.0545752   0.0000000), wk =   0.0277778
        k(   58) = (   0.0785406   0.0701682   0.0000000), wk =   0.0277778
        k(   59) = (   0.0785406   0.0857611   0.0000000), wk =   0.0277778
        k(   60) = (   0.0785406   0.1013540   0.0000000), wk =   0.0277778
        k(   61) = (   0.0785406   0.1169470   0.0000000), wk =   0.0277778
        k(   62) = (   0.0785406  -0.0545753   0.0000000), wk =   0.0277778
        k(   63) = (   0.0785406  -0.0389823   0.0000000), wk =   0.0277778
        k(   64) = (   0.0785406  -0.0233894   0.0000000), wk =   0.0277778
        k(   65) = (   0.0785406  -0.0077965   0.0000000), wk =   0.0277778
        k(   66) = (   0.0785406   0.0077965   0.0000000), wk =   0.0277778
        k(   67) = (   0.0785406   0.0233894   0.0000000), wk =   0.0277778
        k(   68) = (  -0.0942487  -0.0467788   0.0000000), wk =   0.0138889
        k(   69) = (  -0.0942487  -0.0311858   0.0000000), wk =   0.0277778
        k(   70) = (  -0.0942487  -0.0155929   0.0000000), wk =   0.0277778
        k(   71) = (  -0.0942487   0.0000000   0.0000000), wk =   0.0277778
        k(   72) = (  -0.0942487   0.0155929   0.0000000), wk =   0.0277778
        k(   73) = (  -0.0942487   0.0311859   0.0000000), wk =   0.0277778
        k(   74) = (  -0.0942487  -0.1403363   0.0000000), wk =   0.0138889

     Check: negative core charge=   -0.000001

     Initial potential from superposition of free atoms

     starting charge  155.98584, renormalised to  156.00000

     negative rho (up, down):  9.556E-04 0.000E+00

     %%%%%%%%%%%%%%%%%%%%%%%%%%%%%%%%%%%%%%%%%%%%%%%%%%%%%%%%%%%%%%%%%%%%%%%%
     %                                                                      %
     % You are using vdW-DF, which was implemented by the Thonhauser group. %
     % Please cite the following two papers that made this development      %
     % possible and the two reviews that describe the various versions:     %
     %                                                                      %
     %   T. Thonhauser et al., PRL 115, 136402 (2015).                      %
     %   T. Thonhauser et al., PRB 76, 125112 (2007).                       %
     %   K. Berland et al., Rep. Prog. Phys. 78, 066501 (2015).             %
     %   D.C. Langreth et al., J. Phys.: Condens. Matter 21, 084203 (2009). %
     %                                                                      %
     %                                                                      %
     % If you are calculating the stress with vdW-DF, please also cite:     %
     %                                                                      %
     %   R. Sabatini et al., J. Phys.: Condens. Matter 24, 424209 (2012).   %
     %                                                                      %
     %%%%%%%%%%%%%%%%%%%%%%%%%%%%%%%%%%%%%%%%%%%%%%%%%%%%%%%%%%%%%%%%%%%%%%%%

     Adding external electric field

     Computed dipole along edir(3) :
        Dipole                0.0003 Ry au,          0.0008 Debye
        Dipole field          0.0000 Ry au,

        Potential amp.       -0.0001 Ry
        Total length         45.3353 bohr

     Starting wfcs are  120 randomized atomic wfcs

     Self-consistent Calculation

     iteration #  1     ecut=    55.12 Ry     beta= 0.10
     Davidson diagonalization with overlap
     ethr =  1.00E-02,  avg # of iterations =  2.3

[...]

     total energy              =   -1562.29369685 Ry
     estimated scf accuracy    <       7.78548233 Ry

[...]

     iteration #  9     ecut=    55.12 Ry     beta= 0.10
     Davidson diagonalization with overlap
     c_bands:  1 eigenvalues not converged
     c_bands:  1 eigenvalues not converged
     c_bands:  1 eigenvalues not converged
     c_bands:  1 eigenvalues not converged
     ethr =  2.21E-05,  avg # of iterations =  8.2

[...]

     iteration # 12     ecut=    55.12 Ry     beta= 0.10
     Davidson diagonalization with overlap
     c_bands:  1 eigenvalues not converged
     c_bands:  1 eigenvalues not converged
     c_bands:  1 eigenvalues not converged
     ethr =  2.29E-06,  avg # of iterations =  6.6

[...]

     total energy              =   -1563.04628097 Ry
     estimated scf accuracy    <       0.00001602 Ry

     iteration # 17     ecut=    55.12 Ry     beta= 0.10
     Davidson diagonalization with overlap
     ethr =  1.03E-08,  avg # of iterations =  5.4

[...]

     Adding external electric field

     Computed dipole along edir(3) :
        Dipole                0.0461 Ry au,          0.1172 Debye
        Dipole field          0.0001 Ry au,

        Potential amp.       -0.0112 Ry
        Total length         45.3353 bohr

     End of self-consistent calculation

          k = 0.0000 0.0000 0.0000 ( 32533 PWs)   bands (ev):

   -59.5653 -59.4138 -59.3972 -59.3476 -59.2483 -59.1988 -55.5709 -55.5006
   -55.4616 -55.3907 -55.3186 -55.2088 -34.1494 -34.0538 -33.9433 -33.9079
   -33.8853 -33.6169 -33.4926 -33.4559 -33.4402 -33.4078 -33.3520 -33.2824
   -33.2427 -33.0593 -32.9668 -32.9403 -32.7841 -32.7490 -32.0160 -31.9786
   -31.9769 -31.8965 -31.8823 -31.8503 -31.7941 -31.7231 -31.6682 -31.6624
   -31.6061 -31.5116 -31.4489 -31.4258 -31.3522 -31.2757 -31.2364 -31.1128
    -4.2222  -2.8122  -2.7335  -2.2981  -2.1488  -2.0874  -1.7176  -1.5130
    -1.4901  -1.4022  -1.3623  -1.2601  -1.2398  -1.0777  -0.7825  -0.6392
    -0.2122  -0.0197   0.1501   0.2899   0.4028   0.8637   0.9536   1.1341
     1.1634   1.3335   1.5355   1.7716   1.8019   1.9074   2.0361   2.0729
     2.3664   2.4253   2.5378   2.5424   2.5513   2.7183   2.7857   2.9426
     3.0351   3.0634   3.0982   3.3486   3.4211   3.7414

[...]

          k = 0.0785 0.0234 0.0000 ( 32558 PWs)   bands (ev):

[...]

          k =-0.0942-0.0468 0.0000 ( 32550 PWs)   bands (ev):

[...]

          k =-0.0942-0.1403 0.0000 ( 32550 PWs)   bands (ev):

   -59.4901 -59.4901 -59.3233 -59.3233 -59.2738 -59.2738 -55.5168 -55.5167
   -55.4461 -55.4461 -55.2641 -55.2641 -33.9647 -33.9647 -33.5765 -33.5765
   -33.5220 -33.5220 -33.4222 -33.4222 -33.3815 -33.3815 -33.3549 -33.3549
   -33.3455 -33.3454 -33.3163 -33.3163 -32.9997 -32.9997 -31.9431 -31.9430
   -31.8357 -31.8357 -31.7071 -31.7070 -31.6588 -31.6587 -31.6491 -31.6491
   -31.6200 -31.6200 -31.4947 -31.4947 -31.4836 -31.4836 -31.3893 -31.3892
    -2.5127  -2.5127  -1.5720  -1.5720  -1.3725  -1.3725  -1.1035  -1.1035
    -0.8849  -0.8849  -0.4961  -0.4961  -0.2176  -0.2176  -0.1253  -0.1253
     0.0951   0.0951   0.3212   0.3212   0.5167   0.5167   0.8802   0.8803
     0.9214   0.9214   1.0431   1.0432   1.3047   1.3047   1.5288   1.5288
     1.6493   1.6493   1.7309   1.7309   1.9975   1.9975   2.4287   2.4287
     2.6807   2.6807   2.7691   2.7691   3.0053   3.0054

     the Fermi energy is     1.5065 ev

!    total energy              =   -1563.04620114 Ry
     estimated scf accuracy    <       0.00000716 Ry
     smearing contrib. (-TS)   =      -0.09007157 Ry
     internal energy E=F+TS    =   -1562.95612957 Ry

     The total energy is F=E-TS. E is the sum of the following terms:
     one-electron contribution =  -12872.53102258 Ry
     hartree contribution      =    6425.45280062 Ry
     xc contribution           =    -236.29479950 Ry
     ewald contribution        =    5120.41688621 Ry
     electric field correction =       0.00000568 Ry

     convergence has been achieved in  17 iterations

     negative rho (up, down):  8.518E-04 0.000E+00

     Forces acting on atoms (cartesian axes, Ry/au):

     atom    1 type  1   force =    -0.00000575   -0.00757464   -0.01697837
     atom    2 type  1   force =    -0.00000259   -0.00759147   -0.01696169
     atom    3 type  2   force =    -0.00000309   -0.00235007    0.02399766
     atom    4 type  2   force =    -0.00000049   -0.00235204    0.02399906
     atom    5 type  1   force =    -0.00000816    0.01274599   -0.00058961
     atom    6 type  1   force =     0.00000108    0.01273706   -0.00058823
     atom    7 type  2   force =     0.00000591   -0.00301048   -0.00815858
     atom    8 type  2   force =     0.00001349   -0.00300714   -0.00816217
     atom    9 type  1   force =    -0.00000796    0.00065825    0.00048349
     atom   10 type  1   force =     0.00000530    0.00065891    0.00045560
     atom   11 type  2   force =    -0.00000126   -0.00046024    0.00125014
     atom   12 type  2   force =     0.00000352   -0.00045412    0.00125271

     Total force =     0.048326     Total SCF correction =     0.007832
     SCF correction compared to forces is large: reduce conv_thr to get better values

     Writing output data file ./Ti2Mo2/Ti2Mo2_beef.save/

     General routines

     Parallel routines

   This run was terminated on:   9:52:25  25Jun2022

   JOB DONE.