     Program PWSCF v.6.6 starts on 25Jun2022 at  9:52:26

     R & G space division:  proc/nbgrp/npool/nimage =      37
     Fft bands division:     nmany     =       1
     Reading input from Ti2Nb2.in
Warning: card &CELL ignored
Warning: card / ignored

     Current dimensions of program PWSCF are:
     Max number of different atomic species (ntypx) = 10
     Max number of k-points (npk) =  40000
     Max angular momentum in pseudopotentials (lmaxx) =  3
     Presently stress not available with electric field and gates

     Message from routine cell_base_init:
     DEPRECATED: use true lattice parameter, not A to a.u. conversion factor
     file Ti.pbe-spn-rrkjus_psl.1.0.0.UPF: wavefunction(s)  3S 3D renormalized
     file Nb.pbe-spn-rrkjus_psl.1.0.0.UPF: wavefunction(s)  4S 4P renormalized

     IMPORTANT: XC functional enforced from input :
     Exchange-correlation= BEEF-VDW
                           (   1   4  43  14   2   0   0)
     Any further DFT definition will be discarded
     Please, verify this is what you really want

     Subspace diagonalization in iterative solution of the eigenvalue problem:
     a serial algorithm will be used

     Found symmetry operation: I + ( -0.5000  0.0000  0.0000)
     This is a supercell, fractional translations are disabled

     bravais-lattice index     =            0
     lattice parameter (alat)  =       1.8897  a.u.
     unit-cell volume          =    5015.9385 (a.u.)^3
     number of atoms/cell      =           12
     number of atomic types    =            2
     number of electrons       =       150.00
     number of Kohn-Sham states=           90
     kinetic-energy cutoff     =      55.1240  Ry
     charge density cutoff     =     551.2396  Ry
     convergence threshold     =      1.0E-05
     mixing beta               =       0.1000
     number of iterations used =           10  plain     mixing
     Exchange-correlation= BEEF-VDW
                           (   1   4  43  14   2   0   0)

     celldm(1)=   1.889726  celldm(2)=   0.000000  celldm(3)=   0.000000
     celldm(4)=   0.000000  celldm(5)=   0.000000  celldm(6)=   0.000000

     crystal axes: (cart. coord. in units of alat)
               a(1) = (   5.521343   0.000000   0.000000 )
               a(2) = (  -2.760672   5.437703   0.000000 )
               a(3) = (   0.000000   0.000000  24.756855 )

     reciprocal axes: (cart. coord. in units 2 pi/alat)
               b(1) = (  0.181115  0.091951 -0.000000 )
               b(2) = (  0.000000  0.183901  0.000000 )
               b(3) = (  0.000000 -0.000000  0.040393 )

     PseudoPot. # 1 for Ti read from file:
     ../pseudo/Ti.pbe-spn-rrkjus_psl.1.0.0.UPF
     MD5 check sum: e281089c08e14b8efcf92e44a67ada65
     Pseudo is Ultrasoft + core correction, Zval = 12.0
     Generated using "atomic" code by A. Dal Corso v.6.2.2
     Using radial grid of 1177 points,  6 beta functions with:
                l(1) =   0
                l(2) =   0
                l(3) =   1
                l(4) =   1
                l(5) =   2
                l(6) =   2
     Q(r) pseudized with 0 coefficients

     PseudoPot. # 2 for Nb read from file:
     ../pseudo/Nb.pbe-spn-rrkjus_psl.1.0.0.UPF
     MD5 check sum: 6ee677a9f002bd3e3657f443f129faad
     Pseudo is Ultrasoft + core correction, Zval = 13.0
     Generated using "atomic" code by A. Dal Corso v.6.2.2
     Using radial grid of 1227 points,  6 beta functions with:
                l(1) =   0
                l(2) =   0
                l(3) =   1
                l(4) =   1
                l(5) =   2
                l(6) =   2
     Q(r) pseudized with 0 coefficients

     atomic species   valence    mass     pseudopotential
        Ti            12.00    47.86700     Ti( 1.00)
        Nb            13.00    92.90637     Nb( 1.00)

     No symmetry found

   Cartesian axes

     site n.     atom                  positions (alat units)
         1           Ti  tau(   1) = (   0.0000000   0.0000000  10.0000000  )
         2           Ti  tau(   2) = (   2.7606717   0.0000000  10.0000000  )
         3           Nb  tau(   3) = (   1.3803358   2.7188516  10.0000000  )
         4           Nb  tau(   4) = (  -1.3803358   2.7188516  10.0000000  )
         5           Ti  tau(   5) = (   2.7606717   1.4015675  12.3784274  )
         6           Ti  tau(   6) = (  -0.0000000   1.4015675  12.3784274  )
         7           Nb  tau(   7) = (  -1.3803358   4.1204191  12.3784274  )
         8           Nb  tau(   8) = (   1.3803358   4.1204191  12.3784274  )
         9           Ti  tau(   9) = (  -0.0001195   2.8011625  14.7258435  )
        10           Ti  tau(  10) = (   2.7605522   2.8011527  14.7258378  )
        11           Nb  tau(  11) = (   4.1407578   0.1027322  14.6453979  )
        12           Nb  tau(  12) = (   1.3800889   0.1027329  14.6453966  )

     number of k points=    74  Fermi-Dirac smearing, width (Ry)=  0.0100
                       cart. coord. in units 2pi/alat
        k(    1) = (   0.0000000   0.0000000   0.0000000), wk =   0.0138889
        k(    2) = (   0.0000000   0.0153251   0.0000000), wk =   0.0277778
        k(    3) = (   0.0000000   0.0306502   0.0000000), wk =   0.0277778
        k(    4) = (   0.0000000   0.0459753   0.0000000), wk =   0.0277778
        k(    5) = (   0.0000000   0.0613004   0.0000000), wk =   0.0277778
        k(    6) = (   0.0000000   0.0766255   0.0000000), wk =   0.0277778
        k(    7) = (   0.0000000  -0.0919506   0.0000000), wk =   0.0138889
        k(    8) = (   0.0150929   0.0076626   0.0000000), wk =   0.0277778
        k(    9) = (   0.0150929   0.0229876   0.0000000), wk =   0.0277778
        k(   10) = (   0.0150929   0.0383127   0.0000000), wk =   0.0277778
        k(   11) = (   0.0150929   0.0536378   0.0000000), wk =   0.0277778
        k(   12) = (   0.0150929   0.0689629   0.0000000), wk =   0.0277778
        k(   13) = (   0.0150929   0.0842880   0.0000000), wk =   0.0277778
        k(   14) = (   0.0150929  -0.0842880   0.0000000), wk =   0.0277778
        k(   15) = (   0.0150929  -0.0689629   0.0000000), wk =   0.0277778
        k(   16) = (   0.0150929  -0.0536378   0.0000000), wk =   0.0277778
        k(   17) = (   0.0150929  -0.0383127   0.0000000), wk =   0.0277778
        k(   18) = (   0.0150929  -0.0229876   0.0000000), wk =   0.0277778
        k(   19) = (   0.0150929  -0.0076625   0.0000000), wk =   0.0277778
        k(   20) = (   0.0301859   0.0153251   0.0000000), wk =   0.0277778
        k(   21) = (   0.0301859   0.0306502   0.0000000), wk =   0.0277778
        k(   22) = (   0.0301859   0.0459753   0.0000000), wk =   0.0277778
        k(   23) = (   0.0301859   0.0613004   0.0000000), wk =   0.0277778
        k(   24) = (   0.0301859   0.0766255   0.0000000), wk =   0.0277778
        k(   25) = (   0.0301859   0.0919506   0.0000000), wk =   0.0277778
        k(   26) = (   0.0301859  -0.0766255   0.0000000), wk =   0.0277778
        k(   27) = (   0.0301859  -0.0613004   0.0000000), wk =   0.0277778
        k(   28) = (   0.0301859  -0.0459753   0.0000000), wk =   0.0277778
        k(   29) = (   0.0301859  -0.0306502   0.0000000), wk =   0.0277778
        k(   30) = (   0.0301859  -0.0153251   0.0000000), wk =   0.0277778
        k(   31) = (   0.0301859   0.0000000   0.0000000), wk =   0.0277778
        k(   32) = (   0.0452788   0.0229877   0.0000000), wk =   0.0277778
        k(   33) = (   0.0452788   0.0383128   0.0000000), wk =   0.0277778
        k(   34) = (   0.0452788   0.0536378   0.0000000), wk =   0.0277778
        k(   35) = (   0.0452788   0.0689629   0.0000000), wk =   0.0277778
        k(   36) = (   0.0452788   0.0842880   0.0000000), wk =   0.0277778
        k(   37) = (   0.0452788   0.0996131   0.0000000), wk =   0.0277778
        k(   38) = (   0.0452788  -0.0689629   0.0000000), wk =   0.0277778
        k(   39) = (   0.0452788  -0.0536378   0.0000000), wk =   0.0277778
        k(   40) = (   0.0452788  -0.0383127   0.0000000), wk =   0.0277778
        k(   41) = (   0.0452788  -0.0229876   0.0000000), wk =   0.0277778
        k(   42) = (   0.0452788  -0.0076625   0.0000000), wk =   0.0277778
        k(   43) = (   0.0452788   0.0076626   0.0000000), wk =   0.0277778
        k(   44) = (   0.0603718   0.0306502   0.0000000), wk =   0.0277778
        k(   45) = (   0.0603718   0.0459753   0.0000000), wk =   0.0277778
        k(   46) = (   0.0603718   0.0613004   0.0000000), wk =   0.0277778
        k(   47) = (   0.0603718   0.0766255   0.0000000), wk =   0.0277778
        k(   48) = (   0.0603718   0.0919506   0.0000000), wk =   0.0277778
        k(   49) = (   0.0603718   0.1072757   0.0000000), wk =   0.0277778
        k(   50) = (   0.0603718  -0.0613004   0.0000000), wk =   0.0277778
        k(   51) = (   0.0603718  -0.0459753   0.0000000), wk =   0.0277778
        k(   52) = (   0.0603718  -0.0306502   0.0000000), wk =   0.0277778
        k(   53) = (   0.0603718  -0.0153251   0.0000000), wk =   0.0277778
        k(   54) = (   0.0603718   0.0000000   0.0000000), wk =   0.0277778
        k(   55) = (   0.0603718   0.0153251   0.0000000), wk =   0.0277778
        k(   56) = (   0.0754647   0.0383128   0.0000000), wk =   0.0277778
        k(   57) = (   0.0754647   0.0536379   0.0000000), wk =   0.0277778
        k(   58) = (   0.0754647   0.0689629   0.0000000), wk =   0.0277778
        k(   59) = (   0.0754647   0.0842880   0.0000000), wk =   0.0277778
        k(   60) = (   0.0754647   0.0996131   0.0000000), wk =   0.0277778
        k(   61) = (   0.0754647   0.1149382   0.0000000), wk =   0.0277778
        k(   62) = (   0.0754647  -0.0536378   0.0000000), wk =   0.0277778
        k(   63) = (   0.0754647  -0.0383127   0.0000000), wk =   0.0277778
        k(   64) = (   0.0754647  -0.0229876   0.0000000), wk =   0.0277778
        k(   65) = (   0.0754647  -0.0076625   0.0000000), wk =   0.0277778
        k(   66) = (   0.0754647   0.0076626   0.0000000), wk =   0.0277778
        k(   67) = (   0.0754647   0.0229877   0.0000000), wk =   0.0277778
        k(   68) = (  -0.0905577  -0.0459753   0.0000000), wk =   0.0138889
        k(   69) = (  -0.0905577  -0.0306502   0.0000000), wk =   0.0277778
        k(   70) = (  -0.0905577  -0.0153251   0.0000000), wk =   0.0277778
        k(   71) = (  -0.0905577  -0.0000000   0.0000000), wk =   0.0277778
        k(   72) = (  -0.0905577   0.0153251   0.0000000), wk =   0.0277778
        k(   73) = (  -0.0905577   0.0306502   0.0000000), wk =   0.0277778
        k(   74) = (  -0.0905577  -0.1379259   0.0000000), wk =   0.0138889

     Check: negative core charge=   -0.000001

     Initial potential from superposition of free atoms

     starting charge  149.98327, renormalised to  150.00000

     negative rho (up, down):  1.237E-03 0.000E+00

     %%%%%%%%%%%%%%%%%%%%%%%%%%%%%%%%%%%%%%%%%%%%%%%%%%%%%%%%%%%%%%%%%%%%%%%%
     %                                                                      %
     % You are using vdW-DF, which was implemented by the Thonhauser group. %
     % Please cite the following two papers that made this development      %
     % possible and the two reviews that describe the various versions:     %
     %                                                                      %
     %   T. Thonhauser et al., PRL 115, 136402 (2015).                      %
     %   T. Thonhauser et al., PRB 76, 125112 (2007).                       %
     %   K. Berland et al., Rep. Prog. Phys. 78, 066501 (2015).             %
     %   D.C. Langreth et al., J. Phys.: Condens. Matter 21, 084203 (2009). %
     %                                                                      %
     %                                                                      %
     % If you are calculating the stress with vdW-DF, please also cite:     %
     %                                                                      %
     %   R. Sabatini et al., J. Phys.: Condens. Matter 24, 424209 (2012).   %
     %                                                                      %
     %%%%%%%%%%%%%%%%%%%%%%%%%%%%%%%%%%%%%%%%%%%%%%%%%%%%%%%%%%%%%%%%%%%%%%%%

     Adding external electric field

     Computed dipole along edir(3) :
        Dipole                0.0000 Ry au,          0.0001 Debye
        Dipole field          0.0000 Ry au,

        Potential amp.       -0.0000 Ry
        Total length         45.6141 bohr

     Starting wfcs are  138 randomized atomic wfcs

     Self-consistent Calculation

     iteration #  1     ecut=    55.12 Ry     beta= 0.10
     Davidson diagonalization with overlap
     ethr =  1.00E-02,  avg # of iterations =  2.0

[...]

     total energy              =   -1433.01636111 Ry
     estimated scf accuracy    <       9.71762519 Ry

[...]

     iteration # 10     ecut=    55.12 Ry     beta= 0.10
     Davidson diagonalization with overlap
     c_bands:  1 eigenvalues not converged
     ethr =  4.68E-05,  avg # of iterations =  5.9

[...]

     iteration # 16     ecut=    55.12 Ry     beta= 0.10
     Davidson diagonalization with overlap
     c_bands:  1 eigenvalues not converged
     c_bands:  1 eigenvalues not converged
     ethr =  4.74E-08,  avg # of iterations =  6.6

[...]

     total energy              =   -1434.00306279 Ry
     estimated scf accuracy    <       0.00001430 Ry

     iteration # 18     ecut=    55.12 Ry     beta= 0.10
     Davidson diagonalization with overlap
     ethr =  9.54E-09,  avg # of iterations =  2.6

[...]

     Adding external electric field

     Computed dipole along edir(3) :
        Dipole                0.0150 Ry au,          0.0382 Debye
        Dipole field          0.0000 Ry au,

        Potential amp.       -0.0034 Ry
        Total length         45.6141 bohr

     End of self-consistent calculation

          k = 0.0000 0.0000 0.0000 ( 34751 PWs)   bands (ev):

   -55.7856 -55.7771 -55.7137 -55.7055 -55.5594 -55.4877 -53.6384 -53.5966
   -53.4896 -53.4472 -53.4182 -53.2695 -32.2194 -32.2090 -32.1939 -32.1170
   -32.0785 -32.0432 -32.0253 -32.0161 -32.0009 -31.9457 -31.9242 -31.7937
   -31.7077 -31.6962 -31.6678 -31.6631 -31.6385 -31.4975 -30.1702 -30.1466
   -30.0593 -30.0122 -29.9153 -29.6974 -29.5884 -29.5576 -29.5562 -29.4675
   -29.4329 -29.3852 -29.2602 -29.0882 -29.0060 -28.9786 -28.9704 -28.8581
    -4.1133  -2.8098  -2.2177  -2.0485  -1.8155  -1.7013  -1.4122  -1.2262
    -1.1466  -1.0884  -1.0559  -0.9215  -0.8979  -0.7455  -0.5548  -0.3998
     0.1996   0.2711   0.4024   0.7378   0.9385   0.9799   1.0009   1.2726
     1.2970   1.4224   1.4440   1.7467   1.9607   1.9632   2.1238   2.1548
     2.2943   2.2946   2.6552   2.7260   2.7862   2.8134   2.8660   2.8924
     2.9238   3.0078

[...]

          k = 0.0755 0.0230 0.0000 ( 34685 PWs)   bands (ev):

[...]

          k =-0.0906-0.0460 0.0000 ( 34662 PWs)   bands (ev):

[...]

          k =-0.0906-0.1379 0.0000 ( 34662 PWs)   bands (ev):

   -55.7497 -55.7497 -55.7413 -55.7413 -55.5237 -55.5236 -53.5649 -53.5649
   -53.5227 -53.5227 -53.3445 -53.3444 -32.1511 -32.1510 -32.0498 -32.0497
   -31.9744 -31.9744 -31.9557 -31.9557 -31.9439 -31.9439 -31.9391 -31.9391
   -31.7743 -31.7742 -31.7440 -31.7439 -31.6659 -31.6659 -29.9971 -29.9971
   -29.6270 -29.6270 -29.6170 -29.6170 -29.5862 -29.5862 -29.5401 -29.5401
   -29.5025 -29.5025 -29.4570 -29.4569 -29.3277 -29.3276 -29.0298 -29.0298
    -2.4486  -2.4486  -1.4318  -1.4318  -1.1083  -1.1083  -0.7578  -0.7577
    -0.5635  -0.5635  -0.2385  -0.2385   0.0749   0.0749   0.2460   0.2460
     0.3005   0.3005   0.5326   0.5326   0.6643   0.6643   0.9945   0.9945
     1.0559   1.0559   1.2524   1.2524   1.3251   1.3252   1.5876   1.5876
     1.7037   1.7038   1.7850   1.7850   1.9448   1.9448   2.5516   2.5516
     2.8410   2.8413

     the Fermi energy is     1.2833 ev

!    total energy              =   -1434.00301737 Ry
     estimated scf accuracy    <       0.00000216 Ry
     smearing contrib. (-TS)   =      -0.10081841 Ry
     internal energy E=F+TS    =   -1433.90219896 Ry

     The total energy is F=E-TS. E is the sum of the following terms:
     one-electron contribution =  -11197.23421834 Ry
     hartree contribution      =    5587.36154071 Ry
     xc contribution           =    -230.53904630 Ry
     ewald contribution        =    4406.50952440 Ry
     electric field correction =       0.00000056 Ry

     convergence has been achieved in  18 iterations

     negative rho (up, down):  1.119E-03 0.000E+00

     Forces acting on atoms (cartesian axes, Ry/au):

     atom    1 type  1   force =    -0.00000753    0.00028856    0.00274270
     atom    2 type  1   force =    -0.00000834    0.00029245    0.00275218
     atom    3 type  2   force =     0.00001084   -0.00127045    0.01629732
     atom    4 type  2   force =     0.00000374   -0.00126756    0.01630093
     atom    5 type  1   force =    -0.00000123    0.00169516   -0.00901127
     atom    6 type  1   force =    -0.00000357    0.00169785   -0.00900912
     atom    7 type  2   force =     0.00000714   -0.00259334   -0.01142918
     atom    8 type  2   force =     0.00000330   -0.00259172   -0.01142600
     atom    9 type  1   force =     0.00000118    0.00047559    0.00055095
     atom   10 type  1   force =     0.00000160    0.00047335    0.00054530
     atom   11 type  2   force =    -0.00000788    0.00140048    0.00084554
     atom   12 type  2   force =     0.00000075    0.00139964    0.00084065

     Total force =     0.031606     Total SCF correction =     0.005261
     SCF correction compared to forces is large: reduce conv_thr to get better values

     Writing output data file ./Ti2Nb2/Ti2Nb2_beef.save/

     General routines

     Parallel routines

   This run was terminated on:  10:55: 2  25Jun2022

   JOB DONE.