     Program PWSCF v.6.6 starts on 25Jun2022 at 10:55: 5

     R & G space division:  proc/nbgrp/npool/nimage =      37
     Fft bands division:     nmany     =       1
     Reading input from Ti2Os2.in
Warning: card &CELL ignored
Warning: card / ignored

     Current dimensions of program PWSCF are:
     Max number of different atomic species (ntypx) = 10
     Max number of k-points (npk) =  40000
     Max angular momentum in pseudopotentials (lmaxx) =  3
     Presently stress not available with electric field and gates

     Message from routine cell_base_init:
     DEPRECATED: use true lattice parameter, not A to a.u. conversion factor
     file Ti.pbe-spn-rrkjus_psl.1.0.0.UPF: wavefunction(s)  3S 3D renormalized

     IMPORTANT: XC functional enforced from input :
     Exchange-correlation= BEEF-VDW
                           (   1   4  43  14   2   0   0)
     Any further DFT definition will be discarded
     Please, verify this is what you really want

     Subspace diagonalization in iterative solution of the eigenvalue problem:
     a serial algorithm will be used

     Found symmetry operation: I + (  0.5000  0.5000  0.0000)
     This is a supercell, fractional translations are disabled

     bravais-lattice index     =            0
     lattice parameter (alat)  =       1.8897  a.u.
     unit-cell volume          =    4474.0685 (a.u.)^3
     number of atoms/cell      =           12
     number of atomic types    =            2
     number of electrons       =       168.00
     number of Kohn-Sham states=          101
     kinetic-energy cutoff     =      55.1240  Ry
     charge density cutoff     =     551.2396  Ry
     convergence threshold     =      1.0E-05
     mixing beta               =       0.1000
     number of iterations used =           10  plain     mixing
     Exchange-correlation= BEEF-VDW
                           (   1   4  43  14   2   0   0)

     celldm(1)=   1.889726  celldm(2)=   0.000000  celldm(3)=   0.000000
     celldm(4)=   0.000000  celldm(5)=   0.000000  celldm(6)=   0.000000

     crystal axes: (cart. coord. in units of alat)
               a(1) = (   5.369221   0.000000   0.000000 )
               a(2) = (   1.783452   5.064369   0.000000 )
               a(3) = (   0.000000   0.000000  24.382009 )

     reciprocal axes: (cart. coord. in units 2 pi/alat)
               b(1) = (  0.186247 -0.065588  0.000000 )
               b(2) = (  0.000000  0.197458  0.000000 )
               b(3) = (  0.000000  0.000000  0.041014 )

     PseudoPot. # 1 for Ti read from file:
     ../pseudo/Ti.pbe-spn-rrkjus_psl.1.0.0.UPF
     MD5 check sum: e281089c08e14b8efcf92e44a67ada65
     Pseudo is Ultrasoft + core correction, Zval = 12.0
     Generated using "atomic" code by A. Dal Corso v.6.2.2
     Using radial grid of 1177 points,  6 beta functions with:
                l(1) =   0
                l(2) =   0
                l(3) =   1
                l(4) =   1
                l(5) =   2
                l(6) =   2
     Q(r) pseudized with 0 coefficients

     PseudoPot. # 2 for Os read from file:
     ../pseudo/Os.pbe-spn-rrkjus_psl.1.0.0.UPF
     MD5 check sum: 3e7416ed594f6513d36e5cb31ba709d9
     Pseudo is Ultrasoft + core correction, Zval = 16.0
     Generated using "atomic" code by A. Dal Corso v.6.2.2
     Using radial grid of 1275 points,  6 beta functions with:
                l(1) =   0
                l(2) =   0
                l(3) =   1
                l(4) =   1
                l(5) =   2
                l(6) =   2
     Q(r) pseudized with 0 coefficients

     atomic species   valence    mass     pseudopotential
        Ti            12.00    47.86700     Ti( 1.00)
        Os            16.00   190.23000     Os( 1.00)

     No symmetry found

   Cartesian axes

     site n.     atom                  positions (alat units)
         1           Ti  tau(   1) = (   0.0000000   0.0000000  10.0000000  )
         2           Ti  tau(   2) = (   3.5763364   2.5321843  10.0000000  )
         3           Os  tau(   3) = (   2.6846104   0.0000000  10.0000000  )
         4           Os  tau(   4) = (   0.8917261   2.5321843  10.0000000  )
         5           Ti  tau(   5) = (   5.3692207   3.8016156  12.1910047  )
         6           Ti  tau(   6) = (   1.7928843   1.2694313  12.1910047  )
         7           Os  tau(   7) = (   2.6846104   3.8016156  12.1910047  )
         8           Os  tau(   8) = (   4.4774946   1.2694313  12.1910047  )
         9           Ti  tau(   9) = (   3.5835888   2.5373175  14.4130438  )
        10           Ti  tau(  10) = (   0.0072606   0.0051415  14.4130463  )
        11           Os  tau(  11) = (   0.9000940   2.5381081  14.2492615  )
        12           Os  tau(  12) = (   2.6929794   0.0059263  14.2492665  )

     number of k points=    74  Fermi-Dirac smearing, width (Ry)=  0.0100
                       cart. coord. in units 2pi/alat
        k(    1) = (   0.0000000   0.0000000   0.0000000), wk =   0.0138889
        k(    2) = (   0.0000000   0.0164548   0.0000000), wk =   0.0277778
        k(    3) = (   0.0000000   0.0329097   0.0000000), wk =   0.0277778
        k(    4) = (   0.0000000   0.0493645   0.0000000), wk =   0.0277778
        k(    5) = (   0.0000000   0.0658193   0.0000000), wk =   0.0277778
        k(    6) = (   0.0000000   0.0822742   0.0000000), wk =   0.0277778
        k(    7) = (   0.0000000  -0.0987290   0.0000000), wk =   0.0138889
        k(    8) = (   0.0155206  -0.0054657   0.0000000), wk =   0.0277778
        k(    9) = (   0.0155206   0.0109892   0.0000000), wk =   0.0277778
        k(   10) = (   0.0155206   0.0274440   0.0000000), wk =   0.0277778
        k(   11) = (   0.0155206   0.0438988   0.0000000), wk =   0.0277778
        k(   12) = (   0.0155206   0.0603536   0.0000000), wk =   0.0277778
        k(   13) = (   0.0155206   0.0768085   0.0000000), wk =   0.0277778
        k(   14) = (   0.0155206  -0.1041947   0.0000000), wk =   0.0277778
        k(   15) = (   0.0155206  -0.0877398   0.0000000), wk =   0.0277778
        k(   16) = (   0.0155206  -0.0712850   0.0000000), wk =   0.0277778
        k(   17) = (   0.0155206  -0.0548302   0.0000000), wk =   0.0277778
        k(   18) = (   0.0155206  -0.0383753   0.0000000), wk =   0.0277778
        k(   19) = (   0.0155206  -0.0219205   0.0000000), wk =   0.0277778
        k(   20) = (   0.0310411  -0.0109313   0.0000000), wk =   0.0277778
        k(   21) = (   0.0310411   0.0055235   0.0000000), wk =   0.0277778
        k(   22) = (   0.0310411   0.0219783   0.0000000), wk =   0.0277778
        k(   23) = (   0.0310411   0.0384331   0.0000000), wk =   0.0277778
        k(   24) = (   0.0310411   0.0548880   0.0000000), wk =   0.0277778
        k(   25) = (   0.0310411   0.0713428   0.0000000), wk =   0.0277778
        k(   26) = (   0.0310411  -0.1096603   0.0000000), wk =   0.0277778
        k(   27) = (   0.0310411  -0.0932055   0.0000000), wk =   0.0277778
        k(   28) = (   0.0310411  -0.0767507   0.0000000), wk =   0.0277778
        k(   29) = (   0.0310411  -0.0602958   0.0000000), wk =   0.0277778
        k(   30) = (   0.0310411  -0.0438410   0.0000000), wk =   0.0277778
        k(   31) = (   0.0310411  -0.0273862   0.0000000), wk =   0.0277778
        k(   32) = (   0.0465617  -0.0163970   0.0000000), wk =   0.0277778
        k(   33) = (   0.0465617   0.0000578   0.0000000), wk =   0.0277778
        k(   34) = (   0.0465617   0.0165126   0.0000000), wk =   0.0277778
        k(   35) = (   0.0465617   0.0329675   0.0000000), wk =   0.0277778
        k(   36) = (   0.0465617   0.0494223   0.0000000), wk =   0.0277778
        k(   37) = (   0.0465617   0.0658771   0.0000000), wk =   0.0277778
        k(   38) = (   0.0465617  -0.1151260   0.0000000), wk =   0.0277778
        k(   39) = (   0.0465617  -0.0986712   0.0000000), wk =   0.0277778
        k(   40) = (   0.0465617  -0.0822163   0.0000000), wk =   0.0277778
        k(   41) = (   0.0465617  -0.0657615   0.0000000), wk =   0.0277778
        k(   42) = (   0.0465617  -0.0493067   0.0000000), wk =   0.0277778
        k(   43) = (   0.0465617  -0.0328518   0.0000000), wk =   0.0277778
        k(   44) = (   0.0620823  -0.0218627   0.0000000), wk =   0.0277778
        k(   45) = (   0.0620823  -0.0054079   0.0000000), wk =   0.0277778
        k(   46) = (   0.0620823   0.0110470   0.0000000), wk =   0.0277778
        k(   47) = (   0.0620823   0.0275018   0.0000000), wk =   0.0277778
        k(   48) = (   0.0620823   0.0439566   0.0000000), wk =   0.0277778
        k(   49) = (   0.0620823   0.0604115   0.0000000), wk =   0.0277778
        k(   50) = (   0.0620823  -0.1205917   0.0000000), wk =   0.0277778
        k(   51) = (   0.0620823  -0.1041368   0.0000000), wk =   0.0277778
        k(   52) = (   0.0620823  -0.0876820   0.0000000), wk =   0.0277778
        k(   53) = (   0.0620823  -0.0712272   0.0000000), wk =   0.0277778
        k(   54) = (   0.0620823  -0.0547723   0.0000000), wk =   0.0277778
        k(   55) = (   0.0620823  -0.0383175   0.0000000), wk =   0.0277778
        k(   56) = (   0.0776028  -0.0273284   0.0000000), wk =   0.0277778
        k(   57) = (   0.0776028  -0.0108735   0.0000000), wk =   0.0277778
        k(   58) = (   0.0776028   0.0055813   0.0000000), wk =   0.0277778
        k(   59) = (   0.0776028   0.0220361   0.0000000), wk =   0.0277778
        k(   60) = (   0.0776028   0.0384910   0.0000000), wk =   0.0277778
        k(   61) = (   0.0776028   0.0549458   0.0000000), wk =   0.0277778
        k(   62) = (   0.0776028  -0.1260573   0.0000000), wk =   0.0277778
        k(   63) = (   0.0776028  -0.1096025   0.0000000), wk =   0.0277778
        k(   64) = (   0.0776028  -0.0931477   0.0000000), wk =   0.0277778
        k(   65) = (   0.0776028  -0.0766929   0.0000000), wk =   0.0277778
        k(   66) = (   0.0776028  -0.0602380   0.0000000), wk =   0.0277778
        k(   67) = (   0.0776028  -0.0437832   0.0000000), wk =   0.0277778
        k(   68) = (  -0.0931234   0.0327940   0.0000000), wk =   0.0138889
        k(   69) = (  -0.0931234   0.0492489   0.0000000), wk =   0.0277778
        k(   70) = (  -0.0931234   0.0657037   0.0000000), wk =   0.0277778
        k(   71) = (  -0.0931234   0.0821585   0.0000000), wk =   0.0277778
        k(   72) = (  -0.0931234   0.0986134   0.0000000), wk =   0.0277778
        k(   73) = (  -0.0931234   0.1150682   0.0000000), wk =   0.0277778
        k(   74) = (  -0.0931234  -0.0659350   0.0000000), wk =   0.0138889

     Initial potential from superposition of free atoms

     starting charge  167.98967, renormalised to  168.00000

     negative rho (up, down):  9.146E-04 0.000E+00

     %%%%%%%%%%%%%%%%%%%%%%%%%%%%%%%%%%%%%%%%%%%%%%%%%%%%%%%%%%%%%%%%%%%%%%%%
     %                                                                      %
     % You are using vdW-DF, which was implemented by the Thonhauser group. %
     % Please cite the following two papers that made this development      %
     % possible and the two reviews that describe the various versions:     %
     %                                                                      %
     %   T. Thonhauser et al., PRL 115, 136402 (2015).                      %
     %   T. Thonhauser et al., PRB 76, 125112 (2007).                       %
     %   K. Berland et al., Rep. Prog. Phys. 78, 066501 (2015).             %
     %   D.C. Langreth et al., J. Phys.: Condens. Matter 21, 084203 (2009). %
     %                                                                      %
     %                                                                      %
     % If you are calculating the stress with vdW-DF, please also cite:     %
     %                                                                      %
     %   R. Sabatini et al., J. Phys.: Condens. Matter 24, 424209 (2012).   %
     %                                                                      %
     %%%%%%%%%%%%%%%%%%%%%%%%%%%%%%%%%%%%%%%%%%%%%%%%%%%%%%%%%%%%%%%%%%%%%%%%

     Adding external electric field

     Computed dipole along edir(3) :
        Dipole                0.0005 Ry au,          0.0012 Debye
        Dipole field          0.0000 Ry au,

        Potential amp.       -0.0001 Ry
        Total length         44.9234 bohr

     Starting wfcs are  120 randomized atomic wfcs

     Self-consistent Calculation

     iteration #  1     ecut=    55.12 Ry     beta= 0.10
     Davidson diagonalization with overlap
     ethr =  1.00E-02,  avg # of iterations =  2.6

[...]

     total energy              =   -1926.17379796 Ry
     estimated scf accuracy    <       3.89379208 Ry

[...]

     iteration # 12     ecut=    55.12 Ry     beta= 0.10
     Davidson diagonalization with overlap
     c_bands:  1 eigenvalues not converged
     c_bands:  2 eigenvalues not converged
     c_bands:  1 eigenvalues not converged
     c_bands:  1 eigenvalues not converged
     c_bands:  1 eigenvalues not converged
     ethr =  1.30E-06,  avg # of iterations =  9.6

[...]

     total energy              =   -1926.45699965 Ry
     estimated scf accuracy    <       0.00003594 Ry

     iteration # 16     ecut=    55.12 Ry     beta= 0.10
     Davidson diagonalization with overlap
     ethr =  2.14E-08,  avg # of iterations =  5.6

[...]

     Adding external electric field

     Computed dipole along edir(3) :
        Dipole                0.0594 Ry au,          0.1509 Debye
        Dipole field          0.0002 Ry au,

        Potential amp.       -0.0150 Ry
        Total length         44.9234 bohr

     End of self-consistent calculation

          k = 0.0000 0.0000 0.0000 ( 30771 PWs)   bands (ev):

   -84.5047 -84.4999 -84.0009 -83.9962 -83.9806 -83.9759 -55.4618 -55.4609
   -55.4434 -55.4423 -55.2467 -55.2281 -43.8882 -43.8257 -43.8142 -43.7929
   -43.7850 -43.7496 -43.3861 -43.3714 -43.3172 -43.3030 -43.2980 -43.2957
   -43.2836 -43.2822 -43.2714 -43.2588 -43.2472 -43.2353 -31.8088 -31.7938
   -31.7868 -31.7728 -31.6943 -31.6750 -31.6192 -31.6046 -31.5938 -31.5830
   -31.5570 -31.5188 -31.5018 -31.4738 -31.4734 -31.4338 -31.4065 -31.3769
    -5.6522  -3.7839  -3.2307  -2.9712  -2.8567  -2.7916  -2.6928  -2.6837
    -2.5809  -2.5229  -1.8249  -1.7625  -1.5279  -1.0896  -0.9174  -0.9149
    -0.8468  -0.7693  -0.6974  -0.6435  -0.5168  -0.4229  -0.0478   0.0049
     0.3051   0.5206   0.6953   1.1143   1.1806   1.3351   1.4066   1.5044
     1.7897   2.2765   2.3255   2.6248   2.8849   3.0523   3.0662   3.2000
     3.2719   3.3409   3.4529   3.5414   3.5542   3.6648   3.7180   3.7278
     3.7530   3.8303   3.8445   3.8555   3.9200

[...]

          k = 0.0776-0.0438 0.0000 ( 30945 PWs)   bands (ev):

[...]

          k =-0.0931 0.0328 0.0000 ( 30912 PWs)   bands (ev):

[...]

          k =-0.0931-0.0659 0.0000 ( 31010 PWs)   bands (ev):

   -84.5047 -84.5000 -84.0009 -83.9963 -83.9806 -83.9759 -55.4633 -55.4621
   -55.4449 -55.4433 -55.2495 -55.2281 -43.8815 -43.8156 -43.8066 -43.7947
   -43.7810 -43.7484 -43.3794 -43.3644 -43.3066 -43.2985 -43.2971 -43.2871
   -43.2855 -43.2796 -43.2683 -43.2610 -43.2465 -43.2345 -31.8240 -31.7960
   -31.7844 -31.7678 -31.7154 -31.6944 -31.6532 -31.6327 -31.6234 -31.6020
   -31.5751 -31.5248 -31.5095 -31.5075 -31.4771 -31.4175 -31.4146 -31.3835
    -3.8998  -3.3850  -2.9178  -2.8347  -1.9082  -1.8760  -1.7112  -1.6467
    -1.5896  -1.3790  -1.2534  -1.2390  -1.2315  -1.2275  -0.8352  -0.8067
    -0.3873  -0.2327  -0.1474  -0.0667   0.0073   0.0805   0.2106   0.2262
     0.3512   0.5577   0.6651   0.7022   0.7958   0.9404   1.1030   1.1446
     1.1775   1.1850   1.2680   1.4448   1.5087   1.5925   1.8246   1.9060
     2.0486   2.1518   2.5437   2.7187   2.7875   2.8598   2.9637   3.0029
     3.0529   3.0828   3.2584   3.2730   3.3127

     the Fermi energy is     1.7923 ev

!    total energy              =   -1926.45689520 Ry
     estimated scf accuracy    <       0.00000502 Ry
     smearing contrib. (-TS)   =      -0.04974119 Ry
     internal energy E=F+TS    =   -1926.40715401 Ry

     The total energy is F=E-TS. E is the sum of the following terms:
     one-electron contribution =  -15885.54094956 Ry
     hartree contribution      =    7926.84767861 Ry
     xc contribution           =    -351.59249442 Ry
     ewald contribution        =    6383.87860147 Ry
     electric field correction =       0.00000990 Ry

     convergence has been achieved in  16 iterations

     negative rho (up, down):  7.225E-04 0.000E+00

     Forces acting on atoms (cartesian axes, Ry/au):

     atom    1 type  1   force =     0.00056681    0.00040253   -0.01011801
     atom    2 type  1   force =     0.00055427    0.00039214   -0.01009026
     atom    3 type  2   force =     0.00009230    0.00007569    0.03608369
     atom    4 type  2   force =     0.00009628    0.00005686    0.03608453
     atom    5 type  1   force =    -0.00022503   -0.00015815   -0.01606701
     atom    6 type  1   force =    -0.00017686   -0.00012529   -0.01605923
     atom    7 type  2   force =     0.00004735    0.00001514   -0.00931207
     atom    8 type  2   force =     0.00002401    0.00003140   -0.00932283
     atom    9 type  1   force =    -0.00022385   -0.00015561    0.00000819
     atom   10 type  1   force =    -0.00022083   -0.00015910    0.00002543
     atom   11 type  2   force =    -0.00027270   -0.00017051   -0.00061276
     atom   12 type  2   force =    -0.00026174   -0.00020509   -0.00061967

     Total force =     0.059163     Total SCF correction =     0.011810
     SCF correction compared to forces is large: reduce conv_thr to get better values

     Writing output data file ./Ti2Os2/Ti2Os2_beef.save/

     General routines

     Parallel routines

   This run was terminated on:  11:50:28  25Jun2022

   JOB DONE.