     Program PWSCF v.6.6 starts on 24Jun2022 at 23:23:38

     R & G space division:  proc/nbgrp/npool/nimage =      37
     Fft bands division:     nmany     =       1
     Reading input from Ti2Pd2.in
Warning: card &CELL ignored
Warning: card / ignored

     Current dimensions of program PWSCF are:
     Max number of different atomic species (ntypx) = 10
     Max number of k-points (npk) =  40000
     Max angular momentum in pseudopotentials (lmaxx) =  3
     Presently stress not available with electric field and gates

     Message from routine cell_base_init:
     DEPRECATED: use true lattice parameter, not A to a.u. conversion factor
     file Ti.pbe-spn-rrkjus_psl.1.0.0.UPF: wavefunction(s)  3S 3D renormalized
     file Pd.pbe-n-rrkjus_psl.1.0.0.UPF: wavefunction(s)  4D renormalized

     IMPORTANT: XC functional enforced from input :
     Exchange-correlation= BEEF-VDW
                           (   1   4  43  14   2   0   0)
     Any further DFT definition will be discarded
     Please, verify this is what you really want

     Subspace diagonalization in iterative solution of the eigenvalue problem:
     a serial algorithm will be used

     Found symmetry operation: I + (  0.5000 -0.5000  0.0000)
     This is a supercell, fractional translations are disabled

     bravais-lattice index     =            0
     lattice parameter (alat)  =       1.8897  a.u.
     unit-cell volume          =    4568.5650 (a.u.)^3
     number of atoms/cell      =           12
     number of atomic types    =            2
     number of electrons       =       132.00
     number of Kohn-Sham states=           79
     kinetic-energy cutoff     =      55.1240  Ry
     charge density cutoff     =     551.2396  Ry
     convergence threshold     =      1.0E-05
     mixing beta               =       0.1000
     number of iterations used =           10  plain     mixing
     Exchange-correlation= BEEF-VDW
                           (   1   4  43  14   2   0   0)

     celldm(1)=   1.889726  celldm(2)=   0.000000  celldm(3)=   0.000000
     celldm(4)=   0.000000  celldm(5)=   0.000000  celldm(6)=   0.000000

     crystal axes: (cart. coord. in units of alat)
               a(1) = (   5.605808   0.000000   0.000000 )
               a(2) = (   2.706752   4.909030   0.000000 )
               a(3) = (   0.000000   0.000000  24.600809 )

     reciprocal axes: (cart. coord. in units 2 pi/alat)
               b(1) = (  0.178386 -0.098359  0.000000 )
               b(2) = (  0.000000  0.203706  0.000000 )
               b(3) = (  0.000000  0.000000  0.040649 )

     PseudoPot. # 1 for Ti read from file:
     ../pseudo/Ti.pbe-spn-rrkjus_psl.1.0.0.UPF
     MD5 check sum: e281089c08e14b8efcf92e44a67ada65
     Pseudo is Ultrasoft + core correction, Zval = 12.0
     Generated using "atomic" code by A. Dal Corso v.6.2.2
     Using radial grid of 1177 points,  6 beta functions with:
                l(1) =   0
                l(2) =   0
                l(3) =   1
                l(4) =   1
                l(5) =   2
                l(6) =   2
     Q(r) pseudized with 0 coefficients

     PseudoPot. # 2 for Pd read from file:
     ../pseudo/Pd.pbe-n-rrkjus_psl.1.0.0.UPF
     MD5 check sum: d9f693bf1c5b493397a6bd6f2231cfc3
     Pseudo is Ultrasoft + core correction, Zval = 10.0
     Generated using "atomic" code by A. Dal Corso v.6.3
     Using radial grid of 1235 points,  6 beta functions with:
                l(1) =   0
                l(2) =   0
                l(3) =   1
                l(4) =   1
                l(5) =   2
                l(6) =   2
     Q(r) pseudized with 0 coefficients

     atomic species   valence    mass     pseudopotential
        Ti            12.00    47.86700     Ti( 1.00)
        Pd            10.00   106.42000     Pd( 1.00)

     No symmetry found

   Cartesian axes

     site n.     atom                  positions (alat units)
         1           Ti  tau(   1) = (   0.0000000   0.0000000  10.0000000  )
         2           Ti  tau(   2) = (   4.1562800   2.4545151  10.0000000  )
         3           Pd  tau(   3) = (   2.8029040   0.0000000  10.0000000  )
         4           Pd  tau(   4) = (   1.3533760   2.4545151  10.0000000  )
         5           Ti  tau(   5) = (   5.6058080   3.3105422  12.3004047  )
         6           Ti  tau(   6) = (   1.4495280   0.8560271  12.3004047  )
         7           Pd  tau(   7) = (   2.8029040   3.3105422  12.3004047  )
         8           Pd  tau(   8) = (   4.2524320   0.8560271  12.3004047  )
         9           Ti  tau(   9) = (   3.1408126   1.8548232  14.5560160  )
        10           Ti  tau(  10) = (   7.2971024   4.3093451  14.5560118  )
        11           Pd  tau(  11) = (   5.9563160   1.8622632  14.5662444  )
        12           Pd  tau(  12) = (   4.5067874   4.3167835  14.5662404  )

     number of k points=    74  Fermi-Dirac smearing, width (Ry)=  0.0100
                       cart. coord. in units 2pi/alat
        k(    1) = (   0.0000000   0.0000000   0.0000000), wk =   0.0138889
        k(    2) = (   0.0000000   0.0169755   0.0000000), wk =   0.0277778
        k(    3) = (   0.0000000   0.0339510   0.0000000), wk =   0.0277778
        k(    4) = (   0.0000000   0.0509266   0.0000000), wk =   0.0277778
        k(    5) = (   0.0000000   0.0679021   0.0000000), wk =   0.0277778
        k(    6) = (   0.0000000   0.0848776   0.0000000), wk =   0.0277778
        k(    7) = (   0.0000000  -0.1018531   0.0000000), wk =   0.0138889
        k(    8) = (   0.0148655  -0.0081966   0.0000000), wk =   0.0277778
        k(    9) = (   0.0148655   0.0087789   0.0000000), wk =   0.0277778
        k(   10) = (   0.0148655   0.0257544   0.0000000), wk =   0.0277778
        k(   11) = (   0.0148655   0.0427300   0.0000000), wk =   0.0277778
        k(   12) = (   0.0148655   0.0597055   0.0000000), wk =   0.0277778
        k(   13) = (   0.0148655   0.0766810   0.0000000), wk =   0.0277778
        k(   14) = (   0.0148655  -0.1100497   0.0000000), wk =   0.0277778
        k(   15) = (   0.0148655  -0.0930742   0.0000000), wk =   0.0277778
        k(   16) = (   0.0148655  -0.0760987   0.0000000), wk =   0.0277778
        k(   17) = (   0.0148655  -0.0591231   0.0000000), wk =   0.0277778
        k(   18) = (   0.0148655  -0.0421476   0.0000000), wk =   0.0277778
        k(   19) = (   0.0148655  -0.0251721   0.0000000), wk =   0.0277778
        k(   20) = (   0.0297311  -0.0163932   0.0000000), wk =   0.0277778
        k(   21) = (   0.0297311   0.0005823   0.0000000), wk =   0.0277778
        k(   22) = (   0.0297311   0.0175579   0.0000000), wk =   0.0277778
        k(   23) = (   0.0297311   0.0345334   0.0000000), wk =   0.0277778
        k(   24) = (   0.0297311   0.0515089   0.0000000), wk =   0.0277778
        k(   25) = (   0.0297311   0.0684844   0.0000000), wk =   0.0277778
        k(   26) = (   0.0297311  -0.1182463   0.0000000), wk =   0.0277778
        k(   27) = (   0.0297311  -0.1012708   0.0000000), wk =   0.0277778
        k(   28) = (   0.0297311  -0.0842953   0.0000000), wk =   0.0277778
        k(   29) = (   0.0297311  -0.0673197   0.0000000), wk =   0.0277778
        k(   30) = (   0.0297311  -0.0503442   0.0000000), wk =   0.0277778
        k(   31) = (   0.0297311  -0.0333687   0.0000000), wk =   0.0277778
        k(   32) = (   0.0445966  -0.0245898   0.0000000), wk =   0.0277778
        k(   33) = (   0.0445966  -0.0076143   0.0000000), wk =   0.0277778
        k(   34) = (   0.0445966   0.0093613   0.0000000), wk =   0.0277778
        k(   35) = (   0.0445966   0.0263368   0.0000000), wk =   0.0277778
        k(   36) = (   0.0445966   0.0433123   0.0000000), wk =   0.0277778
        k(   37) = (   0.0445966   0.0602878   0.0000000), wk =   0.0277778
        k(   38) = (   0.0445966  -0.1264429   0.0000000), wk =   0.0277778
        k(   39) = (   0.0445966  -0.1094674   0.0000000), wk =   0.0277778
        k(   40) = (   0.0445966  -0.0924919   0.0000000), wk =   0.0277778
        k(   41) = (   0.0445966  -0.0755163   0.0000000), wk =   0.0277778
        k(   42) = (   0.0445966  -0.0585408   0.0000000), wk =   0.0277778
        k(   43) = (   0.0445966  -0.0415653   0.0000000), wk =   0.0277778
        k(   44) = (   0.0594621  -0.0327864   0.0000000), wk =   0.0277778
        k(   45) = (   0.0594621  -0.0158108   0.0000000), wk =   0.0277778
        k(   46) = (   0.0594621   0.0011647   0.0000000), wk =   0.0277778
        k(   47) = (   0.0594621   0.0181402   0.0000000), wk =   0.0277778
        k(   48) = (   0.0594621   0.0351157   0.0000000), wk =   0.0277778
        k(   49) = (   0.0594621   0.0520912   0.0000000), wk =   0.0277778
        k(   50) = (   0.0594621  -0.1346395   0.0000000), wk =   0.0277778
        k(   51) = (   0.0594621  -0.1176640   0.0000000), wk =   0.0277778
        k(   52) = (   0.0594621  -0.1006884   0.0000000), wk =   0.0277778
        k(   53) = (   0.0594621  -0.0837129   0.0000000), wk =   0.0277778
        k(   54) = (   0.0594621  -0.0667374   0.0000000), wk =   0.0277778
        k(   55) = (   0.0594621  -0.0497619   0.0000000), wk =   0.0277778
        k(   56) = (   0.0743277  -0.0409830   0.0000000), wk =   0.0277778
        k(   57) = (   0.0743277  -0.0240074   0.0000000), wk =   0.0277778
        k(   58) = (   0.0743277  -0.0070319   0.0000000), wk =   0.0277778
        k(   59) = (   0.0743277   0.0099436   0.0000000), wk =   0.0277778
        k(   60) = (   0.0743277   0.0269191   0.0000000), wk =   0.0277778
        k(   61) = (   0.0743277   0.0438946   0.0000000), wk =   0.0277778
        k(   62) = (   0.0743277  -0.1428361   0.0000000), wk =   0.0277778
        k(   63) = (   0.0743277  -0.1258606   0.0000000), wk =   0.0277778
        k(   64) = (   0.0743277  -0.1088850   0.0000000), wk =   0.0277778
        k(   65) = (   0.0743277  -0.0919095   0.0000000), wk =   0.0277778
        k(   66) = (   0.0743277  -0.0749340   0.0000000), wk =   0.0277778
        k(   67) = (   0.0743277  -0.0579585   0.0000000), wk =   0.0277778
        k(   68) = (  -0.0891932   0.0491796   0.0000000), wk =   0.0138889
        k(   69) = (  -0.0891932   0.0661551   0.0000000), wk =   0.0277778
        k(   70) = (  -0.0891932   0.0831306   0.0000000), wk =   0.0277778
        k(   71) = (  -0.0891932   0.1001061   0.0000000), wk =   0.0277778
        k(   72) = (  -0.0891932   0.1170816   0.0000000), wk =   0.0277778
        k(   73) = (  -0.0891932   0.1340571   0.0000000), wk =   0.0277778
        k(   74) = (  -0.0891932  -0.0526736   0.0000000), wk =   0.0138889

     Initial potential from superposition of free atoms

     starting charge  131.98770, renormalised to  132.00000

     negative rho (up, down):  1.246E-03 0.000E+00

     %%%%%%%%%%%%%%%%%%%%%%%%%%%%%%%%%%%%%%%%%%%%%%%%%%%%%%%%%%%%%%%%%%%%%%%%
     %                                                                      %
     % You are using vdW-DF, which was implemented by the Thonhauser group. %
     % Please cite the following two papers that made this development      %
     % possible and the two reviews that describe the various versions:     %
     %                                                                      %
     %   T. Thonhauser et al., PRL 115, 136402 (2015).                      %
     %   T. Thonhauser et al., PRB 76, 125112 (2007).                       %
     %   K. Berland et al., Rep. Prog. Phys. 78, 066501 (2015).             %
     %   D.C. Langreth et al., J. Phys.: Condens. Matter 21, 084203 (2009). %
     %                                                                      %
     %                                                                      %
     % If you are calculating the stress with vdW-DF, please also cite:     %
     %                                                                      %
     %   R. Sabatini et al., J. Phys.: Condens. Matter 24, 424209 (2012).   %
     %                                                                      %
     %%%%%%%%%%%%%%%%%%%%%%%%%%%%%%%%%%%%%%%%%%%%%%%%%%%%%%%%%%%%%%%%%%%%%%%%

     Adding external electric field

     Computed dipole along edir(3) :
        Dipole               -0.0000 Ry au,         -0.0000 Debye
        Dipole field         -0.0000 Ry au,

        Potential amp.        0.0000 Ry
        Total length         45.3266 bohr

     Starting wfcs are  114 randomized atomic wfcs

     Self-consistent Calculation

     iteration #  1     ecut=    55.12 Ry     beta= 0.10
     Davidson diagonalization with overlap
     ethr =  1.00E-02,  avg # of iterations =  2.0

[...]

     total energy              =   -1133.38885479 Ry
     estimated scf accuracy    <       3.60932648 Ry

[...]

     iteration #  8     ecut=    55.12 Ry     beta= 0.10
     Davidson diagonalization with overlap
     c_bands:  2 eigenvalues not converged
     ethr =  2.63E-05,  avg # of iterations =  8.6

[...]

     iteration # 17     ecut=    55.12 Ry     beta= 0.10
     Davidson diagonalization with overlap
     c_bands:  1 eigenvalues not converged
     ethr =  2.00E-08,  avg # of iterations =  7.7

[...]

     total energy              =   -1133.74828748 Ry
     estimated scf accuracy    <       0.00002005 Ry

     iteration # 19     ecut=    55.12 Ry     beta= 0.10
     Davidson diagonalization with overlap
     ethr =  1.23E-08,  avg # of iterations =  2.8

[...]

     Adding external electric field

     Computed dipole along edir(3) :
        Dipole                0.0256 Ry au,          0.0651 Debye
        Dipole field          0.0001 Ry au,

        Potential amp.       -0.0064 Ry
        Total length         45.3266 bohr

     End of self-consistent calculation

          k = 0.0000 0.0000 0.0000 ( 31621 PWs)   bands (ev):

   -56.6399 -56.5912 -56.5776 -56.5288 -56.5028 -56.4539 -32.9961 -32.9518
   -32.9397 -32.8937 -32.8887 -32.8806 -32.8705 -32.8391 -32.8339 -32.8239
   -32.8008 -32.7815 -32.7504 -32.6156 -32.5742 -32.4847 -32.4644 -32.4349
    -5.4446  -4.0847  -4.0549  -3.9895  -3.9027  -3.8490  -3.6859  -3.5367
    -3.4131  -3.3983  -3.3379  -3.3363  -3.2438  -3.2138  -2.7254  -2.7122
    -2.4980  -2.3401  -2.1507  -2.0697  -2.0546  -1.9334  -1.9121  -1.8968
    -1.8252  -1.6898  -1.5495  -1.5320  -1.4656  -1.0889  -0.8767  -0.4694
    -0.3498   0.4440   0.4878   0.5498   0.7187   0.7723   0.8764   0.9027
     1.0963   1.1407   1.1983   1.3767   1.4267   1.4571   1.5091   1.6329
     1.7530   1.9684   2.2717   2.2939   2.3876   2.5733   2.6849

[...]

          k = 0.0743-0.0580 0.0000 ( 31570 PWs)   bands (ev):

[...]

          k =-0.0892 0.0492 0.0000 ( 31550 PWs)   bands (ev):

[...]

          k =-0.0892-0.0527 0.0000 ( 31534 PWs)   bands (ev):

   -56.6394 -56.5911 -56.5771 -56.5287 -56.5027 -56.4536 -32.9994 -32.9522
   -32.9388 -32.8933 -32.8930 -32.8895 -32.8717 -32.8395 -32.8358 -32.8314
   -32.7983 -32.7810 -32.7584 -32.6165 -32.5752 -32.4849 -32.4652 -32.4355
    -4.2658  -3.8407  -3.6741  -3.5255  -3.4640  -3.4069  -3.2119  -3.1269
    -3.1041  -3.0918  -2.8627  -2.8295  -2.8201  -2.7609  -2.7264  -2.5048
    -2.2796  -2.2067  -2.1619  -2.1285  -1.9803  -1.8382  -1.8305  -1.7894
    -1.7250  -1.7093  -1.6397  -1.3964  -1.3301  -1.1884  -1.1472  -0.8331
    -0.6826  -0.6210  -0.5214  -0.3774  -0.1813   0.1562   0.2672   0.3150
     0.3175   0.5082   0.5453   0.5552   0.6607   0.8633   0.8765   0.9003
     0.9153   1.5082   1.5297   1.8485   1.8834   2.2968   2.3529

     the Fermi energy is     0.9085 ev

!    total energy              =   -1133.74821859 Ry
     estimated scf accuracy    <       0.00000232 Ry
     smearing contrib. (-TS)   =      -0.08776029 Ry
     internal energy E=F+TS    =   -1133.66045830 Ry

     The total energy is F=E-TS. E is the sum of the following terms:
     one-electron contribution =   -9439.75933426 Ry
     hartree contribution      =    4753.43536778 Ry
     xc contribution           =    -250.00140951 Ry
     ewald contribution        =    3802.66491587 Ry
     electric field correction =       0.00000180 Ry

     convergence has been achieved in  19 iterations

     negative rho (up, down):  1.065E-03 0.000E+00

     Forces acting on atoms (cartesian axes, Ry/au):

     atom    1 type  1   force =    -0.00216844   -0.00127889    0.00297178
     atom    2 type  1   force =    -0.00217129   -0.00127906    0.00297093
     atom    3 type  2   force =    -0.01060090   -0.00626387    0.00372938
     atom    4 type  2   force =    -0.01060549   -0.00626023    0.00372805
     atom    5 type  1   force =     0.00535176    0.00315814   -0.00622218
     atom    6 type  1   force =     0.00535425    0.00316235   -0.00622122
     atom    7 type  2   force =     0.00689222    0.00407435   -0.00360584
     atom    8 type  2   force =     0.00689508    0.00406864   -0.00360536
     atom    9 type  1   force =     0.00060720    0.00035805    0.00152744
     atom   10 type  1   force =     0.00060819    0.00035701    0.00152805
     atom   11 type  2   force =    -0.00008309   -0.00004786    0.00159938
     atom   12 type  2   force =    -0.00007951   -0.00004863    0.00159959

     Total force =     0.026099     Total SCF correction =     0.008898
     SCF correction compared to forces is large: reduce conv_thr to get better values

     Writing output data file ./Ti2Pd2/Ti2Pd2_beef.save/

     General routines

     Parallel routines

   This run was terminated on:   0:16:20  25Jun2022

   JOB DONE.