     Program PWSCF v.6.6 starts on 25Jun2022 at 11:50:30

     R & G space division:  proc/nbgrp/npool/nimage =      37
     Fft bands division:     nmany     =       1
     Reading input from Ti2Pt2.in
Warning: card &CELL ignored
Warning: card / ignored

     Current dimensions of program PWSCF are:
     Max number of different atomic species (ntypx) = 10
     Max number of k-points (npk) =  40000
     Max angular momentum in pseudopotentials (lmaxx) =  3
     Presently stress not available with electric field and gates

     Message from routine cell_base_init:
     DEPRECATED: use true lattice parameter, not A to a.u. conversion factor
     file Ti.pbe-spn-rrkjus_psl.1.0.0.UPF: wavefunction(s)  3S 3D renormalized
     file Pt.pbe-n-rrkjus_psl.1.0.0.UPF: wavefunction(s)  6S renormalized

     IMPORTANT: XC functional enforced from input :
     Exchange-correlation= BEEF-VDW
                           (   1   4  43  14   2   0   0)
     Any further DFT definition will be discarded
     Please, verify this is what you really want

     Subspace diagonalization in iterative solution of the eigenvalue problem:
     a serial algorithm will be used

     bravais-lattice index     =            0
     lattice parameter (alat)  =       1.8897  a.u.
     unit-cell volume          =    4526.7543 (a.u.)^3
     number of atoms/cell      =           12
     number of atomic types    =            2
     number of electrons       =       132.00
     number of Kohn-Sham states=           79
     kinetic-energy cutoff     =      55.1240  Ry
     charge density cutoff     =     551.2396  Ry
     convergence threshold     =      1.0E-05
     mixing beta               =       0.1000
     number of iterations used =           10  plain     mixing
     Exchange-correlation= BEEF-VDW
                           (   1   4  43  14   2   0   0)

     celldm(1)=   1.889726  celldm(2)=   0.000000  celldm(3)=   0.000000
     celldm(4)=   0.000000  celldm(5)=   0.000000  celldm(6)=   0.000000

     crystal axes: (cart. coord. in units of alat)
               a(1) = (   5.587654   0.000000   0.000000 )
               a(2) = (   2.715147   4.883631   0.000000 )
               a(3) = (   0.000000   0.000000  24.582048 )

     reciprocal axes: (cart. coord. in units 2 pi/alat)
               b(1) = (  0.178966 -0.099500  0.000000 )
               b(2) = (  0.000000  0.204766  0.000000 )
               b(3) = (  0.000000  0.000000  0.040680 )

     PseudoPot. # 1 for Ti read from file:
     ../pseudo/Ti.pbe-spn-rrkjus_psl.1.0.0.UPF
     MD5 check sum: e281089c08e14b8efcf92e44a67ada65
     Pseudo is Ultrasoft + core correction, Zval = 12.0
     Generated using "atomic" code by A. Dal Corso v.6.2.2
     Using radial grid of 1177 points,  6 beta functions with:
                l(1) =   0
                l(2) =   0
                l(3) =   1
                l(4) =   1
                l(5) =   2
                l(6) =   2
     Q(r) pseudized with 0 coefficients

     PseudoPot. # 2 for Pt read from file:
     ../pseudo/Pt.pbe-n-rrkjus_psl.1.0.0.UPF
     MD5 check sum: 6bc887cfe28d63a5fc1f72d35a7d3ef7
     Pseudo is Ultrasoft + core correction, Zval = 10.0
     Generated using "atomic" code by A. Dal Corso v.6.3
     Using radial grid of 1277 points,  6 beta functions with:
                l(1) =   0
                l(2) =   0
                l(3) =   1
                l(4) =   1
                l(5) =   2
                l(6) =   2
     Q(r) pseudized with 0 coefficients

     atomic species   valence    mass     pseudopotential
        Ti            12.00    47.86700     Ti( 1.00)
        Pt            10.00   195.08400     Pt( 1.00)

     No symmetry found

   Cartesian axes

     site n.     atom                  positions (alat units)
         1           Ti  tau(   1) = (   0.0000000   0.0000000  10.0000000  )
         2           Ti  tau(   2) = (   4.1514001   2.4418156  10.0000000  )
         3           Pt  tau(   3) = (   2.7938268   0.0000000  10.0000000  )
         4           Pt  tau(   4) = (   1.3575733   2.4418156  10.0000000  )
         5           Ti  tau(   5) = (   5.5876537   3.2866068  12.2910240  )
         6           Ti  tau(   6) = (   1.4362536   0.8447912  12.2910240  )
         7           Pt  tau(   7) = (   2.7938268   3.2866068  12.2910240  )
         8           Pt  tau(   8) = (   4.2300804   0.8447912  12.2910240  )
         9           Ti  tau(   9) = (   3.2660340   1.9210500  14.5884086  )
        10           Ti  tau(  10) = (   7.4174216   4.3628595  14.5884073  )
        11           Pt  tau(  11) = (   6.0762058   1.9306985  14.5526521  )
        12           Pt  tau(  12) = (   4.6399826   4.3724649  14.5526525  )

     number of k points=    74  Fermi-Dirac smearing, width (Ry)=  0.0100
                       cart. coord. in units 2pi/alat
        k(    1) = (   0.0000000   0.0000000   0.0000000), wk =   0.0138889
        k(    2) = (   0.0000000   0.0170638   0.0000000), wk =   0.0277778
        k(    3) = (   0.0000000   0.0341276   0.0000000), wk =   0.0277778
        k(    4) = (   0.0000000   0.0511914   0.0000000), wk =   0.0277778
        k(    5) = (   0.0000000   0.0682552   0.0000000), wk =   0.0277778
        k(    6) = (   0.0000000   0.0853190   0.0000000), wk =   0.0277778
        k(    7) = (   0.0000000  -0.1023828   0.0000000), wk =   0.0138889
        k(    8) = (   0.0149138  -0.0082916   0.0000000), wk =   0.0277778
        k(    9) = (   0.0149138   0.0087722   0.0000000), wk =   0.0277778
        k(   10) = (   0.0149138   0.0258360   0.0000000), wk =   0.0277778
        k(   11) = (   0.0149138   0.0428998   0.0000000), wk =   0.0277778
        k(   12) = (   0.0149138   0.0599636   0.0000000), wk =   0.0277778
        k(   13) = (   0.0149138   0.0770274   0.0000000), wk =   0.0277778
        k(   14) = (   0.0149138  -0.1106745   0.0000000), wk =   0.0277778
        k(   15) = (   0.0149138  -0.0936107   0.0000000), wk =   0.0277778
        k(   16) = (   0.0149138  -0.0765469   0.0000000), wk =   0.0277778
        k(   17) = (   0.0149138  -0.0594830   0.0000000), wk =   0.0277778
        k(   18) = (   0.0149138  -0.0424192   0.0000000), wk =   0.0277778
        k(   19) = (   0.0149138  -0.0253554   0.0000000), wk =   0.0277778
        k(   20) = (   0.0298277  -0.0165833   0.0000000), wk =   0.0277778
        k(   21) = (   0.0298277   0.0004806   0.0000000), wk =   0.0277778
        k(   22) = (   0.0298277   0.0175444   0.0000000), wk =   0.0277778
        k(   23) = (   0.0298277   0.0346082   0.0000000), wk =   0.0277778
        k(   24) = (   0.0298277   0.0516720   0.0000000), wk =   0.0277778
        k(   25) = (   0.0298277   0.0687358   0.0000000), wk =   0.0277778
        k(   26) = (   0.0298277  -0.1189661   0.0000000), wk =   0.0277778
        k(   27) = (   0.0298277  -0.1019023   0.0000000), wk =   0.0277778
        k(   28) = (   0.0298277  -0.0848385   0.0000000), wk =   0.0277778
        k(   29) = (   0.0298277  -0.0677747   0.0000000), wk =   0.0277778
        k(   30) = (   0.0298277  -0.0507109   0.0000000), wk =   0.0277778
        k(   31) = (   0.0298277  -0.0336471   0.0000000), wk =   0.0277778
        k(   32) = (   0.0447415  -0.0248749   0.0000000), wk =   0.0277778
        k(   33) = (   0.0447415  -0.0078111   0.0000000), wk =   0.0277778
        k(   34) = (   0.0447415   0.0092527   0.0000000), wk =   0.0277778
        k(   35) = (   0.0447415   0.0263165   0.0000000), wk =   0.0277778
        k(   36) = (   0.0447415   0.0433803   0.0000000), wk =   0.0277778
        k(   37) = (   0.0447415   0.0604442   0.0000000), wk =   0.0277778
        k(   38) = (   0.0447415  -0.1272577   0.0000000), wk =   0.0277778
        k(   39) = (   0.0447415  -0.1101939   0.0000000), wk =   0.0277778
        k(   40) = (   0.0447415  -0.0931301   0.0000000), wk =   0.0277778
        k(   41) = (   0.0447415  -0.0760663   0.0000000), wk =   0.0277778
        k(   42) = (   0.0447415  -0.0590025   0.0000000), wk =   0.0277778
        k(   43) = (   0.0447415  -0.0419387   0.0000000), wk =   0.0277778
        k(   44) = (   0.0596553  -0.0331665   0.0000000), wk =   0.0277778
        k(   45) = (   0.0596553  -0.0161027   0.0000000), wk =   0.0277778
        k(   46) = (   0.0596553   0.0009611   0.0000000), wk =   0.0277778
        k(   47) = (   0.0596553   0.0180249   0.0000000), wk =   0.0277778
        k(   48) = (   0.0596553   0.0350887   0.0000000), wk =   0.0277778
        k(   49) = (   0.0596553   0.0521525   0.0000000), wk =   0.0277778
        k(   50) = (   0.0596553  -0.1355493   0.0000000), wk =   0.0277778
        k(   51) = (   0.0596553  -0.1184855   0.0000000), wk =   0.0277778
        k(   52) = (   0.0596553  -0.1014217   0.0000000), wk =   0.0277778
        k(   53) = (   0.0596553  -0.0843579   0.0000000), wk =   0.0277778
        k(   54) = (   0.0596553  -0.0672941   0.0000000), wk =   0.0277778
        k(   55) = (   0.0596553  -0.0502303   0.0000000), wk =   0.0277778
        k(   56) = (   0.0745692  -0.0414581   0.0000000), wk =   0.0277778
        k(   57) = (   0.0745692  -0.0243943   0.0000000), wk =   0.0277778
        k(   58) = (   0.0745692  -0.0073305   0.0000000), wk =   0.0277778
        k(   59) = (   0.0745692   0.0097333   0.0000000), wk =   0.0277778
        k(   60) = (   0.0745692   0.0267971   0.0000000), wk =   0.0277778
        k(   61) = (   0.0745692   0.0438609   0.0000000), wk =   0.0277778
        k(   62) = (   0.0745692  -0.1438410   0.0000000), wk =   0.0277778
        k(   63) = (   0.0745692  -0.1267772   0.0000000), wk =   0.0277778
        k(   64) = (   0.0745692  -0.1097134   0.0000000), wk =   0.0277778
        k(   65) = (   0.0745692  -0.0926496   0.0000000), wk =   0.0277778
        k(   66) = (   0.0745692  -0.0755857   0.0000000), wk =   0.0277778
        k(   67) = (   0.0745692  -0.0585219   0.0000000), wk =   0.0277778
        k(   68) = (  -0.0894830   0.0497498   0.0000000), wk =   0.0138889
        k(   69) = (  -0.0894830   0.0668136   0.0000000), wk =   0.0277778
        k(   70) = (  -0.0894830   0.0838774   0.0000000), wk =   0.0277778
        k(   71) = (  -0.0894830   0.1009412   0.0000000), wk =   0.0277778
        k(   72) = (  -0.0894830   0.1180050   0.0000000), wk =   0.0277778
        k(   73) = (  -0.0894830   0.1350688   0.0000000), wk =   0.0277778
        k(   74) = (  -0.0894830  -0.0526331   0.0000000), wk =   0.0138889

     Initial potential from superposition of free atoms

     starting charge  131.99011, renormalised to  132.00000

     negative rho (up, down):  1.042E-03 0.000E+00

     %%%%%%%%%%%%%%%%%%%%%%%%%%%%%%%%%%%%%%%%%%%%%%%%%%%%%%%%%%%%%%%%%%%%%%%%
     %                                                                      %
     % You are using vdW-DF, which was implemented by the Thonhauser group. %
     % Please cite the following two papers that made this development      %
     % possible and the two reviews that describe the various versions:     %
     %                                                                      %
     %   T. Thonhauser et al., PRL 115, 136402 (2015).                      %
     %   T. Thonhauser et al., PRB 76, 125112 (2007).                       %
     %   K. Berland et al., Rep. Prog. Phys. 78, 066501 (2015).             %
     %   D.C. Langreth et al., J. Phys.: Condens. Matter 21, 084203 (2009). %
     %                                                                      %
     %                                                                      %
     % If you are calculating the stress with vdW-DF, please also cite:     %
     %                                                                      %
     %   R. Sabatini et al., J. Phys.: Condens. Matter 24, 424209 (2012).   %
     %                                                                      %
     %%%%%%%%%%%%%%%%%%%%%%%%%%%%%%%%%%%%%%%%%%%%%%%%%%%%%%%%%%%%%%%%%%%%%%%%

     Adding external electric field

     Computed dipole along edir(3) :
        Dipole                0.0001 Ry au,          0.0002 Debye
        Dipole field          0.0000 Ry au,

        Potential amp.       -0.0000 Ry
        Total length         45.2920 bohr

     Starting wfcs are  114 randomized atomic wfcs

     Self-consistent Calculation

     iteration #  1     ecut=    55.12 Ry     beta= 0.10
     Davidson diagonalization with overlap
     ethr =  1.00E-02,  avg # of iterations =  2.0

[...]

     total energy              =   -1119.54133746 Ry
     estimated scf accuracy    <       3.51817734 Ry

[...]

     iteration #  9     ecut=    55.12 Ry     beta= 0.10
     Davidson diagonalization with overlap
     c_bands:  1 eigenvalues not converged
     c_bands:  1 eigenvalues not converged
     c_bands:  4 eigenvalues not converged
     c_bands:  1 eigenvalues not converged
     ethr =  2.08E-05,  avg # of iterations =  5.3

[...]

     iteration # 14     ecut=    55.12 Ry     beta= 0.10
     Davidson diagonalization with overlap
     c_bands:  1 eigenvalues not converged
     c_bands:  1 eigenvalues not converged
     c_bands:  1 eigenvalues not converged
     c_bands:  1 eigenvalues not converged
     c_bands:  2 eigenvalues not converged
     ethr =  4.54E-07,  avg # of iterations =  6.9

[...]

     total energy              =   -1119.89547033 Ry
     estimated scf accuracy    <       0.00013269 Ry

     iteration # 18     ecut=    55.12 Ry     beta= 0.10
     Davidson diagonalization with overlap
     ethr =  1.01E-07,  avg # of iterations =  2.0

[...]

     Adding external electric field

     Computed dipole along edir(3) :
        Dipole                0.0721 Ry au,          0.1832 Debye
        Dipole field          0.0002 Ry au,

        Potential amp.       -0.0181 Ry
        Total length         45.2920 bohr

     End of self-consistent calculation

          k = 0.0000 0.0000 0.0000 ( 31357 PWs)   bands (ev):

   -56.3581 -56.3058 -56.2519 -56.2082 -56.1984 -56.1563 -32.7171 -32.6703
   -32.6159 -32.6132 -32.6002 -32.5842 -32.5656 -32.5466 -32.5382 -32.4969
   -32.4928 -32.4590 -32.4091 -32.3423 -32.2980 -32.1814 -32.1729 -32.0682
    -6.5995  -5.0603  -4.7404  -4.4024  -4.1905  -4.1399  -3.9557  -3.9096
    -3.8817  -3.6314  -3.6035  -3.4582  -3.3958  -3.3080  -2.8659  -2.8301
    -2.5253  -2.3576  -2.0539  -1.9587  -1.8886  -1.7230  -1.7130  -1.6678
    -1.5865  -1.5674  -1.3084  -1.0998  -1.0453  -0.6099  -0.3286  -0.2624
     0.0797   0.7474   0.7984   0.8371   0.9456   1.1497   1.2930   1.4338
     1.5248   1.5591   1.5819   1.7606   1.8220   1.9247   2.1753   2.1786
     2.2115   2.3583   2.5860   2.7518   2.7539   2.7548   3.0377

[...]

          k = 0.0746-0.0585 0.0000 ( 31294 PWs)   bands (ev):

[...]

          k =-0.0895 0.0497 0.0000 ( 31272 PWs)   bands (ev):

[...]

          k =-0.0895-0.0526 0.0000 ( 31230 PWs)   bands (ev):

   -56.3575 -56.3057 -56.2512 -56.2080 -56.1983 -56.1559 -32.7203 -32.6702
   -32.6200 -32.6199 -32.6015 -32.5932 -32.5664 -32.5498 -32.5401 -32.5005
   -32.4963 -32.4632 -32.4141 -32.3445 -32.3000 -32.1812 -32.1745 -32.0690
    -5.5006  -4.8355  -4.3873  -3.9676  -3.7691  -3.6707  -3.6340  -3.3590
    -3.2918  -3.2554  -2.9568  -2.8883  -2.8686  -2.7820  -2.7553  -2.5591
    -2.4257  -2.1348  -2.0801  -2.0756  -1.8184  -1.8020  -1.7452  -1.4905
    -1.4888  -1.4080  -1.2486  -0.9943  -0.8569  -0.7096  -0.6754  -0.6283
    -0.5835  -0.2067  -0.2037  -0.1061   0.0626   0.3982   0.4121   0.4628
     0.5806   0.6658   0.7679   0.9263   0.9364   1.1851   1.2123   1.2902
     1.5643   1.7998   2.0955   2.1191   2.2051   2.6732   2.7298

     the Fermi energy is     1.2715 ev

!    total energy              =   -1119.89538928 Ry
     estimated scf accuracy    <       0.00000549 Ry
     smearing contrib. (-TS)   =      -0.07806447 Ry
     internal energy E=F+TS    =   -1119.81732481 Ry

     The total energy is F=E-TS. E is the sum of the following terms:
     one-electron contribution =   -9425.40713308 Ry
     hartree contribution      =    4743.38385246 Ry
     xc contribution           =    -263.81624242 Ry
     ewald contribution        =    3826.02218382 Ry
     electric field correction =       0.00001442 Ry

     convergence has been achieved in  18 iterations

     negative rho (up, down):  8.820E-04 0.000E+00

     Forces acting on atoms (cartesian axes, Ry/au):

     atom    1 type  1   force =    -0.00292040   -0.00172041   -0.00827214
     atom    2 type  1   force =    -0.00292917   -0.00172277   -0.00828396
     atom    3 type  2   force =    -0.02199440   -0.01294404    0.00647490
     atom    4 type  2   force =    -0.02197985   -0.01293910    0.00647747
     atom    5 type  1   force =     0.01035569    0.00608965   -0.00667090
     atom    6 type  1   force =     0.01034978    0.00608682   -0.00667129
     atom    7 type  2   force =     0.01401925    0.00823226    0.00492470
     atom    8 type  2   force =     0.01399881    0.00824651    0.00492039
     atom    9 type  1   force =    -0.00014948   -0.00008614    0.00232378
     atom   10 type  1   force =    -0.00013487   -0.00008197    0.00232864
     atom   11 type  2   force =     0.00069334    0.00042422    0.00124029
     atom   12 type  2   force =     0.00069131    0.00041499    0.00120812

     Total force =     0.050152     Total SCF correction =     0.003339

     Writing output data file ./Ti2Pt2/Ti2Pt2_beef.save/

     General routines

     Parallel routines

   This run was terminated on:  12:42: 7  25Jun2022

   JOB DONE.