     Program PWSCF v.6.6 starts on 25Jun2022 at 12:42: 8

     R & G space division:  proc/nbgrp/npool/nimage =      37
     Fft bands division:     nmany     =       1
     Reading input from Ti2Re2.in
Warning: card &CELL ignored
Warning: card / ignored

     Current dimensions of program PWSCF are:
     Max number of different atomic species (ntypx) = 10
     Max number of k-points (npk) =  40000
     Max angular momentum in pseudopotentials (lmaxx) =  3
     Presently stress not available with electric field and gates

     Message from routine cell_base_init:
     DEPRECATED: use true lattice parameter, not A to a.u. conversion factor
     file Ti.pbe-spn-rrkjus_psl.1.0.0.UPF: wavefunction(s)  3S 3D renormalized

     IMPORTANT: XC functional enforced from input :
     Exchange-correlation= BEEF-VDW
                           (   1   4  43  14   2   0   0)
     Any further DFT definition will be discarded
     Please, verify this is what you really want

     Subspace diagonalization in iterative solution of the eigenvalue problem:
     a serial algorithm will be used

     bravais-lattice index     =            0
     lattice parameter (alat)  =       1.8897  a.u.
     unit-cell volume          =    4525.6950 (a.u.)^3
     number of atoms/cell      =           12
     number of atomic types    =            2
     number of electrons       =       162.00
     number of Kohn-Sham states=           97
     kinetic-energy cutoff     =      55.1240  Ry
     charge density cutoff     =     551.2396  Ry
     convergence threshold     =      1.0E-05
     mixing beta               =       0.1000
     number of iterations used =           10  plain     mixing
     Exchange-correlation= BEEF-VDW
                           (   1   4  43  14   2   0   0)

     celldm(1)=   1.889726  celldm(2)=   0.000000  celldm(3)=   0.000000
     celldm(4)=   0.000000  celldm(5)=   0.000000  celldm(6)=   0.000000

     crystal axes: (cart. coord. in units of alat)
               a(1) = (   5.399388   0.000000   0.000000 )
               a(2) = (   1.806504   5.088215   0.000000 )
               a(3) = (   0.000000   0.000000  24.410618 )

     reciprocal axes: (cart. coord. in units 2 pi/alat)
               b(1) = (  0.185206 -0.065755  0.000000 )
               b(2) = (  0.000000  0.196533  0.000000 )
               b(3) = (  0.000000  0.000000  0.040966 )

     PseudoPot. # 1 for Ti read from file:
     ../pseudo/Ti.pbe-spn-rrkjus_psl.1.0.0.UPF
     MD5 check sum: e281089c08e14b8efcf92e44a67ada65
     Pseudo is Ultrasoft + core correction, Zval = 12.0
     Generated using "atomic" code by A. Dal Corso v.6.2.2
     Using radial grid of 1177 points,  6 beta functions with:
                l(1) =   0
                l(2) =   0
                l(3) =   1
                l(4) =   1
                l(5) =   2
                l(6) =   2
     Q(r) pseudized with 0 coefficients

     PseudoPot. # 2 for Re read from file:
     ../pseudo/Re.pbe-spn-rrkjus_psl.1.0.0.UPF
     MD5 check sum: 1282f1ec51ad523723a04c61ae80a9e6
     Pseudo is Ultrasoft + core correction, Zval = 15.0
     Generated using "atomic" code by A. Dal Corso v.6.2.2
     Using radial grid of 1275 points,  6 beta functions with:
                l(1) =   0
                l(2) =   0
                l(3) =   1
                l(4) =   1
                l(5) =   2
                l(6) =   2
     Q(r) pseudized with 0 coefficients

     atomic species   valence    mass     pseudopotential
        Ti            12.00    47.86700     Ti( 1.00)
        Re            15.00   186.20700     Re( 1.00)

     No symmetry found

   Cartesian axes

     site n.     atom                  positions (alat units)
         1           Ti  tau(   1) = (   0.0000000   0.0000000  10.0000000  )
         2           Ti  tau(   2) = (   3.6029458   2.5441076  10.0000000  )
         3           Re  tau(   3) = (   2.6996940   0.0000000  10.0000000  )
         4           Re  tau(   4) = (   0.9032518   2.5441076  10.0000000  )
         5           Ti  tau(   5) = (   5.3993879   3.8126091  12.2053090  )
         6           Ti  tau(   6) = (   1.7964421   1.2685015  12.2053090  )
         7           Re  tau(   7) = (   2.6996940   3.8126091  12.2053090  )
         8           Re  tau(   8) = (   4.4961361   1.2685015  12.2053090  )
         9           Ti  tau(   9) = (   3.5950735   2.5385181  14.3829144  )
        10           Ti  tau(  10) = (   7.1979966   5.0826701  14.3829056  )
        11           Re  tau(  11) = (   6.2940607   2.5380466  14.3528693  )
        12           Re  tau(  12) = (   4.4975599   5.0820952  14.3528456  )

     number of k points=    74  Fermi-Dirac smearing, width (Ry)=  0.0100
                       cart. coord. in units 2pi/alat
        k(    1) = (   0.0000000   0.0000000   0.0000000), wk =   0.0138889
        k(    2) = (   0.0000000   0.0163777   0.0000000), wk =   0.0277778
        k(    3) = (   0.0000000   0.0327554   0.0000000), wk =   0.0277778
        k(    4) = (   0.0000000   0.0491331   0.0000000), wk =   0.0277778
        k(    5) = (   0.0000000   0.0655109   0.0000000), wk =   0.0277778
        k(    6) = (   0.0000000   0.0818886   0.0000000), wk =   0.0277778
        k(    7) = (   0.0000000  -0.0982663   0.0000000), wk =   0.0138889
        k(    8) = (   0.0154338  -0.0054796   0.0000000), wk =   0.0277778
        k(    9) = (   0.0154338   0.0108981   0.0000000), wk =   0.0277778
        k(   10) = (   0.0154338   0.0272758   0.0000000), wk =   0.0277778
        k(   11) = (   0.0154338   0.0436536   0.0000000), wk =   0.0277778
        k(   12) = (   0.0154338   0.0600313   0.0000000), wk =   0.0277778
        k(   13) = (   0.0154338   0.0764090   0.0000000), wk =   0.0277778
        k(   14) = (   0.0154338  -0.1037459   0.0000000), wk =   0.0277778
        k(   15) = (   0.0154338  -0.0873682   0.0000000), wk =   0.0277778
        k(   16) = (   0.0154338  -0.0709904   0.0000000), wk =   0.0277778
        k(   17) = (   0.0154338  -0.0546127   0.0000000), wk =   0.0277778
        k(   18) = (   0.0154338  -0.0382350   0.0000000), wk =   0.0277778
        k(   19) = (   0.0154338  -0.0218573   0.0000000), wk =   0.0277778
        k(   20) = (   0.0308677  -0.0109592   0.0000000), wk =   0.0277778
        k(   21) = (   0.0308677   0.0054185   0.0000000), wk =   0.0277778
        k(   22) = (   0.0308677   0.0217963   0.0000000), wk =   0.0277778
        k(   23) = (   0.0308677   0.0381740   0.0000000), wk =   0.0277778
        k(   24) = (   0.0308677   0.0545517   0.0000000), wk =   0.0277778
        k(   25) = (   0.0308677   0.0709294   0.0000000), wk =   0.0277778
        k(   26) = (   0.0308677  -0.1092255   0.0000000), wk =   0.0277778
        k(   27) = (   0.0308677  -0.0928477   0.0000000), wk =   0.0277778
        k(   28) = (   0.0308677  -0.0764700   0.0000000), wk =   0.0277778
        k(   29) = (   0.0308677  -0.0600923   0.0000000), wk =   0.0277778
        k(   30) = (   0.0308677  -0.0437146   0.0000000), wk =   0.0277778
        k(   31) = (   0.0308677  -0.0273369   0.0000000), wk =   0.0277778
        k(   32) = (   0.0463015  -0.0164388   0.0000000), wk =   0.0277778
        k(   33) = (   0.0463015  -0.0000610   0.0000000), wk =   0.0277778
        k(   34) = (   0.0463015   0.0163167   0.0000000), wk =   0.0277778
        k(   35) = (   0.0463015   0.0326944   0.0000000), wk =   0.0277778
        k(   36) = (   0.0463015   0.0490721   0.0000000), wk =   0.0277778
        k(   37) = (   0.0463015   0.0654498   0.0000000), wk =   0.0277778
        k(   38) = (   0.0463015  -0.1147050   0.0000000), wk =   0.0277778
        k(   39) = (   0.0463015  -0.0983273   0.0000000), wk =   0.0277778
        k(   40) = (   0.0463015  -0.0819496   0.0000000), wk =   0.0277778
        k(   41) = (   0.0463015  -0.0655719   0.0000000), wk =   0.0277778
        k(   42) = (   0.0463015  -0.0491942   0.0000000), wk =   0.0277778
        k(   43) = (   0.0463015  -0.0328165   0.0000000), wk =   0.0277778
        k(   44) = (   0.0617354  -0.0219183   0.0000000), wk =   0.0277778
        k(   45) = (   0.0617354  -0.0055406   0.0000000), wk =   0.0277778
        k(   46) = (   0.0617354   0.0108371   0.0000000), wk =   0.0277778
        k(   47) = (   0.0617354   0.0272148   0.0000000), wk =   0.0277778
        k(   48) = (   0.0617354   0.0435925   0.0000000), wk =   0.0277778
        k(   49) = (   0.0617354   0.0599702   0.0000000), wk =   0.0277778
        k(   50) = (   0.0617354  -0.1201846   0.0000000), wk =   0.0277778
        k(   51) = (   0.0617354  -0.1038069   0.0000000), wk =   0.0277778
        k(   52) = (   0.0617354  -0.0874292   0.0000000), wk =   0.0277778
        k(   53) = (   0.0617354  -0.0710515   0.0000000), wk =   0.0277778
        k(   54) = (   0.0617354  -0.0546738   0.0000000), wk =   0.0277778
        k(   55) = (   0.0617354  -0.0382961   0.0000000), wk =   0.0277778
        k(   56) = (   0.0771692  -0.0273979   0.0000000), wk =   0.0277778
        k(   57) = (   0.0771692  -0.0110202   0.0000000), wk =   0.0277778
        k(   58) = (   0.0771692   0.0053575   0.0000000), wk =   0.0277778
        k(   59) = (   0.0771692   0.0217352   0.0000000), wk =   0.0277778
        k(   60) = (   0.0771692   0.0381129   0.0000000), wk =   0.0277778
        k(   61) = (   0.0771692   0.0544906   0.0000000), wk =   0.0277778
        k(   62) = (   0.0771692  -0.1256642   0.0000000), wk =   0.0277778
        k(   63) = (   0.0771692  -0.1092865   0.0000000), wk =   0.0277778
        k(   64) = (   0.0771692  -0.0929088   0.0000000), wk =   0.0277778
        k(   65) = (   0.0771692  -0.0765311   0.0000000), wk =   0.0277778
        k(   66) = (   0.0771692  -0.0601534   0.0000000), wk =   0.0277778
        k(   67) = (   0.0771692  -0.0437756   0.0000000), wk =   0.0277778
        k(   68) = (  -0.0926031   0.0328775   0.0000000), wk =   0.0138889
        k(   69) = (  -0.0926031   0.0492552   0.0000000), wk =   0.0277778
        k(   70) = (  -0.0926031   0.0656329   0.0000000), wk =   0.0277778
        k(   71) = (  -0.0926031   0.0820107   0.0000000), wk =   0.0277778
        k(   72) = (  -0.0926031   0.0983884   0.0000000), wk =   0.0277778
        k(   73) = (  -0.0926031   0.1147661   0.0000000), wk =   0.0277778
        k(   74) = (  -0.0926031  -0.0653888   0.0000000), wk =   0.0138889

     Initial potential from superposition of free atoms

     starting charge  161.98933, renormalised to  162.00000

     negative rho (up, down):  8.965E-04 0.000E+00

     %%%%%%%%%%%%%%%%%%%%%%%%%%%%%%%%%%%%%%%%%%%%%%%%%%%%%%%%%%%%%%%%%%%%%%%%
     %                                                                      %
     % You are using vdW-DF, which was implemented by the Thonhauser group. %
     % Please cite the following two papers that made this development      %
     % possible and the two reviews that describe the various versions:     %
     %                                                                      %
     %   T. Thonhauser et al., PRL 115, 136402 (2015).                      %
     %   T. Thonhauser et al., PRB 76, 125112 (2007).                       %
     %   K. Berland et al., Rep. Prog. Phys. 78, 066501 (2015).             %
     %   D.C. Langreth et al., J. Phys.: Condens. Matter 21, 084203 (2009). %
     %                                                                      %
     %                                                                      %
     % If you are calculating the stress with vdW-DF, please also cite:     %
     %                                                                      %
     %   R. Sabatini et al., J. Phys.: Condens. Matter 24, 424209 (2012).   %
     %                                                                      %
     %%%%%%%%%%%%%%%%%%%%%%%%%%%%%%%%%%%%%%%%%%%%%%%%%%%%%%%%%%%%%%%%%%%%%%%%

     Adding external electric field

     Computed dipole along edir(3) :
        Dipole                0.0001 Ry au,          0.0002 Debye
        Dipole field          0.0000 Ry au,

        Potential amp.       -0.0000 Ry
        Total length         44.9761 bohr

     Starting wfcs are  120 randomized atomic wfcs

     Self-consistent Calculation

     iteration #  1     ecut=    55.12 Ry     beta= 0.10
     Davidson diagonalization with overlap
     ethr =  1.00E-02,  avg # of iterations =  2.6

[...]

     total energy              =   -1797.95725727 Ry
     estimated scf accuracy    <       4.73980675 Ry

[...]

     iteration #  7     ecut=    55.12 Ry     beta= 0.10
     Davidson diagonalization with overlap
     c_bands:  1 eigenvalues not converged
     c_bands:  2 eigenvalues not converged
     ethr =  5.71E-05,  avg # of iterations =  7.9

[...]

     iteration # 13     ecut=    55.12 Ry     beta= 0.10
     Davidson diagonalization with overlap
     c_bands:  1 eigenvalues not converged
     c_bands:  1 eigenvalues not converged
     ethr =  1.24E-07,  avg # of iterations =  8.4

[...]

     total energy              =   -1798.27965478 Ry
     estimated scf accuracy    <       0.00034756 Ry

     iteration # 15     ecut=    55.12 Ry     beta= 0.10
     Davidson diagonalization with overlap
     ethr =  1.24E-07,  avg # of iterations =  4.1

[...]

     Adding external electric field

     Computed dipole along edir(3) :
        Dipole                0.0107 Ry au,          0.0272 Debye
        Dipole field          0.0000 Ry au,

        Potential amp.       -0.0027 Ry
        Total length         44.9761 bohr

     End of self-consistent calculation

          k = 0.0000 0.0000 0.0000 ( 31175 PWs)   bands (ev):

   -78.2599 -78.2529 -78.0893 -78.0826 -78.0631 -78.0564 -55.1594 -55.1416
   -55.1352 -55.1173 -54.8519 -54.8341 -40.0754 -40.0569 -40.0566 -40.0521
   -40.0335 -39.9060 -39.8937 -39.8888 -39.8862 -39.8775 -39.8626 -39.8359
   -39.7922 -39.7720 -39.7702 -39.7424 -39.7194 -39.7019 -31.4786 -31.4622
   -31.4542 -31.4419 -31.4280 -31.4008 -31.3119 -31.3067 -31.2901 -31.2833
   -31.2607 -31.2369 -31.1648 -31.0790 -31.0676 -31.0636 -31.0581 -30.9955
    -5.3586  -3.6376  -2.8813  -2.5176  -2.3483  -2.3241  -2.2973  -2.2145
    -2.1733  -2.1151  -1.5058  -1.3956  -1.2431  -0.4622  -0.4274  -0.3926
    -0.3794  -0.3371  -0.2711  -0.2010  -0.0617   0.1183   0.4587   0.4648
     0.6516   1.1528   1.1764   1.3904   1.6522   1.8438   1.9156   2.0129
     2.2984   2.4375   2.6627   3.0610   3.1983   3.4282   3.4794   3.5506
     3.8663   3.8785   3.8859   3.9251   4.0198   4.0884   4.1888   4.2127
     4.3071

[...]

          k = 0.0772-0.0438 0.0000 ( 31290 PWs)   bands (ev):

[...]

          k =-0.0926 0.0329 0.0000 ( 31310 PWs)   bands (ev):

[...]

          k =-0.0926-0.0654 0.0000 ( 31330 PWs)   bands (ev):

   -78.2598 -78.2531 -78.0894 -78.0826 -78.0632 -78.0564 -55.1607 -55.1425
   -55.1364 -55.1182 -54.8541 -54.8340 -40.0647 -40.0537 -40.0439 -40.0317
   -40.0249 -39.8999 -39.8945 -39.8832 -39.8831 -39.8769 -39.8521 -39.8449
   -39.7755 -39.7624 -39.7514 -39.7418 -39.7182 -39.7009 -31.4931 -31.4681
   -31.4553 -31.4510 -31.4372 -31.4276 -31.3602 -31.3349 -31.3315 -31.3105
   -31.2683 -31.2445 -31.1902 -31.1043 -31.0822 -31.0650 -31.0636 -31.0033
    -3.5030  -3.1342  -2.5429  -2.5096  -1.3980  -1.3397  -1.3090  -1.2783
    -0.9363  -0.9350  -0.9313  -0.7474  -0.7250  -0.6586  -0.2880  -0.2837
     0.0849   0.1034   0.2439   0.4005   0.4550   0.6779   0.7774   0.8069
     0.8121   1.0415   1.1712   1.1875   1.2300   1.3341   1.3364   1.4069
     1.4540   1.6050   1.7268   1.8022   1.8991   1.9318   2.2278   2.3300
     2.6962   2.7307   2.7452   2.9661   3.0288   3.2003   3.2290   3.2325
     3.2909

     the Fermi energy is     1.7371 ev

!    total energy              =   -1798.27958845 Ry
     estimated scf accuracy    <       0.00000830 Ry
     smearing contrib. (-TS)   =      -0.06586488 Ry
     internal energy E=F+TS    =   -1798.21372357 Ry

     The total energy is F=E-TS. E is the sum of the following terms:
     one-electron contribution =  -14523.54642437 Ry
     hartree contribution      =    7247.09635007 Ry
     xc contribution           =    -361.33452707 Ry
     ewald contribution        =    5839.57087749 Ry
     electric field correction =       0.00000032 Ry

     convergence has been achieved in  15 iterations

     negative rho (up, down):  6.942E-04 0.000E+00

     Forces acting on atoms (cartesian axes, Ry/au):

     atom    1 type  1   force =    -0.00048655   -0.00034598    0.00386911
     atom    2 type  1   force =    -0.00048624   -0.00034088    0.00386820
     atom    3 type  2   force =    -0.00015909   -0.00011617    0.01201969
     atom    4 type  2   force =    -0.00015622   -0.00010479    0.01202358
     atom    5 type  1   force =     0.00013836    0.00009754   -0.01022261
     atom    6 type  1   force =     0.00013924    0.00009844   -0.01022403
     atom    7 type  2   force =     0.00012714    0.00008713   -0.00803908
     atom    8 type  2   force =     0.00012346    0.00008695   -0.00804766
     atom    9 type  1   force =     0.00019233    0.00014270    0.00015093
     atom   10 type  1   force =     0.00020034    0.00013022    0.00015406
     atom   11 type  2   force =     0.00017873    0.00012892    0.00222284
     atom   12 type  2   force =     0.00018849    0.00013594    0.00222498

     Total force =     0.025854     Total SCF correction =     0.012669
     SCF correction compared to forces is large: reduce conv_thr to get better values

     Writing output data file ./Ti2Re2/Ti2Re2_beef.save/

     General routines

     Parallel routines

   This run was terminated on:  13:41: 6  25Jun2022

   JOB DONE.