     Program PWSCF v.6.6 starts on 25Jun2022 at 13:41: 8

     R & G space division:  proc/nbgrp/npool/nimage =      37
     Fft bands division:     nmany     =       1
     Reading input from Ti2Rh2.in
Warning: card &CELL ignored
Warning: card / ignored

     Current dimensions of program PWSCF are:
     Max number of different atomic species (ntypx) = 10
     Max number of k-points (npk) =  40000
     Max angular momentum in pseudopotentials (lmaxx) =  3
     Presently stress not available with electric field and gates

     Message from routine cell_base_init:
     DEPRECATED: use true lattice parameter, not A to a.u. conversion factor
     file Ti.pbe-spn-rrkjus_psl.1.0.0.UPF: wavefunction(s)  3S 3D renormalized
     file Rh.pbe-spn-rrkjus_psl.1.0.0.UPF: wavefunction(s)  4S 5S renormalized

     IMPORTANT: XC functional enforced from input :
     Exchange-correlation= BEEF-VDW
                           (   1   4  43  14   2   0   0)
     Any further DFT definition will be discarded
     Please, verify this is what you really want

     Subspace diagonalization in iterative solution of the eigenvalue problem:
     a serial algorithm will be used

     Found symmetry operation: I + (  0.5000 -0.5000  0.0000)
     This is a supercell, fractional translations are disabled

     bravais-lattice index     =            0
     lattice parameter (alat)  =       1.8897  a.u.
     unit-cell volume          =    4456.4331 (a.u.)^3
     number of atoms/cell      =           12
     number of atomic types    =            2
     number of electrons       =       174.00
     number of Kohn-Sham states=          104
     kinetic-energy cutoff     =      55.1240  Ry
     charge density cutoff     =     551.2396  Ry
     convergence threshold     =      1.0E-05
     mixing beta               =       0.1000
     number of iterations used =           10  plain     mixing
     Exchange-correlation= BEEF-VDW
                           (   1   4  43  14   2   0   0)

     celldm(1)=   1.889726  celldm(2)=   0.000000  celldm(3)=   0.000000
     celldm(4)=   0.000000  celldm(5)=   0.000000  celldm(6)=   0.000000

     crystal axes: (cart. coord. in units of alat)
               a(1) = (   5.414367   0.000000   0.000000 )
               a(2) = (   2.119659   4.982209   0.000000 )
               a(3) = (   0.000000   0.000000  24.480554 )

     reciprocal axes: (cart. coord. in units 2 pi/alat)
               b(1) = (  0.184694 -0.078577  0.000000 )
               b(2) = (  0.000000  0.200714  0.000000 )
               b(3) = (  0.000000  0.000000  0.040849 )

     PseudoPot. # 1 for Ti read from file:
     ../pseudo/Ti.pbe-spn-rrkjus_psl.1.0.0.UPF
     MD5 check sum: e281089c08e14b8efcf92e44a67ada65
     Pseudo is Ultrasoft + core correction, Zval = 12.0
     Generated using "atomic" code by A. Dal Corso v.6.2.2
     Using radial grid of 1177 points,  6 beta functions with:
                l(1) =   0
                l(2) =   0
                l(3) =   1
                l(4) =   1
                l(5) =   2
                l(6) =   2
     Q(r) pseudized with 0 coefficients

     PseudoPot. # 2 for Rh read from file:
     ../pseudo/Rh.pbe-spn-rrkjus_psl.1.0.0.UPF
     MD5 check sum: 912a852783f0c9b7bd5e9eb06cc0cc10
     Pseudo is Ultrasoft + core correction, Zval = 17.0
     Generated using "atomic" code by A. Dal Corso v.6.3
     Using radial grid of 1233 points,  6 beta functions with:
                l(1) =   0
                l(2) =   0
                l(3) =   1
                l(4) =   1
                l(5) =   2
                l(6) =   2
     Q(r) pseudized with 0 coefficients

     atomic species   valence    mass     pseudopotential
        Ti            12.00    47.86700     Ti( 1.00)
        Rh            17.00   102.90550     Rh( 1.00)

     No symmetry found

   Cartesian axes

     site n.     atom                  positions (alat units)
         1           Ti  tau(   1) = (   0.0000000   0.0000000  10.0000000  )
         2           Ti  tau(   2) = (   3.7670130   2.4911047  10.0000000  )
         3           Rh  tau(   3) = (   2.7071833   0.0000000  10.0000000  )
         4           Rh  tau(   4) = (   1.0598297   2.4911047  10.0000000  )
         5           Ti  tau(   5) = (   5.4143666   3.5804904  12.2402770  )
         6           Ti  tau(   6) = (   1.6473536   1.0893857  12.2402770  )
         7           Rh  tau(   7) = (   2.7071833   3.5804904  12.2402770  )
         8           Rh  tau(   8) = (   4.3545369   1.0893857  12.2402770  )
         9           Ti  tau(   9) = (   3.5430600   2.3429995  14.4948262  )
        10           Ti  tau(  10) = (   7.3100875   4.8341251  14.4948321  )
        11           Rh  tau(  11) = (   6.2608089   2.3499726  14.2941865  )
        12           Rh  tau(  12) = (   4.6134313   4.8411027  14.2941826  )

     number of k points=    74  Fermi-Dirac smearing, width (Ry)=  0.0100
                       cart. coord. in units 2pi/alat
        k(    1) = (   0.0000000   0.0000000   0.0000000), wk =   0.0138889
        k(    2) = (   0.0000000   0.0167262   0.0000000), wk =   0.0277778
        k(    3) = (   0.0000000   0.0334524   0.0000000), wk =   0.0277778
        k(    4) = (   0.0000000   0.0501785   0.0000000), wk =   0.0277778
        k(    5) = (   0.0000000   0.0669047   0.0000000), wk =   0.0277778
        k(    6) = (   0.0000000   0.0836309   0.0000000), wk =   0.0277778
        k(    7) = (   0.0000000  -0.1003571   0.0000000), wk =   0.0138889
        k(    8) = (   0.0153911  -0.0065481   0.0000000), wk =   0.0277778
        k(    9) = (   0.0153911   0.0101781   0.0000000), wk =   0.0277778
        k(   10) = (   0.0153911   0.0269043   0.0000000), wk =   0.0277778
        k(   11) = (   0.0153911   0.0436304   0.0000000), wk =   0.0277778
        k(   12) = (   0.0153911   0.0603566   0.0000000), wk =   0.0277778
        k(   13) = (   0.0153911   0.0770828   0.0000000), wk =   0.0277778
        k(   14) = (   0.0153911  -0.1069052   0.0000000), wk =   0.0277778
        k(   15) = (   0.0153911  -0.0901790   0.0000000), wk =   0.0277778
        k(   16) = (   0.0153911  -0.0734528   0.0000000), wk =   0.0277778
        k(   17) = (   0.0153911  -0.0567266   0.0000000), wk =   0.0277778
        k(   18) = (   0.0153911  -0.0400005   0.0000000), wk =   0.0277778
        k(   19) = (   0.0153911  -0.0232743   0.0000000), wk =   0.0277778
        k(   20) = (   0.0307823  -0.0130962   0.0000000), wk =   0.0277778
        k(   21) = (   0.0307823   0.0036300   0.0000000), wk =   0.0277778
        k(   22) = (   0.0307823   0.0203562   0.0000000), wk =   0.0277778
        k(   23) = (   0.0307823   0.0370824   0.0000000), wk =   0.0277778
        k(   24) = (   0.0307823   0.0538085   0.0000000), wk =   0.0277778
        k(   25) = (   0.0307823   0.0705347   0.0000000), wk =   0.0277778
        k(   26) = (   0.0307823  -0.1134533   0.0000000), wk =   0.0277778
        k(   27) = (   0.0307823  -0.0967271   0.0000000), wk =   0.0277778
        k(   28) = (   0.0307823  -0.0800009   0.0000000), wk =   0.0277778
        k(   29) = (   0.0307823  -0.0632747   0.0000000), wk =   0.0277778
        k(   30) = (   0.0307823  -0.0465486   0.0000000), wk =   0.0277778
        k(   31) = (   0.0307823  -0.0298224   0.0000000), wk =   0.0277778
        k(   32) = (   0.0461734  -0.0196443   0.0000000), wk =   0.0277778
        k(   33) = (   0.0461734  -0.0029181   0.0000000), wk =   0.0277778
        k(   34) = (   0.0461734   0.0138081   0.0000000), wk =   0.0277778
        k(   35) = (   0.0461734   0.0305343   0.0000000), wk =   0.0277778
        k(   36) = (   0.0461734   0.0472604   0.0000000), wk =   0.0277778
        k(   37) = (   0.0461734   0.0639866   0.0000000), wk =   0.0277778
        k(   38) = (   0.0461734  -0.1200014   0.0000000), wk =   0.0277778
        k(   39) = (   0.0461734  -0.1032752   0.0000000), wk =   0.0277778
        k(   40) = (   0.0461734  -0.0865490   0.0000000), wk =   0.0277778
        k(   41) = (   0.0461734  -0.0698228   0.0000000), wk =   0.0277778
        k(   42) = (   0.0461734  -0.0530967   0.0000000), wk =   0.0277778
        k(   43) = (   0.0461734  -0.0363705   0.0000000), wk =   0.0277778
        k(   44) = (   0.0615646  -0.0261924   0.0000000), wk =   0.0277778
        k(   45) = (   0.0615646  -0.0094662   0.0000000), wk =   0.0277778
        k(   46) = (   0.0615646   0.0072600   0.0000000), wk =   0.0277778
        k(   47) = (   0.0615646   0.0239862   0.0000000), wk =   0.0277778
        k(   48) = (   0.0615646   0.0407123   0.0000000), wk =   0.0277778
        k(   49) = (   0.0615646   0.0574385   0.0000000), wk =   0.0277778
        k(   50) = (   0.0615646  -0.1265495   0.0000000), wk =   0.0277778
        k(   51) = (   0.0615646  -0.1098233   0.0000000), wk =   0.0277778
        k(   52) = (   0.0615646  -0.0930971   0.0000000), wk =   0.0277778
        k(   53) = (   0.0615646  -0.0763709   0.0000000), wk =   0.0277778
        k(   54) = (   0.0615646  -0.0596448   0.0000000), wk =   0.0277778
        k(   55) = (   0.0615646  -0.0429186   0.0000000), wk =   0.0277778
        k(   56) = (   0.0769557  -0.0327405   0.0000000), wk =   0.0277778
        k(   57) = (   0.0769557  -0.0160143   0.0000000), wk =   0.0277778
        k(   58) = (   0.0769557   0.0007119   0.0000000), wk =   0.0277778
        k(   59) = (   0.0769557   0.0174381   0.0000000), wk =   0.0277778
        k(   60) = (   0.0769557   0.0341642   0.0000000), wk =   0.0277778
        k(   61) = (   0.0769557   0.0508904   0.0000000), wk =   0.0277778
        k(   62) = (   0.0769557  -0.1330976   0.0000000), wk =   0.0277778
        k(   63) = (   0.0769557  -0.1163714   0.0000000), wk =   0.0277778
        k(   64) = (   0.0769557  -0.0996452   0.0000000), wk =   0.0277778
        k(   65) = (   0.0769557  -0.0829190   0.0000000), wk =   0.0277778
        k(   66) = (   0.0769557  -0.0661928   0.0000000), wk =   0.0277778
        k(   67) = (   0.0769557  -0.0494667   0.0000000), wk =   0.0277778
        k(   68) = (  -0.0923469   0.0392886   0.0000000), wk =   0.0138889
        k(   69) = (  -0.0923469   0.0560148   0.0000000), wk =   0.0277778
        k(   70) = (  -0.0923469   0.0727409   0.0000000), wk =   0.0277778
        k(   71) = (  -0.0923469   0.0894671   0.0000000), wk =   0.0277778
        k(   72) = (  -0.0923469   0.1061933   0.0000000), wk =   0.0277778
        k(   73) = (  -0.0923469   0.1229195   0.0000000), wk =   0.0277778
        k(   74) = (  -0.0923469  -0.0610685   0.0000000), wk =   0.0138889

     Check: negative core charge=   -0.000001

     Initial potential from superposition of free atoms

     starting charge  173.98819, renormalised to  174.00000

     negative rho (up, down):  1.340E-03 0.000E+00

     %%%%%%%%%%%%%%%%%%%%%%%%%%%%%%%%%%%%%%%%%%%%%%%%%%%%%%%%%%%%%%%%%%%%%%%%
     %                                                                      %
     % You are using vdW-DF, which was implemented by the Thonhauser group. %
     % Please cite the following two papers that made this development      %
     % possible and the two reviews that describe the various versions:     %
     %                                                                      %
     %   T. Thonhauser et al., PRL 115, 136402 (2015).                      %
     %   T. Thonhauser et al., PRB 76, 125112 (2007).                       %
     %   K. Berland et al., Rep. Prog. Phys. 78, 066501 (2015).             %
     %   D.C. Langreth et al., J. Phys.: Condens. Matter 21, 084203 (2009). %
     %                                                                      %
     %                                                                      %
     % If you are calculating the stress with vdW-DF, please also cite:     %
     %                                                                      %
     %   R. Sabatini et al., J. Phys.: Condens. Matter 24, 424209 (2012).   %
     %                                                                      %
     %%%%%%%%%%%%%%%%%%%%%%%%%%%%%%%%%%%%%%%%%%%%%%%%%%%%%%%%%%%%%%%%%%%%%%%%

     Adding external electric field

     Computed dipole along edir(3) :
        Dipole                0.0005 Ry au,          0.0013 Debye
        Dipole field          0.0000 Ry au,

        Potential amp.       -0.0001 Ry
        Total length         45.1050 bohr

     Starting wfcs are  120 randomized atomic wfcs

     Self-consistent Calculation

     iteration #  1     ecut=    55.12 Ry     beta= 0.10
     Davidson diagonalization with overlap
     ethr =  1.00E-02,  avg # of iterations =  2.7

[...]

     total energy              =   -2087.07807312 Ry
     estimated scf accuracy    <       9.96525346 Ry

[...]

     iteration # 12     ecut=    55.12 Ry     beta= 0.10
     Davidson diagonalization with overlap
     c_bands:  1 eigenvalues not converged
     c_bands:  1 eigenvalues not converged
     c_bands:  1 eigenvalues not converged
     c_bands:  1 eigenvalues not converged
     ethr =  4.69E-06,  avg # of iterations =  8.9

[...]

     iteration # 13     ecut=    55.12 Ry     beta= 0.10
     Davidson diagonalization with overlap
     c_bands:  1 eigenvalues not converged
     c_bands:  2 eigenvalues not converged
     c_bands:  1 eigenvalues not converged
     ethr =  1.10E-06,  avg # of iterations =  7.2

[...]

     total energy              =   -2087.71032739 Ry
     estimated scf accuracy    <       0.00005170 Ry

     iteration # 19     ecut=    55.12 Ry     beta= 0.10
     Davidson diagonalization with overlap
     ethr =  9.32E-09,  avg # of iterations =  6.0

[...]

     Adding external electric field

     Computed dipole along edir(3) :
        Dipole                0.0691 Ry au,          0.1756 Debye
        Dipole field          0.0002 Ry au,

        Potential amp.       -0.0176 Ry
        Total length         45.1050 bohr

     End of self-consistent calculation

          k = 0.0000 0.0000 0.0000 ( 30725 PWs)   bands (ev):

   -77.2783 -77.2689 -76.9046 -76.8953 -76.6904 -76.6812 -56.0217 -55.9933
   -55.9767 -55.9475 -55.9391 -55.9114 -45.2288 -45.1512 -45.1408 -45.1198
   -45.1065 -45.0979 -44.8496 -44.8120 -44.7984 -44.7327 -44.7215 -44.7184
   -44.6539 -44.6402 -44.6209 -44.4912 -44.4680 -44.4562 -32.3421 -32.3191
   -32.2986 -32.2925 -32.2740 -32.2437 -32.2125 -32.2029 -32.1775 -32.1585
   -32.1338 -32.1181 -32.1073 -32.0829 -32.0506 -32.0352 -31.9889 -31.9578
    -4.7133  -3.1685  -2.9663  -2.9596  -2.9372  -2.9102  -2.7591  -2.6345
    -2.5783  -2.4472  -2.1803  -2.0662  -1.8454  -1.7253  -1.5180  -1.4584
    -1.2749  -1.2195  -1.1389  -1.1372  -0.8877  -0.8657  -0.4832  -0.4601
    -0.3587  -0.3039  -0.2209   0.0566   0.3228   0.4955   0.5350   0.8021
     0.8969   1.2594   1.9371   2.0346   2.0806   2.0911   2.1658   2.2030
     2.2379   2.3143   2.3582   2.5710   2.5829   2.6323   2.7452   2.8002
     2.8493   2.8538   3.1097   3.2980   3.3854   3.3874   3.4286   3.5076

[...]

          k = 0.0770-0.0495 0.0000 ( 30799 PWs)   bands (ev):

[...]

          k =-0.0923 0.0393 0.0000 ( 30784 PWs)   bands (ev):

[...]

          k =-0.0923-0.0611 0.0000 ( 30854 PWs)   bands (ev):

   -77.2782 -77.2690 -76.9047 -76.8953 -76.6904 -76.6812 -56.0224 -55.9943
   -55.9770 -55.9492 -55.9418 -55.9100 -45.2256 -45.1517 -45.1391 -45.1134
   -45.1040 -45.0975 -44.8465 -44.8066 -44.7965 -44.7321 -44.7230 -44.7182
   -44.6477 -44.6382 -44.6176 -44.4909 -44.4678 -44.4565 -32.3509 -32.3183
   -32.3046 -32.3013 -32.2734 -32.2516 -32.2217 -32.2200 -32.1921 -32.1705
   -32.1450 -32.1416 -32.1008 -32.0712 -32.0627 -32.0374 -31.9916 -31.9606
    -3.2148  -2.8537  -2.4111  -2.3329  -2.2274  -2.2212  -2.1275  -2.0852
    -1.9233  -1.7132  -1.7130  -1.6060  -1.5703  -1.4325  -1.3787  -1.0858
    -0.9397  -0.9243  -0.8085  -0.7525  -0.6948  -0.6631  -0.6587  -0.4023
    -0.3405  -0.1906  -0.1289  -0.1009  -0.0769   0.1571   0.2692   0.3942
     0.6620   0.7183   0.8445   0.8958   0.9193   0.9777   1.0704   1.0922
     1.3117   1.6953   1.7307   1.7844   1.8588   1.9490   1.9490   2.1312
     2.3389   2.4688   2.4997   2.6467   2.6914   2.7022   2.8799   3.0231

     the Fermi energy is     1.7346 ev

!    total energy              =   -2087.71025353 Ry
     estimated scf accuracy    <       0.00000751 Ry
     smearing contrib. (-TS)   =      -0.06168229 Ry
     internal energy E=F+TS    =   -2087.64857124 Ry

     The total energy is F=E-TS. E is the sum of the following terms:
     one-electron contribution =  -17343.09794783 Ry
     hartree contribution      =    8664.94339135 Ry
     xc contribution           =    -299.89701711 Ry
     ewald contribution        =    6890.40298889 Ry
     electric field correction =       0.00001346 Ry

     convergence has been achieved in  19 iterations

     negative rho (up, down):  1.313E-03 0.000E+00

     Forces acting on atoms (cartesian axes, Ry/au):

     atom    1 type  1   force =    -0.01079154   -0.00713580   -0.01188361
     atom    2 type  1   force =    -0.01079039   -0.00713582   -0.01188359
     atom    3 type  2   force =    -0.00357707   -0.00236679    0.03148675
     atom    4 type  2   force =    -0.00357964   -0.00236498    0.03148673
     atom    5 type  1   force =     0.00935034    0.00618379   -0.02314657
     atom    6 type  1   force =     0.00934960    0.00618330   -0.02315094
     atom    7 type  2   force =     0.00536503    0.00354975    0.00077172
     atom    8 type  2   force =     0.00536790    0.00354663    0.00077147
     atom    9 type  1   force =     0.00057304    0.00038063    0.00199200
     atom   10 type  1   force =     0.00056828    0.00037442    0.00199068
     atom   11 type  2   force =    -0.00092326   -0.00059900    0.00078233
     atom   12 type  2   force =    -0.00091229   -0.00061613    0.00078304

     Total force =     0.063689     Total SCF correction =     0.012529
     SCF correction compared to forces is large: reduce conv_thr to get better values

     Writing output data file ./Ti2Rh2/Ti2Rh2_beef.save/

     General routines

     Parallel routines

   This run was terminated on:  14:54:14  25Jun2022

   JOB DONE.