     Program PWSCF v.6.6 starts on 25Jun2022 at 11: 3:11

     R & G space division:  proc/nbgrp/npool/nimage =      37
     Fft bands division:     nmany     =       1
     Reading input from Ti2Tc2.in
Warning: card &CELL ignored
Warning: card / ignored

     Current dimensions of program PWSCF are:
     Max number of different atomic species (ntypx) = 10
     Max number of k-points (npk) =  40000
     Max angular momentum in pseudopotentials (lmaxx) =  3
     Presently stress not available with electric field and gates

     Message from routine cell_base_init:
     DEPRECATED: use true lattice parameter, not A to a.u. conversion factor
     file Ti.pbe-spn-rrkjus_psl.1.0.0.UPF: wavefunction(s)  3S 3D renormalized
     file Tc.pbe-spn-rrkjus_psl.0.3.0.UPF: wavefunction(s)  4S 4P renormalized

     IMPORTANT: XC functional enforced from input :
     Exchange-correlation= BEEF-VDW
                           (   1   4  43  14   2   0   0)
     Any further DFT definition will be discarded
     Please, verify this is what you really want

     Subspace diagonalization in iterative solution of the eigenvalue problem:
     a serial algorithm will be used

     Found symmetry operation: I + (  0.5000 -0.5000  0.0000)
     This is a supercell, fractional translations are disabled

     bravais-lattice index     =            0
     lattice parameter (alat)  =       1.8897  a.u.
     unit-cell volume          =    4495.6421 (a.u.)^3
     number of atoms/cell      =           12
     number of atomic types    =            2
     number of electrons       =       162.00
     number of Kohn-Sham states=           97
     kinetic-energy cutoff     =      55.1240  Ry
     charge density cutoff     =     551.2396  Ry
     convergence threshold     =      1.0E-05
     mixing beta               =       0.1000
     number of iterations used =           10  plain     mixing
     Exchange-correlation= BEEF-VDW
                           (   1   4  43  14   2   0   0)

     celldm(1)=   1.889726  celldm(2)=   0.000000  celldm(3)=   0.000000
     celldm(4)=   0.000000  celldm(5)=   0.000000  celldm(6)=   0.000000

     crystal axes: (cart. coord. in units of alat)
               a(1) = (   5.381968   0.000000   0.000000 )
               a(2) = (   1.793994   5.074166   0.000000 )
               a(3) = (   0.000000   0.000000  24.394360 )

     reciprocal axes: (cart. coord. in units 2 pi/alat)
               b(1) = (  0.185806 -0.065692  0.000000 )
               b(2) = (  0.000000  0.197077  0.000000 )
               b(3) = (  0.000000  0.000000  0.040993 )

     PseudoPot. # 1 for Ti read from file:
     ../pseudo/Ti.pbe-spn-rrkjus_psl.1.0.0.UPF
     MD5 check sum: e281089c08e14b8efcf92e44a67ada65
     Pseudo is Ultrasoft + core correction, Zval = 12.0
     Generated using "atomic" code by A. Dal Corso v.6.2.2
     Using radial grid of 1177 points,  6 beta functions with:
                l(1) =   0
                l(2) =   0
                l(3) =   1
                l(4) =   1
                l(5) =   2
                l(6) =   2
     Q(r) pseudized with 0 coefficients

     PseudoPot. # 2 for Tc read from file:
     ../pseudo/Tc.pbe-spn-rrkjus_psl.0.3.0.UPF
     MD5 check sum: 5f147c0bf103030af994b79b1f5562e4
     Pseudo is Ultrasoft + core correction, Zval = 15.0
     Generated using "atomic" code by A. Dal Corso v.6.2.2
     Using radial grid of 1231 points,  6 beta functions with:
                l(1) =   0
                l(2) =   0
                l(3) =   1
                l(4) =   1
                l(5) =   2
                l(6) =   2
     Q(r) pseudized with 0 coefficients

     atomic species   valence    mass     pseudopotential
        Ti            12.00    47.86700     Ti( 1.00)
        Tc            15.00    97.90721     Tc( 1.00)

     No symmetry found

   Cartesian axes

     site n.     atom                  positions (alat units)
         1           Ti  tau(   1) = (   0.0000000   0.0000000  10.0000000  )
         2           Ti  tau(   2) = (   3.5879808   2.5370831  10.0000000  )
         3           Tc  tau(   3) = (   2.6909839   0.0000000  10.0000000  )
         4           Tc  tau(   4) = (   0.8969970   2.5370831  10.0000000  )
         5           Ti  tau(   5) = (   5.3819677   3.8056222  12.1971798  )
         6           Ti  tau(   6) = (   1.7939869   1.2685391  12.1971798  )
         7           Tc  tau(   7) = (   2.6909839   3.8056222  12.1971798  )
         8           Tc  tau(   8) = (   4.4849708   1.2685391  12.1971798  )
         9           Ti  tau(   9) = (   3.5879754   2.5370810  14.3207484  )
        10           Ti  tau(  10) = (   7.1759596   5.0741632  14.3207444  )
        11           Tc  tau(  11) = (   6.2789603   2.5370818  14.3558585  )
        12           Tc  tau(  12) = (   4.4849697   5.0741558  14.3558648  )

     number of k points=    74  Fermi-Dirac smearing, width (Ry)=  0.0100
                       cart. coord. in units 2pi/alat
        k(    1) = (   0.0000000   0.0000000   0.0000000), wk =   0.0138889
        k(    2) = (   0.0000000   0.0164231   0.0000000), wk =   0.0277778
        k(    3) = (   0.0000000   0.0328461   0.0000000), wk =   0.0277778
        k(    4) = (   0.0000000   0.0492692   0.0000000), wk =   0.0277778
        k(    5) = (   0.0000000   0.0656922   0.0000000), wk =   0.0277778
        k(    6) = (   0.0000000   0.0821153   0.0000000), wk =   0.0277778
        k(    7) = (   0.0000000  -0.0985384   0.0000000), wk =   0.0138889
        k(    8) = (   0.0154838  -0.0054744   0.0000000), wk =   0.0277778
        k(    9) = (   0.0154838   0.0109487   0.0000000), wk =   0.0277778
        k(   10) = (   0.0154838   0.0273718   0.0000000), wk =   0.0277778
        k(   11) = (   0.0154838   0.0437948   0.0000000), wk =   0.0277778
        k(   12) = (   0.0154838   0.0602179   0.0000000), wk =   0.0277778
        k(   13) = (   0.0154838   0.0766409   0.0000000), wk =   0.0277778
        k(   14) = (   0.0154838  -0.1040127   0.0000000), wk =   0.0277778
        k(   15) = (   0.0154838  -0.0875897   0.0000000), wk =   0.0277778
        k(   16) = (   0.0154838  -0.0711666   0.0000000), wk =   0.0277778
        k(   17) = (   0.0154838  -0.0547435   0.0000000), wk =   0.0277778
        k(   18) = (   0.0154838  -0.0383205   0.0000000), wk =   0.0277778
        k(   19) = (   0.0154838  -0.0218974   0.0000000), wk =   0.0277778
        k(   20) = (   0.0309676  -0.0109487   0.0000000), wk =   0.0277778
        k(   21) = (   0.0309676   0.0054743   0.0000000), wk =   0.0277778
        k(   22) = (   0.0309676   0.0218974   0.0000000), wk =   0.0277778
        k(   23) = (   0.0309676   0.0383204   0.0000000), wk =   0.0277778
        k(   24) = (   0.0309676   0.0547435   0.0000000), wk =   0.0277778
        k(   25) = (   0.0309676   0.0711666   0.0000000), wk =   0.0277778
        k(   26) = (   0.0309676  -0.1094871   0.0000000), wk =   0.0277778
        k(   27) = (   0.0309676  -0.0930640   0.0000000), wk =   0.0277778
        k(   28) = (   0.0309676  -0.0766410   0.0000000), wk =   0.0277778
        k(   29) = (   0.0309676  -0.0602179   0.0000000), wk =   0.0277778
        k(   30) = (   0.0309676  -0.0437949   0.0000000), wk =   0.0277778
        k(   31) = (   0.0309676  -0.0273718   0.0000000), wk =   0.0277778
        k(   32) = (   0.0464514  -0.0164231   0.0000000), wk =   0.0277778
        k(   33) = (   0.0464514  -0.0000000   0.0000000), wk =   0.0277778
        k(   34) = (   0.0464514   0.0164230   0.0000000), wk =   0.0277778
        k(   35) = (   0.0464514   0.0328461   0.0000000), wk =   0.0277778
        k(   36) = (   0.0464514   0.0492691   0.0000000), wk =   0.0277778
        k(   37) = (   0.0464514   0.0656922   0.0000000), wk =   0.0277778
        k(   38) = (   0.0464514  -0.1149615   0.0000000), wk =   0.0277778
        k(   39) = (   0.0464514  -0.0985384   0.0000000), wk =   0.0277778
        k(   40) = (   0.0464514  -0.0821153   0.0000000), wk =   0.0277778
        k(   41) = (   0.0464514  -0.0656923   0.0000000), wk =   0.0277778
        k(   42) = (   0.0464514  -0.0492692   0.0000000), wk =   0.0277778
        k(   43) = (   0.0464514  -0.0328462   0.0000000), wk =   0.0277778
        k(   44) = (   0.0619352  -0.0218975   0.0000000), wk =   0.0277778
        k(   45) = (   0.0619352  -0.0054744   0.0000000), wk =   0.0277778
        k(   46) = (   0.0619352   0.0109486   0.0000000), wk =   0.0277778
        k(   47) = (   0.0619352   0.0273717   0.0000000), wk =   0.0277778
        k(   48) = (   0.0619352   0.0437948   0.0000000), wk =   0.0277778
        k(   49) = (   0.0619352   0.0602178   0.0000000), wk =   0.0277778
        k(   50) = (   0.0619352  -0.1204358   0.0000000), wk =   0.0277778
        k(   51) = (   0.0619352  -0.1040128   0.0000000), wk =   0.0277778
        k(   52) = (   0.0619352  -0.0875897   0.0000000), wk =   0.0277778
        k(   53) = (   0.0619352  -0.0711667   0.0000000), wk =   0.0277778
        k(   54) = (   0.0619352  -0.0547436   0.0000000), wk =   0.0277778
        k(   55) = (   0.0619352  -0.0383205   0.0000000), wk =   0.0277778
        k(   56) = (   0.0774190  -0.0273718   0.0000000), wk =   0.0277778
        k(   57) = (   0.0774190  -0.0109488   0.0000000), wk =   0.0277778
        k(   58) = (   0.0774190   0.0054743   0.0000000), wk =   0.0277778
        k(   59) = (   0.0774190   0.0218973   0.0000000), wk =   0.0277778
        k(   60) = (   0.0774190   0.0383204   0.0000000), wk =   0.0277778
        k(   61) = (   0.0774190   0.0547435   0.0000000), wk =   0.0277778
        k(   62) = (   0.0774190  -0.1259102   0.0000000), wk =   0.0277778
        k(   63) = (   0.0774190  -0.1094871   0.0000000), wk =   0.0277778
        k(   64) = (   0.0774190  -0.0930641   0.0000000), wk =   0.0277778
        k(   65) = (   0.0774190  -0.0766410   0.0000000), wk =   0.0277778
        k(   66) = (   0.0774190  -0.0602180   0.0000000), wk =   0.0277778
        k(   67) = (   0.0774190  -0.0437949   0.0000000), wk =   0.0277778
        k(   68) = (  -0.0929028   0.0328462   0.0000000), wk =   0.0138889
        k(   69) = (  -0.0929028   0.0492693   0.0000000), wk =   0.0277778
        k(   70) = (  -0.0929028   0.0656923   0.0000000), wk =   0.0277778
        k(   71) = (  -0.0929028   0.0821154   0.0000000), wk =   0.0277778
        k(   72) = (  -0.0929028   0.0985384   0.0000000), wk =   0.0277778
        k(   73) = (  -0.0929028   0.1149615   0.0000000), wk =   0.0277778
        k(   74) = (  -0.0929028  -0.0656922   0.0000000), wk =   0.0138889

     Check: negative core charge=   -0.000002

     Initial potential from superposition of free atoms

     starting charge  161.98734, renormalised to  162.00000

     negative rho (up, down):  5.791E-03 0.000E+00

     %%%%%%%%%%%%%%%%%%%%%%%%%%%%%%%%%%%%%%%%%%%%%%%%%%%%%%%%%%%%%%%%%%%%%%%%
     %                                                                      %
     % You are using vdW-DF, which was implemented by the Thonhauser group. %
     % Please cite the following two papers that made this development      %
     % possible and the two reviews that describe the various versions:     %
     %                                                                      %
     %   T. Thonhauser et al., PRL 115, 136402 (2015).                      %
     %   T. Thonhauser et al., PRB 76, 125112 (2007).                       %
     %   K. Berland et al., Rep. Prog. Phys. 78, 066501 (2015).             %
     %   D.C. Langreth et al., J. Phys.: Condens. Matter 21, 084203 (2009). %
     %                                                                      %
     %                                                                      %
     % If you are calculating the stress with vdW-DF, please also cite:     %
     %                                                                      %
     %   R. Sabatini et al., J. Phys.: Condens. Matter 24, 424209 (2012).   %
     %                                                                      %
     %%%%%%%%%%%%%%%%%%%%%%%%%%%%%%%%%%%%%%%%%%%%%%%%%%%%%%%%%%%%%%%%%%%%%%%%

     Adding external electric field

     Computed dipole along edir(3) :
        Dipole               -0.0001 Ry au,         -0.0002 Debye
        Dipole field         -0.0000 Ry au,

        Potential amp.        0.0000 Ry
        Total length         44.9462 bohr

     Starting wfcs are  138 randomized atomic wfcs

     Self-consistent Calculation

     iteration #  1     ecut=    55.12 Ry     beta= 0.10
     Davidson diagonalization with overlap
     ethr =  1.00E-02,  avg # of iterations =  2.0

[...]

     total energy              =   -1809.94721456 Ry
     estimated scf accuracy    <       8.01584783 Ry

[...]

     iteration # 11     ecut=    55.12 Ry     beta= 0.10
     Davidson diagonalization with overlap
     c_bands:  1 eigenvalues not converged
     c_bands:  1 eigenvalues not converged
     ethr =  2.09E-05,  avg # of iterations =  7.2

[...]

     iteration # 15     ecut=    55.12 Ry     beta= 0.10
     Davidson diagonalization with overlap
     c_bands:  1 eigenvalues not converged
     c_bands:  1 eigenvalues not converged
     ethr =  2.19E-07,  avg # of iterations =  7.5

[...]

     total energy              =   -1810.37575855 Ry
     estimated scf accuracy    <       0.00001067 Ry

     iteration # 22     ecut=    55.12 Ry     beta= 0.10
     Davidson diagonalization with overlap
     ethr =  6.59E-09,  avg # of iterations =  2.5

[...]

     Adding external electric field

     Computed dipole along edir(3) :
        Dipole                0.0059 Ry au,          0.0151 Debye
        Dipole field          0.0000 Ry au,

        Potential amp.       -0.0015 Ry
        Total length         44.9462 bohr

     End of self-consistent calculation

          k = 0.0000 0.0000 0.0000 ( 30927 PWs)   bands (ev):

   -65.0123 -64.9963 -64.7849 -64.7767 -64.7703 -64.7620 -55.4909 -55.4739
   -55.4342 -55.4171 -55.1714 -55.1549 -37.0382 -36.9908 -36.9885 -36.9796
   -36.9768 -36.8249 -36.8237 -36.8119 -36.7468 -36.7394 -36.7377 -36.7293
   -36.7151 -36.7127 -36.7039 -36.6779 -36.6111 -36.6079 -31.7992 -31.7854
   -31.7327 -31.7322 -31.7222 -31.6793 -31.6243 -31.6225 -31.5844 -31.5820
   -31.5757 -31.5270 -31.4408 -31.3764 -31.3739 -31.3735 -31.3581 -31.2854
    -4.2170  -2.7334  -2.4116  -2.2561  -2.1843  -2.1175  -2.0195  -1.9564
    -1.8803  -1.7950  -1.4597  -1.3492  -0.7999  -0.5593  -0.5417  -0.4316
    -0.4076  -0.3965  -0.3918  -0.2772  -0.1132  -0.0640   0.2565   0.6029
     0.6177   0.8711   0.9597   1.4014   1.5367   1.6619   1.6810   1.7422
     1.9948   2.5176   2.7089   2.7663   3.0719   3.2626   3.4049   3.4329
     3.4437   3.5304   3.5516   3.5888   3.6058   3.7001   3.7890   3.8319
     3.8781

[...]

          k = 0.0774-0.0438 0.0000 ( 31080 PWs)   bands (ev):

[...]

          k =-0.0929 0.0328 0.0000 ( 31066 PWs)   bands (ev):

[...]

          k =-0.0929-0.0657 0.0000 ( 31178 PWs)   bands (ev):

   -65.0113 -64.9969 -64.7848 -64.7766 -64.7702 -64.7619 -55.4927 -55.4747
   -55.4359 -55.4181 -55.1740 -55.1546 -37.0187 -36.9875 -36.9647 -36.9646
   -36.9394 -36.8192 -36.8022 -36.7901 -36.7616 -36.7407 -36.7192 -36.7120
   -36.7075 -36.6914 -36.6855 -36.6729 -36.6081 -36.6044 -31.8111 -31.7899
   -31.7691 -31.7348 -31.7207 -31.7149 -31.6819 -31.6625 -31.6383 -31.6213
   -31.5857 -31.5370 -31.4736 -31.4190 -31.3994 -31.3614 -31.3599 -31.2950
    -2.4803  -2.1805  -1.5894  -1.5538  -1.4110  -1.2814  -1.1949  -1.1464
    -0.9182  -0.8254  -0.7068  -0.6676  -0.6590  -0.3228  -0.3023  -0.2761
     0.0074   0.1036   0.1343   0.3313   0.3950   0.4042   0.5263   0.6984
     0.7197   0.8489   1.0741   1.0823   1.1558   1.2142   1.2950   1.3349
     1.4341   1.4967   1.5562   1.5963   1.6810   1.7046   1.8247   1.9019
     2.2262   2.3643   2.5649   2.7407   2.7566   2.9120   2.9407   3.0499
     3.1220

     the Fermi energy is     1.5827 ev

!    total energy              =   -1810.37577509 Ry
     estimated scf accuracy    <       0.00000076 Ry
     smearing contrib. (-TS)   =      -0.06808297 Ry
     internal energy E=F+TS    =   -1810.30769212 Ry

     The total energy is F=E-TS. E is the sum of the following terms:
     one-electron contribution =  -14703.17331634 Ry
     hartree contribution      =    7346.82901938 Ry
     xc contribution           =    -352.82935040 Ry
     ewald contribution        =    5898.86595514 Ry
     electric field correction =       0.00000010 Ry

     convergence has been achieved in  22 iterations

     negative rho (up, down):  5.618E-03 0.000E+00

     Forces acting on atoms (cartesian axes, Ry/au):

     atom    1 type  1   force =     0.00000035   -0.00000097    0.01116062
     atom    2 type  1   force =    -0.00000047    0.00000075    0.01116013
     atom    3 type  2   force =    -0.00000156   -0.00000156    0.00628745
     atom    4 type  2   force =     0.00000042    0.00000062    0.00628665
     atom    5 type  1   force =    -0.00000039    0.00000026   -0.00792863
     atom    6 type  1   force =     0.00000047   -0.00000043   -0.00792881
     atom    7 type  2   force =     0.00000073    0.00000069   -0.01112131
     atom    8 type  2   force =    -0.00000008   -0.00000013   -0.01112045
     atom    9 type  1   force =     0.00000051   -0.00000105    0.00202664
     atom   10 type  1   force =    -0.00000042    0.00000077    0.00202711
     atom   11 type  2   force =    -0.00000078   -0.00000023   -0.00042384
     atom   12 type  2   force =     0.00000121    0.00000128   -0.00042557

     Total force =     0.026642     Total SCF correction =     0.002088

     Writing output data file ./Ti2Tc2/Ti2Tc2_beef.save/

     General routines

     Parallel routines

   This run was terminated on:  12:33:49  25Jun2022

   JOB DONE.