     Program PWSCF v.6.6 starts on 25Jun2022 at  1:23:10

     R & G space division:  proc/nbgrp/npool/nimage =      37
     Fft bands division:     nmany     =       1
     Reading input from Ti2W2.in
Warning: card &CELL ignored
Warning: card / ignored

     Current dimensions of program PWSCF are:
     Max number of different atomic species (ntypx) = 10
     Max number of k-points (npk) =  40000
     Max angular momentum in pseudopotentials (lmaxx) =  3
     Presently stress not available with electric field and gates

     Message from routine cell_base_init:
     DEPRECATED: use true lattice parameter, not A to a.u. conversion factor
     Message from routine emend_upf/check:
     BEWARE !!! Possible out of bounds while fixing pseudo
     Message from routine emend_upf/check:
     BEWARE !!! Possible out of bounds while fixing pseudo
     Message from routine read_upf:
     Pseudo file W.pbe-spn-rrkjus_psl.0.2.3.UPF has been fixed on the fly.
     To avoid this message in the future, permanently fix
     your pseudo files following these instructions:
     file Ti.pbe-spn-rrkjus_psl.1.0.0.UPF: wavefunction(s)  3S 3D renormalized

     IMPORTANT: XC functional enforced from input :
     Exchange-correlation= BEEF-VDW
                           (   1   4  43  14   2   0   0)
     Any further DFT definition will be discarded
     Please, verify this is what you really want

     Subspace diagonalization in iterative solution of the eigenvalue problem:
     a serial algorithm will be used

     Found symmetry operation: I + ( -0.5000  0.0000  0.0000)
     This is a supercell, fractional translations are disabled

     bravais-lattice index     =            0
     lattice parameter (alat)  =       1.8897  a.u.
     unit-cell volume          =    4741.8254 (a.u.)^3
     number of atoms/cell      =           12
     number of atomic types    =            2
     number of electrons       =       156.00
     number of Kohn-Sham states=           94
     kinetic-energy cutoff     =      55.1240  Ry
     charge density cutoff     =     551.2396  Ry
     convergence threshold     =      1.0E-05
     mixing beta               =       0.1000
     number of iterations used =           10  plain     mixing
     Exchange-correlation= BEEF-VDW
                           (   1   4  43  14   2   0   0)

     celldm(1)=   1.889726  celldm(2)=   0.000000  celldm(3)=   0.000000
     celldm(4)=   0.000000  celldm(5)=   0.000000  celldm(6)=   0.000000

     crystal axes: (cart. coord. in units of alat)
               a(1) = (   5.364355   0.000000   0.000000 )
               a(2) = (  -2.682177   5.317792   0.000000 )
               a(3) = (   0.000000   0.000000  24.632029 )

     reciprocal axes: (cart. coord. in units 2 pi/alat)
               b(1) = (  0.186416  0.094024 -0.000000 )
               b(2) = (  0.000000  0.188048  0.000000 )
               b(3) = (  0.000000 -0.000000  0.040598 )

     PseudoPot. # 1 for Ti read from file:
     ../pseudo/Ti.pbe-spn-rrkjus_psl.1.0.0.UPF
     MD5 check sum: e281089c08e14b8efcf92e44a67ada65
     Pseudo is Ultrasoft + core correction, Zval = 12.0
     Generated using "atomic" code by A. Dal Corso v.6.2.2
     Using radial grid of 1177 points,  6 beta functions with:
                l(1) =   0
                l(2) =   0
                l(3) =   1
                l(4) =   1
                l(5) =   2
                l(6) =   2
     Q(r) pseudized with 0 coefficients

     PseudoPot. # 2 for W  read from file:
     ../pseudo/W.pbe-spn-rrkjus_psl.0.2.3.UPF
     MD5 check sum: 25b665cf2bbae626ad8d9f1bc024df95
     Pseudo is Ultrasoft + core correction, Zval = 14.0
     Generated using "atomic" code by A. Dal Corso v.5.0.2 svn rev. 10551
     Using radial grid of 1273 points,  6 beta functions with:
                l(1) =   0
                l(2) =   0
                l(3) =   1
                l(4) =   1
                l(5) =   2
                l(6) =   2
     Q(r) pseudized with 0 coefficients

     atomic species   valence    mass     pseudopotential
        Ti            12.00    47.86700     Ti( 1.00)
        W             14.00   183.84000     W ( 1.00)

     No symmetry found

   Cartesian axes

     site n.     atom                  positions (alat units)
         1           Ti  tau(   1) = (   0.0000000   0.0000000  10.0000000  )
         2           Ti  tau(   2) = (   2.6821775   0.0000000  10.0000000  )
         3           W   tau(   3) = (   1.3410887   2.6588958  10.0000000  )
         4           W   tau(   4) = (  -1.3410887   2.6588958  10.0000000  )
         5           Ti  tau(   5) = (   2.6821775   1.3528315  12.3160144  )
         6           Ti  tau(   6) = (   0.0000000   1.3528315  12.3160144  )
         7           W   tau(   7) = (  -1.3410887   4.0117273  12.3160144  )
         8           W   tau(   8) = (   1.3410887   4.0117273  12.3160144  )
         9           Ti  tau(   9) = (  -0.0000713   2.7531791  14.7084856  )
        10           Ti  tau(  10) = (   2.6821046   2.7531820  14.7084808  )
        11           W   tau(  11) = (   4.0232250   0.0864910  14.5184785  )
        12           W   tau(  12) = (   1.3410455   0.0864866  14.5184777  )

     number of k points=    74  Fermi-Dirac smearing, width (Ry)=  0.0100
                       cart. coord. in units 2pi/alat
        k(    1) = (   0.0000000   0.0000000   0.0000000), wk =   0.0138889
        k(    2) = (   0.0000000   0.0156707   0.0000000), wk =   0.0277778
        k(    3) = (   0.0000000   0.0313413   0.0000000), wk =   0.0277778
        k(    4) = (   0.0000000   0.0470120   0.0000000), wk =   0.0277778
        k(    5) = (   0.0000000   0.0626827   0.0000000), wk =   0.0277778
        k(    6) = (   0.0000000   0.0783533   0.0000000), wk =   0.0277778
        k(    7) = (   0.0000000  -0.0940240   0.0000000), wk =   0.0138889
        k(    8) = (   0.0155346   0.0078353   0.0000000), wk =   0.0277778
        k(    9) = (   0.0155346   0.0235060   0.0000000), wk =   0.0277778
        k(   10) = (   0.0155346   0.0391767   0.0000000), wk =   0.0277778
        k(   11) = (   0.0155346   0.0548473   0.0000000), wk =   0.0277778
        k(   12) = (   0.0155346   0.0705180   0.0000000), wk =   0.0277778
        k(   13) = (   0.0155346   0.0861887   0.0000000), wk =   0.0277778
        k(   14) = (   0.0155346  -0.0861887   0.0000000), wk =   0.0277778
        k(   15) = (   0.0155346  -0.0705180   0.0000000), wk =   0.0277778
        k(   16) = (   0.0155346  -0.0548473   0.0000000), wk =   0.0277778
        k(   17) = (   0.0155346  -0.0391767   0.0000000), wk =   0.0277778
        k(   18) = (   0.0155346  -0.0235060   0.0000000), wk =   0.0277778
        k(   19) = (   0.0155346  -0.0078353   0.0000000), wk =   0.0277778
        k(   20) = (   0.0310693   0.0156707   0.0000000), wk =   0.0277778
        k(   21) = (   0.0310693   0.0313413   0.0000000), wk =   0.0277778
        k(   22) = (   0.0310693   0.0470120   0.0000000), wk =   0.0277778
        k(   23) = (   0.0310693   0.0626827   0.0000000), wk =   0.0277778
        k(   24) = (   0.0310693   0.0783533   0.0000000), wk =   0.0277778
        k(   25) = (   0.0310693   0.0940240   0.0000000), wk =   0.0277778
        k(   26) = (   0.0310693  -0.0783533   0.0000000), wk =   0.0277778
        k(   27) = (   0.0310693  -0.0626827   0.0000000), wk =   0.0277778
        k(   28) = (   0.0310693  -0.0470120   0.0000000), wk =   0.0277778
        k(   29) = (   0.0310693  -0.0313413   0.0000000), wk =   0.0277778
        k(   30) = (   0.0310693  -0.0156707   0.0000000), wk =   0.0277778
        k(   31) = (   0.0310693  -0.0000000   0.0000000), wk =   0.0277778
        k(   32) = (   0.0466039   0.0235060   0.0000000), wk =   0.0277778
        k(   33) = (   0.0466039   0.0391767   0.0000000), wk =   0.0277778
        k(   34) = (   0.0466039   0.0548473   0.0000000), wk =   0.0277778
        k(   35) = (   0.0466039   0.0705180   0.0000000), wk =   0.0277778
        k(   36) = (   0.0466039   0.0861886   0.0000000), wk =   0.0277778
        k(   37) = (   0.0466039   0.1018593   0.0000000), wk =   0.0277778
        k(   38) = (   0.0466039  -0.0705180   0.0000000), wk =   0.0277778
        k(   39) = (   0.0466039  -0.0548473   0.0000000), wk =   0.0277778
        k(   40) = (   0.0466039  -0.0391767   0.0000000), wk =   0.0277778
        k(   41) = (   0.0466039  -0.0235060   0.0000000), wk =   0.0277778
        k(   42) = (   0.0466039  -0.0078353   0.0000000), wk =   0.0277778
        k(   43) = (   0.0466039   0.0078353   0.0000000), wk =   0.0277778
        k(   44) = (   0.0621386   0.0313413   0.0000000), wk =   0.0277778
        k(   45) = (   0.0621386   0.0470120   0.0000000), wk =   0.0277778
        k(   46) = (   0.0621386   0.0626827   0.0000000), wk =   0.0277778
        k(   47) = (   0.0621386   0.0783533   0.0000000), wk =   0.0277778
        k(   48) = (   0.0621386   0.0940240   0.0000000), wk =   0.0277778
        k(   49) = (   0.0621386   0.1096946   0.0000000), wk =   0.0277778
        k(   50) = (   0.0621386  -0.0626827   0.0000000), wk =   0.0277778
        k(   51) = (   0.0621386  -0.0470120   0.0000000), wk =   0.0277778
        k(   52) = (   0.0621386  -0.0313413   0.0000000), wk =   0.0277778
        k(   53) = (   0.0621386  -0.0156707   0.0000000), wk =   0.0277778
        k(   54) = (   0.0621386  -0.0000000   0.0000000), wk =   0.0277778
        k(   55) = (   0.0621386   0.0156707   0.0000000), wk =   0.0277778
        k(   56) = (   0.0776732   0.0391767   0.0000000), wk =   0.0277778
        k(   57) = (   0.0776732   0.0548473   0.0000000), wk =   0.0277778
        k(   58) = (   0.0776732   0.0705180   0.0000000), wk =   0.0277778
        k(   59) = (   0.0776732   0.0861886   0.0000000), wk =   0.0277778
        k(   60) = (   0.0776732   0.1018593   0.0000000), wk =   0.0277778
        k(   61) = (   0.0776732   0.1175300   0.0000000), wk =   0.0277778
        k(   62) = (   0.0776732  -0.0548473   0.0000000), wk =   0.0277778
        k(   63) = (   0.0776732  -0.0391767   0.0000000), wk =   0.0277778
        k(   64) = (   0.0776732  -0.0235060   0.0000000), wk =   0.0277778
        k(   65) = (   0.0776732  -0.0078353   0.0000000), wk =   0.0277778
        k(   66) = (   0.0776732   0.0078353   0.0000000), wk =   0.0277778
        k(   67) = (   0.0776732   0.0235060   0.0000000), wk =   0.0277778
        k(   68) = (  -0.0932079  -0.0470120   0.0000000), wk =   0.0138889
        k(   69) = (  -0.0932079  -0.0313413   0.0000000), wk =   0.0277778
        k(   70) = (  -0.0932079  -0.0156707   0.0000000), wk =   0.0277778
        k(   71) = (  -0.0932079   0.0000000   0.0000000), wk =   0.0277778
        k(   72) = (  -0.0932079   0.0156707   0.0000000), wk =   0.0277778
        k(   73) = (  -0.0932079   0.0313413   0.0000000), wk =   0.0277778
        k(   74) = (  -0.0932079  -0.1410360   0.0000000), wk =   0.0138889

     Initial potential from superposition of free atoms

     starting charge  155.98779, renormalised to  156.00000

     negative rho (up, down):  1.161E-03 0.000E+00

     %%%%%%%%%%%%%%%%%%%%%%%%%%%%%%%%%%%%%%%%%%%%%%%%%%%%%%%%%%%%%%%%%%%%%%%%
     %                                                                      %
     % You are using vdW-DF, which was implemented by the Thonhauser group. %
     % Please cite the following two papers that made this development      %
     % possible and the two reviews that describe the various versions:     %
     %                                                                      %
     %   T. Thonhauser et al., PRL 115, 136402 (2015).                      %
     %   T. Thonhauser et al., PRB 76, 125112 (2007).                       %
     %   K. Berland et al., Rep. Prog. Phys. 78, 066501 (2015).             %
     %   D.C. Langreth et al., J. Phys.: Condens. Matter 21, 084203 (2009). %
     %                                                                      %
     %                                                                      %
     % If you are calculating the stress with vdW-DF, please also cite:     %
     %                                                                      %
     %   R. Sabatini et al., J. Phys.: Condens. Matter 24, 424209 (2012).   %
     %                                                                      %
     %%%%%%%%%%%%%%%%%%%%%%%%%%%%%%%%%%%%%%%%%%%%%%%%%%%%%%%%%%%%%%%%%%%%%%%%

     Adding external electric field

     Computed dipole along edir(3) :
        Dipole                0.0004 Ry au,          0.0010 Debye
        Dipole field          0.0000 Ry au,

        Potential amp.       -0.0001 Ry
        Total length         45.3841 bohr

     Starting wfcs are  138 randomized atomic wfcs

     Self-consistent Calculation

     iteration #  1     ecut=    55.12 Ry     beta= 0.10
     Davidson diagonalization with overlap
     ethr =  1.00E-02,  avg # of iterations =  2.0

[...]

     total energy              =   -1676.55462317 Ry
     estimated scf accuracy    <       6.78059031 Ry

[...]

     iteration #  7     ecut=    55.12 Ry     beta= 0.10
     Davidson diagonalization with overlap
     c_bands:  1 eigenvalues not converged
     ethr =  5.42E-05,  avg # of iterations =  3.7

[...]

     iteration # 13     ecut=    55.12 Ry     beta= 0.10
     Davidson diagonalization with overlap
     c_bands:  1 eigenvalues not converged
     c_bands:  1 eigenvalues not converged
     c_bands:  1 eigenvalues not converged
     c_bands:  1 eigenvalues not converged
     c_bands:  1 eigenvalues not converged
     c_bands:  1 eigenvalues not converged
     c_bands:  1 eigenvalues not converged
     c_bands:  1 eigenvalues not converged
     c_bands:  1 eigenvalues not converged
     c_bands:  1 eigenvalues not converged
     c_bands:  1 eigenvalues not converged
     c_bands:  1 eigenvalues not converged
     ethr =  8.13E-07,  avg # of iterations = 10.7

[...]

     total energy              =   -1677.23511924 Ry
     estimated scf accuracy    <       0.00001434 Ry

     iteration # 20     ecut=    55.12 Ry     beta= 0.10
     Davidson diagonalization with overlap
     ethr =  6.82E-09,  avg # of iterations =  2.0

[...]

     Adding external electric field

     Computed dipole along edir(3) :
        Dipole                0.0518 Ry au,          0.1316 Debye
        Dipole field          0.0001 Ry au,

        Potential amp.       -0.0125 Ry
        Total length         45.3841 bohr

     End of self-consistent calculation

          k = 0.0000 0.0000 0.0000 ( 32699 PWs)   bands (ev):

   -72.6201 -72.5460 -72.5332 -72.4622 -72.4603 -72.3890 -55.4803 -55.4218
   -55.3830 -55.3239 -55.2604 -55.1627 -37.2092 -37.1186 -37.0256 -36.9847
   -36.9775 -36.6995 -36.6698 -36.5897 -36.5754 -36.5566 -36.5382 -36.4687
   -36.4161 -36.2603 -36.1808 -36.1611 -36.0167 -35.9662 -31.9245 -31.8979
   -31.8970 -31.8126 -31.7913 -31.7764 -31.7093 -31.6461 -31.6003 -31.5729
   -31.5261 -31.4674 -31.3936 -31.3787 -31.3089 -31.2386 -31.2093 -31.0940
    -5.4673  -3.8409  -2.8542  -2.8313  -2.2580  -2.1741  -2.0895  -2.0291
    -1.5285  -1.5127  -1.4789  -1.3923  -1.2484  -1.0713  -0.8880  -0.7562
    -0.0092   0.0550   0.2446   0.3541   0.4828   1.0370   1.1170   1.3441
     1.3622   1.3759   1.5441   1.8183   1.9038   1.9184   2.1634   2.1795
     2.2490   2.4480   2.6909   2.7620   2.8623   2.8652   2.9562   3.0832
     3.1878   3.1941   3.2522   3.3198   3.7080   3.7377

[...]

          k = 0.0777 0.0235 0.0000 ( 32749 PWs)   bands (ev):

[...]

          k =-0.0932-0.0470 0.0000 ( 32782 PWs)   bands (ev):

[...]

          k =-0.0932-0.1410 0.0000 ( 32782 PWs)   bands (ev):

   -72.5831 -72.5831 -72.4969 -72.4969 -72.4257 -72.4257 -55.4320 -55.4320
   -55.3732 -55.3732 -55.2119 -55.2119 -37.0502 -37.0502 -36.7109 -36.7109
   -36.6338 -36.6338 -36.6132 -36.6132 -36.5363 -36.5363 -36.5270 -36.5270
   -36.4873 -36.4873 -36.4754 -36.4753 -36.2107 -36.2107 -31.8579 -31.8579
   -31.7494 -31.7494 -31.6167 -31.6167 -31.5897 -31.5897 -31.5696 -31.5696
   -31.5608 -31.5608 -31.4435 -31.4434 -31.4335 -31.4335 -31.3441 -31.3440
    -3.5394  -3.5394  -2.1827  -2.1827  -1.4918  -1.4918  -1.2817  -1.2817
    -1.0831  -1.0831  -0.6625  -0.6625  -0.2394  -0.2394  -0.1404  -0.1404
     0.1511   0.1511   0.3728   0.3728   0.5829   0.5829   0.7632   0.7632
     0.9613   0.9613   1.0432   1.0432   1.4007   1.4007   1.6196   1.6196
     1.7630   1.7630   1.8633   1.8633   2.0772   2.0772   2.6189   2.6189
     2.9028   2.9028   3.0195   3.0195   3.1778   3.1780

     the Fermi energy is     1.5871 ev

!    total energy              =   -1677.23507121 Ry
     estimated scf accuracy    <       0.00000214 Ry
     smearing contrib. (-TS)   =      -0.08827382 Ry
     internal energy E=F+TS    =   -1677.14679739 Ry

     The total energy is F=E-TS. E is the sum of the following terms:
     one-electron contribution =  -12736.12791239 Ry
     hartree contribution      =    6352.02164768 Ry
     xc contribution           =    -363.20636954 Ry
     ewald contribution        =    5070.16582976 Ry
     electric field correction =       0.00000710 Ry

     convergence has been achieved in  20 iterations

     negative rho (up, down):  2.102E-03 0.000E+00

     Forces acting on atoms (cartesian axes, Ry/au):

     atom    1 type  1   force =     0.00000043   -0.00482486   -0.01626343
     atom    2 type  1   force =    -0.00000369   -0.00483524   -0.01625515
     atom    3 type  2   force =     0.00000085   -0.00130143    0.03021457
     atom    4 type  2   force =    -0.00000127   -0.00130614    0.03021675
     atom    5 type  1   force =     0.00000061    0.01031318   -0.00349536
     atom    6 type  1   force =     0.00000739    0.01032015   -0.00350463
     atom    7 type  2   force =     0.00000213   -0.00518760   -0.01072585
     atom    8 type  2   force =     0.00000264   -0.00518484   -0.01072652
     atom    9 type  1   force =     0.00000579    0.00132886    0.00118401
     atom   10 type  1   force =    -0.00000453    0.00131686    0.00117598
     atom   11 type  2   force =    -0.00000990   -0.00032203   -0.00091328
     atom   12 type  2   force =    -0.00000044   -0.00031690   -0.00090709

     Total force =     0.054168     Total SCF correction =     0.005194

     Writing output data file ./Ti2W2/Ti2W2_beef.save/

     General routines

     Parallel routines

   This run was terminated on:   2:36:55  25Jun2022

   JOB DONE.