     Program PWSCF v.6.6 starts on 25Jun2022 at 15:56:22

     R & G space division:  proc/nbgrp/npool/nimage =      37
     Fft bands division:     nmany     =       1
     Reading input from Ti2Y2.in
Warning: card &CELL ignored
Warning: card / ignored

     Current dimensions of program PWSCF are:
     Max number of different atomic species (ntypx) = 10
     Max number of k-points (npk) =  40000
     Max angular momentum in pseudopotentials (lmaxx) =  3
     Presently stress not available with electric field and gates

     Message from routine cell_base_init:
     DEPRECATED: use true lattice parameter, not A to a.u. conversion factor
     file Ti.pbe-spn-rrkjus_psl.1.0.0.UPF: wavefunction(s)  3S 3D renormalized
     file Y.pbe-spn-rrkjus_psl.1.0.0.UPF: wavefunction(s)  4S renormalized

     IMPORTANT: XC functional enforced from input :
     Exchange-correlation= BEEF-VDW
                           (   1   4  43  14   2   0   0)
     Any further DFT definition will be discarded
     Please, verify this is what you really want

     Subspace diagonalization in iterative solution of the eigenvalue problem:
     a serial algorithm will be used

     bravais-lattice index     =            0
     lattice parameter (alat)  =       1.8897  a.u.
     unit-cell volume          =    6187.5173 (a.u.)^3
     number of atoms/cell      =           12
     number of atomic types    =            2
     number of electrons       =       138.00
     number of Kohn-Sham states=           83
     kinetic-energy cutoff     =      55.1240  Ry
     charge density cutoff     =     551.2396  Ry
     convergence threshold     =      1.0E-05
     mixing beta               =       0.1000
     number of iterations used =           10  plain     mixing
     Exchange-correlation= BEEF-VDW
                           (   1   4  43  14   2   0   0)

     celldm(1)=   1.889726  celldm(2)=   0.000000  celldm(3)=   0.000000
     celldm(4)=   0.000000  celldm(5)=   0.000000  celldm(6)=   0.000000

     crystal axes: (cart. coord. in units of alat)
               a(1) = (   6.432407   0.000000   0.000000 )
               a(2) = (   3.096083   5.638273   0.000000 )
               a(3) = (   0.000000   0.000000  25.281352 )

     reciprocal axes: (cart. coord. in units 2 pi/alat)
               b(1) = (  0.155463 -0.085368  0.000000 )
               b(2) = (  0.000000  0.177359  0.000000 )
               b(3) = (  0.000000  0.000000  0.039555 )

     PseudoPot. # 1 for Ti read from file:
     ../pseudo/Ti.pbe-spn-rrkjus_psl.1.0.0.UPF
     MD5 check sum: e281089c08e14b8efcf92e44a67ada65
     Pseudo is Ultrasoft + core correction, Zval = 12.0
     Generated using "atomic" code by A. Dal Corso v.6.2.2
     Using radial grid of 1177 points,  6 beta functions with:
                l(1) =   0
                l(2) =   0
                l(3) =   1
                l(4) =   1
                l(5) =   2
                l(6) =   2
     Q(r) pseudized with 0 coefficients

     PseudoPot. # 2 for Y  read from file:
     ../pseudo/Y.pbe-spn-rrkjus_psl.1.0.0.UPF
     MD5 check sum: 5fe32e6a006803c2ec2edff47948a3c8
     Pseudo is Ultrasoft + core correction, Zval = 11.0
     Generated using "atomic" code by A. Dal Corso v.6.2.2
     Using radial grid of 1223 points,  6 beta functions with:
                l(1) =   0
                l(2) =   0
                l(3) =   1
                l(4) =   1
                l(5) =   2
                l(6) =   2
     Q(r) pseudized with 0 coefficients

     atomic species   valence    mass     pseudopotential
        Ti            12.00    47.86700     Ti( 1.00)
        Y             11.00    88.90584     Y ( 1.00)

     No symmetry found

   Cartesian axes

     site n.     atom                  positions (alat units)
         1           Ti  tau(   1) = (   0.0000000   0.0000000  10.0000000  )
         2           Ti  tau(   2) = (   4.7642448   2.8191365  10.0000000  )
         3           Y   tau(   3) = (   3.2162033   0.0000000  10.0000000  )
         4           Y   tau(   4) = (   1.5480416   2.8191365  10.0000000  )
         5           Ti  tau(   5) = (   6.4324065   3.8062343  12.6406758  )
         6           Ti  tau(   6) = (   1.6681617   0.9870978  12.6406758  )
         7           Y   tau(   7) = (   3.2162033   3.8062343  12.6406758  )
         8           Y   tau(   8) = (   4.8843650   0.9870978  12.6406758  )
         9           Ti  tau(   9) = (   3.1183283   1.8452109  14.9574369  )
        10           Ti  tau(  10) = (   7.8822868   4.6641804  14.9575504  )
        11           Y   tau(  11) = (   6.4610318   1.9237936  15.3564022  )
        12           Y   tau(  12) = (   4.7961571   4.7374040  15.3564126  )

     number of k points=    74  Fermi-Dirac smearing, width (Ry)=  0.0100
                       cart. coord. in units 2pi/alat
        k(    1) = (   0.0000000   0.0000000   0.0000000), wk =   0.0138889
        k(    2) = (   0.0000000   0.0147799   0.0000000), wk =   0.0277778
        k(    3) = (   0.0000000   0.0295599   0.0000000), wk =   0.0277778
        k(    4) = (   0.0000000   0.0443398   0.0000000), wk =   0.0277778
        k(    5) = (   0.0000000   0.0591198   0.0000000), wk =   0.0277778
        k(    6) = (   0.0000000   0.0738997   0.0000000), wk =   0.0277778
        k(    7) = (   0.0000000  -0.0886796   0.0000000), wk =   0.0138889
        k(    8) = (   0.0129552  -0.0071140   0.0000000), wk =   0.0277778
        k(    9) = (   0.0129552   0.0076660   0.0000000), wk =   0.0277778
        k(   10) = (   0.0129552   0.0224459   0.0000000), wk =   0.0277778
        k(   11) = (   0.0129552   0.0372259   0.0000000), wk =   0.0277778
        k(   12) = (   0.0129552   0.0520058   0.0000000), wk =   0.0277778
        k(   13) = (   0.0129552   0.0667857   0.0000000), wk =   0.0277778
        k(   14) = (   0.0129552  -0.0957936   0.0000000), wk =   0.0277778
        k(   15) = (   0.0129552  -0.0810137   0.0000000), wk =   0.0277778
        k(   16) = (   0.0129552  -0.0662337   0.0000000), wk =   0.0277778
        k(   17) = (   0.0129552  -0.0514538   0.0000000), wk =   0.0277778
        k(   18) = (   0.0129552  -0.0366738   0.0000000), wk =   0.0277778
        k(   19) = (   0.0129552  -0.0218939   0.0000000), wk =   0.0277778
        k(   20) = (   0.0259105  -0.0142279   0.0000000), wk =   0.0277778
        k(   21) = (   0.0259105   0.0005520   0.0000000), wk =   0.0277778
        k(   22) = (   0.0259105   0.0153319   0.0000000), wk =   0.0277778
        k(   23) = (   0.0259105   0.0301119   0.0000000), wk =   0.0277778
        k(   24) = (   0.0259105   0.0448918   0.0000000), wk =   0.0277778
        k(   25) = (   0.0259105   0.0596718   0.0000000), wk =   0.0277778
        k(   26) = (   0.0259105  -0.1029076   0.0000000), wk =   0.0277778
        k(   27) = (   0.0259105  -0.0881276   0.0000000), wk =   0.0277778
        k(   28) = (   0.0259105  -0.0733477   0.0000000), wk =   0.0277778
        k(   29) = (   0.0259105  -0.0585677   0.0000000), wk =   0.0277778
        k(   30) = (   0.0259105  -0.0437878   0.0000000), wk =   0.0277778
        k(   31) = (   0.0259105  -0.0290079   0.0000000), wk =   0.0277778
        k(   32) = (   0.0388657  -0.0213419   0.0000000), wk =   0.0277778
        k(   33) = (   0.0388657  -0.0065620   0.0000000), wk =   0.0277778
        k(   34) = (   0.0388657   0.0082180   0.0000000), wk =   0.0277778
        k(   35) = (   0.0388657   0.0229979   0.0000000), wk =   0.0277778
        k(   36) = (   0.0388657   0.0377779   0.0000000), wk =   0.0277778
        k(   37) = (   0.0388657   0.0525578   0.0000000), wk =   0.0277778
        k(   38) = (   0.0388657  -0.1100215   0.0000000), wk =   0.0277778
        k(   39) = (   0.0388657  -0.0952416   0.0000000), wk =   0.0277778
        k(   40) = (   0.0388657  -0.0804617   0.0000000), wk =   0.0277778
        k(   41) = (   0.0388657  -0.0656817   0.0000000), wk =   0.0277778
        k(   42) = (   0.0388657  -0.0509018   0.0000000), wk =   0.0277778
        k(   43) = (   0.0388657  -0.0361218   0.0000000), wk =   0.0277778
        k(   44) = (   0.0518209  -0.0284559   0.0000000), wk =   0.0277778
        k(   45) = (   0.0518209  -0.0136759   0.0000000), wk =   0.0277778
        k(   46) = (   0.0518209   0.0011040   0.0000000), wk =   0.0277778
        k(   47) = (   0.0518209   0.0158840   0.0000000), wk =   0.0277778
        k(   48) = (   0.0518209   0.0306639   0.0000000), wk =   0.0277778
        k(   49) = (   0.0518209   0.0454438   0.0000000), wk =   0.0277778
        k(   50) = (   0.0518209  -0.1171355   0.0000000), wk =   0.0277778
        k(   51) = (   0.0518209  -0.1023556   0.0000000), wk =   0.0277778
        k(   52) = (   0.0518209  -0.0875756   0.0000000), wk =   0.0277778
        k(   53) = (   0.0518209  -0.0727957   0.0000000), wk =   0.0277778
        k(   54) = (   0.0518209  -0.0580157   0.0000000), wk =   0.0277778
        k(   55) = (   0.0518209  -0.0432358   0.0000000), wk =   0.0277778
        k(   56) = (   0.0647762  -0.0355698   0.0000000), wk =   0.0277778
        k(   57) = (   0.0647762  -0.0207899   0.0000000), wk =   0.0277778
        k(   58) = (   0.0647762  -0.0060099   0.0000000), wk =   0.0277778
        k(   59) = (   0.0647762   0.0087700   0.0000000), wk =   0.0277778
        k(   60) = (   0.0647762   0.0235499   0.0000000), wk =   0.0277778
        k(   61) = (   0.0647762   0.0383299   0.0000000), wk =   0.0277778
        k(   62) = (   0.0647762  -0.1242495   0.0000000), wk =   0.0277778
        k(   63) = (   0.0647762  -0.1094695   0.0000000), wk =   0.0277778
        k(   64) = (   0.0647762  -0.0946896   0.0000000), wk =   0.0277778
        k(   65) = (   0.0647762  -0.0799096   0.0000000), wk =   0.0277778
        k(   66) = (   0.0647762  -0.0651297   0.0000000), wk =   0.0277778
        k(   67) = (   0.0647762  -0.0503498   0.0000000), wk =   0.0277778
        k(   68) = (  -0.0777314   0.0426838   0.0000000), wk =   0.0138889
        k(   69) = (  -0.0777314   0.0574637   0.0000000), wk =   0.0277778
        k(   70) = (  -0.0777314   0.0722437   0.0000000), wk =   0.0277778
        k(   71) = (  -0.0777314   0.0870236   0.0000000), wk =   0.0277778
        k(   72) = (  -0.0777314   0.1018035   0.0000000), wk =   0.0277778
        k(   73) = (  -0.0777314   0.1165835   0.0000000), wk =   0.0277778
        k(   74) = (  -0.0777314  -0.0459958   0.0000000), wk =   0.0138889

     Check: negative core charge=   -0.000001

     Initial potential from superposition of free atoms

     starting charge  137.96662, renormalised to  138.00000

     negative rho (up, down):  9.701E-04 0.000E+00

     %%%%%%%%%%%%%%%%%%%%%%%%%%%%%%%%%%%%%%%%%%%%%%%%%%%%%%%%%%%%%%%%%%%%%%%%
     %                                                                      %
     % You are using vdW-DF, which was implemented by the Thonhauser group. %
     % Please cite the following two papers that made this development      %
     % possible and the two reviews that describe the various versions:     %
     %                                                                      %
     %   T. Thonhauser et al., PRL 115, 136402 (2015).                      %
     %   T. Thonhauser et al., PRB 76, 125112 (2007).                       %
     %   K. Berland et al., Rep. Prog. Phys. 78, 066501 (2015).             %
     %   D.C. Langreth et al., J. Phys.: Condens. Matter 21, 084203 (2009). %
     %                                                                      %
     %                                                                      %
     % If you are calculating the stress with vdW-DF, please also cite:     %
     %                                                                      %
     %   R. Sabatini et al., J. Phys.: Condens. Matter 24, 424209 (2012).   %
     %                                                                      %
     %%%%%%%%%%%%%%%%%%%%%%%%%%%%%%%%%%%%%%%%%%%%%%%%%%%%%%%%%%%%%%%%%%%%%%%%

     Adding external electric field

     Computed dipole along edir(3) :
        Dipole                0.0021 Ry au,          0.0055 Debye
        Dipole field          0.0000 Ry au,

        Potential amp.       -0.0004 Ry
        Total length         46.5805 bohr

     Starting wfcs are  138 randomized atomic wfcs

     Self-consistent Calculation

     iteration #  1     ecut=    55.12 Ry     beta= 0.10
     Davidson diagonalization with overlap
     ethr =  1.00E-02,  avg # of iterations =  2.0

[...]

     total energy              =   -1225.68478361 Ry
     estimated scf accuracy    <       9.39653224 Ry

[...]

     iteration # 14     ecut=    55.12 Ry     beta= 0.10
     Davidson diagonalization with overlap
     c_bands:  1 eigenvalues not converged
     c_bands:  1 eigenvalues not converged
     c_bands:  1 eigenvalues not converged
     c_bands:  2 eigenvalues not converged
     c_bands:  1 eigenvalues not converged
     c_bands:  1 eigenvalues not converged
     c_bands:  1 eigenvalues not converged
     c_bands:  1 eigenvalues not converged
     c_bands:  1 eigenvalues not converged
     c_bands:  2 eigenvalues not converged
     c_bands:  2 eigenvalues not converged
     c_bands:  1 eigenvalues not converged
     c_bands:  2 eigenvalues not converged
     c_bands:  1 eigenvalues not converged
     c_bands:  1 eigenvalues not converged
     c_bands:  1 eigenvalues not converged
     c_bands:  1 eigenvalues not converged
     c_bands:  1 eigenvalues not converged
     c_bands:  1 eigenvalues not converged
     c_bands:  1 eigenvalues not converged
     c_bands:  1 eigenvalues not converged
     ethr =  2.20E-06,  avg # of iterations = 14.1

[...]

     iteration # 15     ecut=    55.12 Ry     beta= 0.10
     Davidson diagonalization with overlap
     c_bands:  1 eigenvalues not converged
     c_bands:  1 eigenvalues not converged
     ethr =  2.10E-06,  avg # of iterations =  2.5

[...]

     total energy              =   -1226.71756276 Ry
     estimated scf accuracy    <       0.00004299 Ry

     iteration # 22     ecut=    55.12 Ry     beta= 0.10
     Davidson diagonalization with overlap
     ethr =  2.34E-08,  avg # of iterations =  3.1

[...]

     Adding external electric field

     Computed dipole along edir(3) :
        Dipole                0.0666 Ry au,          0.1693 Debye
        Dipole field          0.0001 Ry au,

        Potential amp.       -0.0126 Ry
        Total length         46.5805 bohr

     End of self-consistent calculation

          k = 0.0000 0.0000 0.0000 ( 42831 PWs)   bands (ev):

   -56.3230 -56.3142 -56.1287 -56.1196 -56.0903 -56.0816 -41.9662 -41.9042
   -41.8552 -41.7927 -41.1588 -41.0946 -32.6061 -32.5958 -32.5582 -32.5289
   -32.5170 -32.4521 -32.4162 -32.4140 -32.4022 -32.3714 -32.3611 -32.3485
   -32.3393 -32.3261 -32.3074 -32.2431 -32.2069 -32.1976 -22.2206 -22.1297
   -22.0202 -21.9414 -21.9066 -21.8724 -21.8278 -21.7985 -21.7725 -21.6976
   -21.5790 -21.4898 -21.4832 -21.1545 -21.1188 -21.0786 -21.0402 -20.8257
    -3.7358  -2.6234  -1.5587  -1.1628  -1.1043  -0.8214  -0.7574  -0.6276
    -0.6082  -0.5082  -0.3767  -0.1626  -0.1304  -0.0594   0.0595   0.4127
     0.5607   0.5868   0.9447   1.0856   1.3391   1.4305   1.4583   1.5351
     1.6044   1.6623   1.7650   1.8182   1.8526   1.9339   1.9375   2.0202
     2.0552   2.1042   2.2024

[...]

          k = 0.0648-0.0503 0.0000 ( 42744 PWs)   bands (ev):

[...]

          k =-0.0777 0.0427 0.0000 ( 42766 PWs)   bands (ev):

[...]

          k =-0.0777-0.0460 0.0000 ( 42794 PWs)   bands (ev):

   -56.3230 -56.3142 -56.1287 -56.1196 -56.0904 -56.0816 -41.9665 -41.9043
   -41.8556 -41.7929 -41.1593 -41.0947 -32.6059 -32.5957 -32.5569 -32.5258
   -32.5161 -32.4521 -32.4148 -32.4128 -32.4018 -32.3698 -32.3592 -32.3476
   -32.3368 -32.3272 -32.3073 -32.2431 -32.2066 -32.1976 -22.2257 -22.1356
   -22.0242 -21.9426 -21.9084 -21.8839 -21.8285 -21.8020 -21.7852 -21.7013
   -21.5799 -21.4952 -21.4842 -21.1519 -21.1301 -21.0785 -21.0460 -20.8268
    -2.3420  -2.2909  -1.4369  -1.2472  -0.6678  -0.5812  -0.4500  -0.4372
    -0.2512  -0.0790   0.1922   0.4264   0.4851   0.4901   0.5768   0.6213
     0.6296   0.6826   0.7182   0.8341   0.8518   0.8645   0.9867   0.9941
     1.0705   1.1195   1.1811   1.2796   1.3754   1.3996   1.4830   1.5400
     1.7718   1.8488   2.0742

     the Fermi energy is     0.9792 ev

!    total energy              =   -1226.71750879 Ry
     estimated scf accuracy    <       0.00000780 Ry
     smearing contrib. (-TS)   =      -0.11709870 Ry
     internal energy E=F+TS    =   -1226.60041009 Ry

     The total energy is F=E-TS. E is the sum of the following terms:
     one-electron contribution =   -7723.95734207 Ry
     hartree contribution      =    3851.47308567 Ry
     xc contribution           =    -226.48024354 Ry
     ewald contribution        =    2872.36408084 Ry
     electric field correction =       0.00000901 Ry

     convergence has been achieved in  22 iterations

     negative rho (up, down):  6.263E-04 0.000E+00

     Forces acting on atoms (cartesian axes, Ry/au):

     atom    1 type  1   force =     0.00953504    0.00564259    0.01957320
     atom    2 type  1   force =     0.00953371    0.00564257    0.01957406
     atom    3 type  2   force =    -0.00880700   -0.00524230   -0.01033389
     atom    4 type  2   force =    -0.00883338   -0.00519630   -0.01033225
     atom    5 type  1   force =    -0.00195076   -0.00115345    0.00614688
     atom    6 type  1   force =    -0.00194997   -0.00115501    0.00627702
     atom    7 type  2   force =     0.00102277    0.00046778   -0.01820254
     atom    8 type  2   force =     0.00090186    0.00067132   -0.01820228
     atom    9 type  1   force =     0.00105326    0.00062287    0.00168509
     atom   10 type  1   force =     0.00116152    0.00068646    0.00162084
     atom   11 type  2   force =    -0.00038674   -0.00124782    0.00109812
     atom   12 type  2   force =    -0.00128031    0.00026129    0.00109575

     Total force =     0.046932     Total SCF correction =     0.004187

     Writing output data file ./Ti2Y2/Ti2Y2_beef.save/

     General routines

     Parallel routines

   This run was terminated on:  17:30: 5  25Jun2022

   JOB DONE.