     Program PWSCF v.6.6 starts on 10Jul2022 at  1:35:30

     R & G space division:  proc/nbgrp/npool/nimage =      37
     Fft bands division:     nmany     =       1
     Reading input from Ti2Zn2.in
Warning: card &CELL ignored
Warning: card / ignored

     Current dimensions of program PWSCF are:
     Max number of different atomic species (ntypx) = 10
     Max number of k-points (npk) =  40000
     Max angular momentum in pseudopotentials (lmaxx) =  3
     Presently stress not available with electric field and gates

     Message from routine cell_base_init:
     DEPRECATED: use true lattice parameter, not A to a.u. conversion factor
     file Ti.pbe-spn-rrkjus_psl.1.0.0.UPF: wavefunction(s)  3S 3D renormalized
     file Zn.pbe-dnl-rrkjus_psl.1.0.0.UPF: wavefunction(s)  3D renormalized

     IMPORTANT: XC functional enforced from input :
     Exchange-correlation= BEEF-VDW
                           (   1   4  43  14   2   0   0)
     Any further DFT definition will be discarded
     Please, verify this is what you really want

     Subspace diagonalization in iterative solution of the eigenvalue problem:
     a serial algorithm will be used

     bravais-lattice index     =            0
     lattice parameter (alat)  =       1.8897  a.u.
     unit-cell volume          =    4526.4622 (a.u.)^3
     number of atoms/cell      =           12
     number of atomic types    =            2
     number of electrons       =       144.00
     number of Kohn-Sham states=           86
     kinetic-energy cutoff     =      55.1240  Ry
     charge density cutoff     =     551.2396  Ry
     convergence threshold     =      1.0E-05
     mixing beta               =       0.1000
     number of iterations used =           10  plain     mixing
     Exchange-correlation= BEEF-VDW
                           (   1   4  43  14   2   0   0)

     celldm(1)=   1.889726  celldm(2)=   0.000000  celldm(3)=   0.000000
     celldm(4)=   0.000000  celldm(5)=   0.000000  celldm(6)=   0.000000

     crystal axes: (cart. coord. in units of alat)
               a(1) = (   5.565795   0.000000   0.000000 )
               a(2) = (   2.633934   4.903108   0.000000 )
               a(3) = (   0.000000   0.000000  24.578972 )

     reciprocal axes: (cart. coord. in units 2 pi/alat)
               b(1) = (  0.179669 -0.096518  0.000000 )
               b(2) = (  0.000000  0.203952  0.000000 )
               b(3) = (  0.000000  0.000000  0.040685 )

     PseudoPot. # 1 for Ti read from file:
     ../pseudo/Ti.pbe-spn-rrkjus_psl.1.0.0.UPF
     MD5 check sum: e281089c08e14b8efcf92e44a67ada65
     Pseudo is Ultrasoft + core correction, Zval = 12.0
     Generated using "atomic" code by A. Dal Corso v.6.2.2
     Using radial grid of 1177 points,  6 beta functions with:
                l(1) =   0
                l(2) =   0
                l(3) =   1
                l(4) =   1
                l(5) =   2
                l(6) =   2
     Q(r) pseudized with 0 coefficients

     PseudoPot. # 2 for Zn read from file:
     ../pseudo/Zn.pbe-dnl-rrkjus_psl.1.0.0.UPF
     MD5 check sum: 7f56cabf9682ed8c977c2f7d0c5985c5
     Pseudo is Ultrasoft + core correction, Zval = 12.0
     Generated using "atomic" code by A. Dal Corso v.6.2.2
     Using radial grid of 1201 points,  6 beta functions with:
                l(1) =   0
                l(2) =   0
                l(3) =   1
                l(4) =   1
                l(5) =   2
                l(6) =   2
     Q(r) pseudized with 0 coefficients

     atomic species   valence    mass     pseudopotential
        Ti            12.00    47.86700     Ti( 1.00)
        Zn            12.00    65.38000     Zn( 1.00)

     No symmetry found

   Cartesian axes

     site n.     atom                  positions (alat units)
         1           Ti  tau(   1) = (   0.0000000   0.0000000  10.0000000  )
         2           Ti  tau(   2) = (   4.0998647   2.4515538  10.0000000  )
         3           Zn  tau(   3) = (   2.7828975   0.0000000  10.0000000  )
         4           Zn  tau(   4) = (   1.3169672   2.4515538  10.0000000  )
         5           Ti  tau(   5) = (   5.5657950   3.3281211  12.2894859  )
         6           Ti  tau(   6) = (   1.4659304   0.8765673  12.2894859  )
         7           Zn  tau(   7) = (   2.7828975   3.3281211  12.2894859  )
         8           Zn  tau(   8) = (   4.2488279   0.8765673  12.2894859  )
         9           Ti  tau(   9) = (   2.9226378   1.7476202  14.5150511  )
        10           Ti  tau(  10) = (   7.0224874   4.1991640  14.5150224  )
        11           Zn  tau(  11) = (   5.6946837   1.7414203  14.6436145  )
        12           Zn  tau(  12) = (   4.2290056   4.1925476  14.6436175  )

     number of k points=    74  Fermi-Dirac smearing, width (Ry)=  0.0100
                       cart. coord. in units 2pi/alat
        k(    1) = (   0.0000000   0.0000000   0.0000000), wk =   0.0138889
        k(    2) = (   0.0000000   0.0169960   0.0000000), wk =   0.0277778
        k(    3) = (   0.0000000   0.0339920   0.0000000), wk =   0.0277778
        k(    4) = (   0.0000000   0.0509881   0.0000000), wk =   0.0277778
        k(    5) = (   0.0000000   0.0679841   0.0000000), wk =   0.0277778
        k(    6) = (   0.0000000   0.0849801   0.0000000), wk =   0.0277778
        k(    7) = (   0.0000000  -0.1019761   0.0000000), wk =   0.0138889
        k(    8) = (   0.0149724  -0.0080431   0.0000000), wk =   0.0277778
        k(    9) = (   0.0149724   0.0089529   0.0000000), wk =   0.0277778
        k(   10) = (   0.0149724   0.0259489   0.0000000), wk =   0.0277778
        k(   11) = (   0.0149724   0.0429449   0.0000000), wk =   0.0277778
        k(   12) = (   0.0149724   0.0599410   0.0000000), wk =   0.0277778
        k(   13) = (   0.0149724   0.0769370   0.0000000), wk =   0.0277778
        k(   14) = (   0.0149724  -0.1100193   0.0000000), wk =   0.0277778
        k(   15) = (   0.0149724  -0.0930232   0.0000000), wk =   0.0277778
        k(   16) = (   0.0149724  -0.0760272   0.0000000), wk =   0.0277778
        k(   17) = (   0.0149724  -0.0590312   0.0000000), wk =   0.0277778
        k(   18) = (   0.0149724  -0.0420352   0.0000000), wk =   0.0277778
        k(   19) = (   0.0149724  -0.0250392   0.0000000), wk =   0.0277778
        k(   20) = (   0.0299448  -0.0160863   0.0000000), wk =   0.0277778
        k(   21) = (   0.0299448   0.0009098   0.0000000), wk =   0.0277778
        k(   22) = (   0.0299448   0.0179058   0.0000000), wk =   0.0277778
        k(   23) = (   0.0299448   0.0349018   0.0000000), wk =   0.0277778
        k(   24) = (   0.0299448   0.0518978   0.0000000), wk =   0.0277778
        k(   25) = (   0.0299448   0.0688939   0.0000000), wk =   0.0277778
        k(   26) = (   0.0299448  -0.1180624   0.0000000), wk =   0.0277778
        k(   27) = (   0.0299448  -0.1010664   0.0000000), wk =   0.0277778
        k(   28) = (   0.0299448  -0.0840703   0.0000000), wk =   0.0277778
        k(   29) = (   0.0299448  -0.0670743   0.0000000), wk =   0.0277778
        k(   30) = (   0.0299448  -0.0500783   0.0000000), wk =   0.0277778
        k(   31) = (   0.0299448  -0.0330823   0.0000000), wk =   0.0277778
        k(   32) = (   0.0449172  -0.0241294   0.0000000), wk =   0.0277778
        k(   33) = (   0.0449172  -0.0071334   0.0000000), wk =   0.0277778
        k(   34) = (   0.0449172   0.0098627   0.0000000), wk =   0.0277778
        k(   35) = (   0.0449172   0.0268587   0.0000000), wk =   0.0277778
        k(   36) = (   0.0449172   0.0438547   0.0000000), wk =   0.0277778
        k(   37) = (   0.0449172   0.0608507   0.0000000), wk =   0.0277778
        k(   38) = (   0.0449172  -0.1261055   0.0000000), wk =   0.0277778
        k(   39) = (   0.0449172  -0.1091095   0.0000000), wk =   0.0277778
        k(   40) = (   0.0449172  -0.0921135   0.0000000), wk =   0.0277778
        k(   41) = (   0.0449172  -0.0751175   0.0000000), wk =   0.0277778
        k(   42) = (   0.0449172  -0.0581214   0.0000000), wk =   0.0277778
        k(   43) = (   0.0449172  -0.0411254   0.0000000), wk =   0.0277778
        k(   44) = (   0.0598896  -0.0321725   0.0000000), wk =   0.0277778
        k(   45) = (   0.0598896  -0.0151765   0.0000000), wk =   0.0277778
        k(   46) = (   0.0598896   0.0018195   0.0000000), wk =   0.0277778
        k(   47) = (   0.0598896   0.0188156   0.0000000), wk =   0.0277778
        k(   48) = (   0.0598896   0.0358116   0.0000000), wk =   0.0277778
        k(   49) = (   0.0598896   0.0528076   0.0000000), wk =   0.0277778
        k(   50) = (   0.0598896  -0.1341486   0.0000000), wk =   0.0277778
        k(   51) = (   0.0598896  -0.1171526   0.0000000), wk =   0.0277778
        k(   52) = (   0.0598896  -0.1001566   0.0000000), wk =   0.0277778
        k(   53) = (   0.0598896  -0.0831606   0.0000000), wk =   0.0277778
        k(   54) = (   0.0598896  -0.0661646   0.0000000), wk =   0.0277778
        k(   55) = (   0.0598896  -0.0491685   0.0000000), wk =   0.0277778
        k(   56) = (   0.0748620  -0.0402156   0.0000000), wk =   0.0277778
        k(   57) = (   0.0748620  -0.0232196   0.0000000), wk =   0.0277778
        k(   58) = (   0.0748620  -0.0062236   0.0000000), wk =   0.0277778
        k(   59) = (   0.0748620   0.0107724   0.0000000), wk =   0.0277778
        k(   60) = (   0.0748620   0.0277684   0.0000000), wk =   0.0277778
        k(   61) = (   0.0748620   0.0447645   0.0000000), wk =   0.0277778
        k(   62) = (   0.0748620  -0.1421918   0.0000000), wk =   0.0277778
        k(   63) = (   0.0748620  -0.1251958   0.0000000), wk =   0.0277778
        k(   64) = (   0.0748620  -0.1081997   0.0000000), wk =   0.0277778
        k(   65) = (   0.0748620  -0.0912037   0.0000000), wk =   0.0277778
        k(   66) = (   0.0748620  -0.0742077   0.0000000), wk =   0.0277778
        k(   67) = (   0.0748620  -0.0572117   0.0000000), wk =   0.0277778
        k(   68) = (  -0.0898344   0.0482588   0.0000000), wk =   0.0138889
        k(   69) = (  -0.0898344   0.0652548   0.0000000), wk =   0.0277778
        k(   70) = (  -0.0898344   0.0822508   0.0000000), wk =   0.0277778
        k(   71) = (  -0.0898344   0.0992468   0.0000000), wk =   0.0277778
        k(   72) = (  -0.0898344   0.1162429   0.0000000), wk =   0.0277778
        k(   73) = (  -0.0898344   0.1332389   0.0000000), wk =   0.0277778
        k(   74) = (  -0.0898344  -0.0537174   0.0000000), wk =   0.0138889

     Check: negative core charge=   -0.000001

     Initial potential from superposition of free atoms

     starting charge  143.96878, renormalised to  144.00000

     negative rho (up, down):  8.381E-04 0.000E+00

     %%%%%%%%%%%%%%%%%%%%%%%%%%%%%%%%%%%%%%%%%%%%%%%%%%%%%%%%%%%%%%%%%%%%%%%%
     %                                                                      %
     % You are using vdW-DF, which was implemented by the Thonhauser group. %
     % Please cite the following two papers that made this development      %
     % possible and the two reviews that describe the various versions:     %
     %                                                                      %
     %   T. Thonhauser et al., PRL 115, 136402 (2015).                      %
     %   T. Thonhauser et al., PRB 76, 125112 (2007).                       %
     %   K. Berland et al., Rep. Prog. Phys. 78, 066501 (2015).             %
     %   D.C. Langreth et al., J. Phys.: Condens. Matter 21, 084203 (2009). %
     %                                                                      %
     %                                                                      %
     % If you are calculating the stress with vdW-DF, please also cite:     %
     %                                                                      %
     %   R. Sabatini et al., J. Phys.: Condens. Matter 24, 424209 (2012).   %
     %                                                                      %
     %%%%%%%%%%%%%%%%%%%%%%%%%%%%%%%%%%%%%%%%%%%%%%%%%%%%%%%%%%%%%%%%%%%%%%%%

     Adding external electric field

     Computed dipole along edir(3) :
        Dipole                0.0005 Ry au,          0.0014 Debye
        Dipole field          0.0000 Ry au,

        Potential amp.       -0.0001 Ry
        Total length         45.2863 bohr

     Starting wfcs are  114 randomized atomic wfcs

     Self-consistent Calculation

     iteration #  1     ecut=    55.12 Ry     beta= 0.10
     Davidson diagonalization with overlap
     ethr =  1.00E-02,  avg # of iterations =  2.0

[...]

     total energy              =   -1619.76187525 Ry
     estimated scf accuracy    <       3.85318155 Ry

[...]

     iteration #  9     ecut=    55.12 Ry     beta= 0.10
     Davidson diagonalization with overlap
     c_bands:  2 eigenvalues not converged
     c_bands:  4 eigenvalues not converged
     c_bands:  1 eigenvalues not converged
     c_bands:  1 eigenvalues not converged
     c_bands:  2 eigenvalues not converged
     c_bands:  2 eigenvalues not converged
     c_bands:  1 eigenvalues not converged
     c_bands:  1 eigenvalues not converged
     c_bands:  3 eigenvalues not converged
     c_bands:  1 eigenvalues not converged
     c_bands:  2 eigenvalues not converged
     c_bands:  2 eigenvalues not converged
     c_bands:  1 eigenvalues not converged
     ethr =  8.04E-06,  avg # of iterations = 10.5

[...]

     iteration # 11     ecut=    55.12 Ry     beta= 0.10
     Davidson diagonalization with overlap
     c_bands:  1 eigenvalues not converged
     c_bands:  1 eigenvalues not converged
     c_bands:  1 eigenvalues not converged
     c_bands:  1 eigenvalues not converged
     c_bands:  1 eigenvalues not converged
     ethr =  2.95E-06,  avg # of iterations =  8.0

[...]

     total energy              =   -1620.15958616 Ry
     estimated scf accuracy    <       0.00005087 Ry

     iteration # 17     ecut=    55.12 Ry     beta= 0.10
     Davidson diagonalization with overlap
     ethr =  2.31E-08,  avg # of iterations =  3.7

[...]

     Adding external electric field

     Computed dipole along edir(3) :
        Dipole               -0.0226 Ry au,         -0.0574 Debye
        Dipole field         -0.0001 Ry au,

        Potential amp.        0.0057 Ry
        Total length         45.2863 bohr

     End of self-consistent calculation

          k = 0.0000 0.0000 0.0000 ( 31325 PWs)   bands (ev):

   -56.8285 -56.7847 -56.7806 -56.7366 -56.5324 -56.4838 -33.1848 -33.1395
   -33.1381 -33.1093 -33.0929 -33.0917 -33.0811 -33.0472 -33.0393 -32.9937
   -32.9040 -32.8695 -32.8195 -32.7110 -32.6814 -32.6636 -32.6216 -32.5008
    -7.4134  -7.0611  -7.0257  -7.0162  -6.9804  -6.9692  -6.9327  -6.9118
    -6.8722  -6.8710  -6.8501  -6.8325  -6.7681  -6.7585  -6.6722  -6.6627
    -6.6620  -6.6589  -6.5931  -6.5772  -6.5579  -6.5529  -6.5289  -6.5159
    -6.5060  -6.4872  -6.4515  -6.4362  -6.3966  -6.3859  -6.2213  -5.5979
    -3.8479  -3.0546  -2.3337  -2.1045  -1.1535  -0.9942  -0.9463  -0.7213
    -0.5138  -0.4870  -0.3345  -0.2041   0.2029   0.3832   0.4332   0.5128
     0.5138   0.6112   0.7236   1.0680   1.1519   1.1885   1.2694   1.3793
     1.5556   1.7476   1.9220   2.0860   2.2040   2.3652

[...]

          k = 0.0749-0.0572 0.0000 ( 31272 PWs)   bands (ev):

[...]

          k =-0.0898 0.0483 0.0000 ( 31286 PWs)   bands (ev):

[...]

          k =-0.0898-0.0537 0.0000 ( 31286 PWs)   bands (ev):

   -56.8284 -56.7846 -56.7807 -56.7366 -56.5324 -56.4837 -33.1865 -33.1390
   -33.1386 -33.1104 -33.0978 -33.0914 -33.0821 -33.0453 -33.0419 -32.9932
   -32.9043 -32.8680 -32.8218 -32.7111 -32.6814 -32.6636 -32.6221 -32.5010
    -7.0634  -6.9965  -6.9782  -6.9481  -6.9260  -6.8684  -6.8352  -6.8249
    -6.8042  -6.7994  -6.7853  -6.7735  -6.6860  -6.6640  -6.6439  -6.6314
    -6.6204  -6.5875  -6.5684  -6.5582  -6.5535  -6.5232  -6.5118  -6.4900
    -6.4608  -6.4536  -6.4430  -6.4015  -6.3839  -6.2203  -5.6918  -5.4276
    -3.9242  -3.3327  -2.8517  -2.5491  -2.2775  -1.8618  -1.4969  -1.3818
    -1.2150  -1.0634  -0.7231  -0.6439  -0.3660  -0.3480  -0.2031  -0.0049
     0.0976   0.2310   0.4399   0.4502   1.3152   1.4090   1.4095   1.6218
     1.7241   2.0303   2.1217   2.1354   2.2410   2.3218

     the Fermi energy is     0.3963 ev

!    total energy              =   -1620.15952821 Ry
     estimated scf accuracy    <       0.00000758 Ry
     smearing contrib. (-TS)   =      -0.07844391 Ry
     internal energy E=F+TS    =   -1620.08108430 Ry

     The total energy is F=E-TS. E is the sum of the following terms:
     one-electron contribution =  -11657.25025771 Ry
     hartree contribution      =    5894.08058551 Ry
     xc contribution           =    -406.40191693 Ry
     ewald contribution        =    4549.49050341 Ry
     electric field correction =       0.00000142 Ry

     convergence has been achieved in  17 iterations

     negative rho (up, down):  6.711E-04 0.000E+00

     Forces acting on atoms (cartesian axes, Ry/au):

     atom    1 type  1   force =     0.00008263    0.00005074    0.00877882
     atom    2 type  1   force =     0.00008199    0.00005076    0.00876374
     atom    3 type  2   force =     0.00358874    0.00212710   -0.00799008
     atom    4 type  2   force =     0.00358472    0.00215407   -0.00799990
     atom    5 type  1   force =    -0.00275189   -0.00164620    0.00222247
     atom    6 type  1   force =    -0.00277631   -0.00165848    0.00223415
     atom    7 type  2   force =     0.00157515    0.00082615   -0.00609384
     atom    8 type  2   force =     0.00148067    0.00099274   -0.00609542
     atom    9 type  1   force =    -0.00118458   -0.00071035    0.00120961
     atom   10 type  1   force =    -0.00113897   -0.00068077    0.00117874
     atom   11 type  2   force =    -0.00124729   -0.00079025    0.00189841
     atom   12 type  2   force =    -0.00129485   -0.00071550    0.00189330

     Total force =     0.021119     Total SCF correction =     0.006393
     SCF correction compared to forces is large: reduce conv_thr to get better values

     Writing output data file ./Ti2Zn2/Ti2Zn2_beef.save/

     General routines

     Parallel routines

   This run was terminated on:   2:29:18  10Jul2022

   JOB DONE.