     Program PWSCF v.6.6 starts on 25Jun2022 at 18:18:23

     R & G space division:  proc/nbgrp/npool/nimage =      37
     Fft bands division:     nmany     =       1
     Reading input from Ti2Zr2.in
Warning: card &CELL ignored
Warning: card / ignored

     Current dimensions of program PWSCF are:
     Max number of different atomic species (ntypx) = 10
     Max number of k-points (npk) =  40000
     Max angular momentum in pseudopotentials (lmaxx) =  3
     Presently stress not available with electric field and gates

     Message from routine cell_base_init:
     DEPRECATED: use true lattice parameter, not A to a.u. conversion factor
     file Ti.pbe-spn-rrkjus_psl.1.0.0.UPF: wavefunction(s)  3S 3D renormalized
     file Zr.pbe-spn-rrkjus_psl.1.0.0.UPF: wavefunction(s)  4S renormalized

     IMPORTANT: XC functional enforced from input :
     Exchange-correlation= BEEF-VDW
                           (   1   4  43  14   2   0   0)
     Any further DFT definition will be discarded
     Please, verify this is what you really want

     Subspace diagonalization in iterative solution of the eigenvalue problem:
     a serial algorithm will be used

     bravais-lattice index     =            0
     lattice parameter (alat)  =       1.8897  a.u.
     unit-cell volume          =    5484.3728 (a.u.)^3
     number of atoms/cell      =           12
     number of atomic types    =            2
     number of electrons       =       144.00
     number of Kohn-Sham states=           86
     kinetic-energy cutoff     =      55.1240  Ry
     charge density cutoff     =     551.2396  Ry
     convergence threshold     =      1.0E-05
     mixing beta               =       0.1000
     number of iterations used =           10  plain     mixing
     Exchange-correlation= BEEF-VDW
                           (   1   4  43  14   2   0   0)

     celldm(1)=   1.889726  celldm(2)=   0.000000  celldm(3)=   0.000000
     celldm(4)=   0.000000  celldm(5)=   0.000000  celldm(6)=   0.000000

     crystal axes: (cart. coord. in units of alat)
               a(1) = (   6.079439   0.000000   0.000000 )
               a(2) = (   2.892025   5.347501   0.000000 )
               a(3) = (   0.000000   0.000000  24.998622 )

     reciprocal axes: (cart. coord. in units 2 pi/alat)
               b(1) = (  0.164489 -0.088959  0.000000 )
               b(2) = (  0.000000  0.187003  0.000000 )
               b(3) = (  0.000000  0.000000  0.040002 )

     PseudoPot. # 1 for Ti read from file:
     ../pseudo/Ti.pbe-spn-rrkjus_psl.1.0.0.UPF
     MD5 check sum: e281089c08e14b8efcf92e44a67ada65
     Pseudo is Ultrasoft + core correction, Zval = 12.0
     Generated using "atomic" code by A. Dal Corso v.6.2.2
     Using radial grid of 1177 points,  6 beta functions with:
                l(1) =   0
                l(2) =   0
                l(3) =   1
                l(4) =   1
                l(5) =   2
                l(6) =   2
     Q(r) pseudized with 0 coefficients

     PseudoPot. # 2 for Zr read from file:
     ../pseudo/Zr.pbe-spn-rrkjus_psl.1.0.0.UPF
     MD5 check sum: 3d17ee99aa1707c2ccb6b09ed65e51a1
     Pseudo is Ultrasoft + core correction, Zval = 12.0
     Generated using "atomic" code by A. Dal Corso v.6.2.2
     Using radial grid of 1225 points,  6 beta functions with:
                l(1) =   0
                l(2) =   0
                l(3) =   1
                l(4) =   1
                l(5) =   2
                l(6) =   2
     Q(r) pseudized with 0 coefficients

     atomic species   valence    mass     pseudopotential
        Ti            12.00    47.86700     Ti( 1.00)
        Zr            12.00    91.22400     Zr( 1.00)

     No symmetry found

   Cartesian axes

     site n.     atom                  positions (alat units)
         1           Ti  tau(   1) = (   0.0000000   0.0000000  10.0000000  )
         2           Ti  tau(   2) = (   4.4857318   2.6737503  10.0000000  )
         3           Zr  tau(   3) = (   3.0397193   0.0000000  10.0000000  )
         4           Zr  tau(   4) = (   1.4460126   2.6737503  10.0000000  )
         5           Ti  tau(   5) = (   6.0794385   3.6236898  12.4993111  )
         6           Ti  tau(   6) = (   1.5937067   0.9499395  12.4993111  )
         7           Zr  tau(   7) = (   3.0397193   3.6236898  12.4993111  )
         8           Zr  tau(   8) = (   4.6334259   0.9499395  12.4993111  )
         9           Ti  tau(   9) = (   3.1267557   1.8637227  14.8227456  )
        10           Ti  tau(  10) = (   7.6125163   4.5374940  14.8227474  )
        11           Zr  tau(  11) = (   6.2878268   1.9361113  14.9229633  )
        12           Zr  tau(  12) = (   4.6941634   4.6097801  14.9229643  )

     number of k points=    74  Fermi-Dirac smearing, width (Ry)=  0.0100
                       cart. coord. in units 2pi/alat
        k(    1) = (   0.0000000   0.0000000   0.0000000), wk =   0.0138889
        k(    2) = (   0.0000000   0.0155836   0.0000000), wk =   0.0277778
        k(    3) = (   0.0000000   0.0311672   0.0000000), wk =   0.0277778
        k(    4) = (   0.0000000   0.0467508   0.0000000), wk =   0.0277778
        k(    5) = (   0.0000000   0.0623344   0.0000000), wk =   0.0277778
        k(    6) = (   0.0000000   0.0779180   0.0000000), wk =   0.0277778
        k(    7) = (   0.0000000  -0.0935016   0.0000000), wk =   0.0138889
        k(    8) = (   0.0137074  -0.0074132   0.0000000), wk =   0.0277778
        k(    9) = (   0.0137074   0.0081704   0.0000000), wk =   0.0277778
        k(   10) = (   0.0137074   0.0237540   0.0000000), wk =   0.0277778
        k(   11) = (   0.0137074   0.0393376   0.0000000), wk =   0.0277778
        k(   12) = (   0.0137074   0.0549212   0.0000000), wk =   0.0277778
        k(   13) = (   0.0137074   0.0705048   0.0000000), wk =   0.0277778
        k(   14) = (   0.0137074  -0.1009148   0.0000000), wk =   0.0277778
        k(   15) = (   0.0137074  -0.0853312   0.0000000), wk =   0.0277778
        k(   16) = (   0.0137074  -0.0697476   0.0000000), wk =   0.0277778
        k(   17) = (   0.0137074  -0.0541640   0.0000000), wk =   0.0277778
        k(   18) = (   0.0137074  -0.0385804   0.0000000), wk =   0.0277778
        k(   19) = (   0.0137074  -0.0229968   0.0000000), wk =   0.0277778
        k(   20) = (   0.0274148  -0.0148264   0.0000000), wk =   0.0277778
        k(   21) = (   0.0274148   0.0007572   0.0000000), wk =   0.0277778
        k(   22) = (   0.0274148   0.0163408   0.0000000), wk =   0.0277778
        k(   23) = (   0.0274148   0.0319244   0.0000000), wk =   0.0277778
        k(   24) = (   0.0274148   0.0475080   0.0000000), wk =   0.0277778
        k(   25) = (   0.0274148   0.0630916   0.0000000), wk =   0.0277778
        k(   26) = (   0.0274148  -0.1083280   0.0000000), wk =   0.0277778
        k(   27) = (   0.0274148  -0.0927444   0.0000000), wk =   0.0277778
        k(   28) = (   0.0274148  -0.0771608   0.0000000), wk =   0.0277778
        k(   29) = (   0.0274148  -0.0615772   0.0000000), wk =   0.0277778
        k(   30) = (   0.0274148  -0.0459936   0.0000000), wk =   0.0277778
        k(   31) = (   0.0274148  -0.0304100   0.0000000), wk =   0.0277778
        k(   32) = (   0.0411222  -0.0222396   0.0000000), wk =   0.0277778
        k(   33) = (   0.0411222  -0.0066560   0.0000000), wk =   0.0277778
        k(   34) = (   0.0411222   0.0089276   0.0000000), wk =   0.0277778
        k(   35) = (   0.0411222   0.0245112   0.0000000), wk =   0.0277778
        k(   36) = (   0.0411222   0.0400948   0.0000000), wk =   0.0277778
        k(   37) = (   0.0411222   0.0556784   0.0000000), wk =   0.0277778
        k(   38) = (   0.0411222  -0.1157413   0.0000000), wk =   0.0277778
        k(   39) = (   0.0411222  -0.1001577   0.0000000), wk =   0.0277778
        k(   40) = (   0.0411222  -0.0845740   0.0000000), wk =   0.0277778
        k(   41) = (   0.0411222  -0.0689904   0.0000000), wk =   0.0277778
        k(   42) = (   0.0411222  -0.0534068   0.0000000), wk =   0.0277778
        k(   43) = (   0.0411222  -0.0378232   0.0000000), wk =   0.0277778
        k(   44) = (   0.0548296  -0.0296528   0.0000000), wk =   0.0277778
        k(   45) = (   0.0548296  -0.0140692   0.0000000), wk =   0.0277778
        k(   46) = (   0.0548296   0.0015144   0.0000000), wk =   0.0277778
        k(   47) = (   0.0548296   0.0170980   0.0000000), wk =   0.0277778
        k(   48) = (   0.0548296   0.0326816   0.0000000), wk =   0.0277778
        k(   49) = (   0.0548296   0.0482652   0.0000000), wk =   0.0277778
        k(   50) = (   0.0548296  -0.1231545   0.0000000), wk =   0.0277778
        k(   51) = (   0.0548296  -0.1075709   0.0000000), wk =   0.0277778
        k(   52) = (   0.0548296  -0.0919873   0.0000000), wk =   0.0277778
        k(   53) = (   0.0548296  -0.0764037   0.0000000), wk =   0.0277778
        k(   54) = (   0.0548296  -0.0608201   0.0000000), wk =   0.0277778
        k(   55) = (   0.0548296  -0.0452365   0.0000000), wk =   0.0277778
        k(   56) = (   0.0685370  -0.0370661   0.0000000), wk =   0.0277778
        k(   57) = (   0.0685370  -0.0214825   0.0000000), wk =   0.0277778
        k(   58) = (   0.0685370  -0.0058989   0.0000000), wk =   0.0277778
        k(   59) = (   0.0685370   0.0096847   0.0000000), wk =   0.0277778
        k(   60) = (   0.0685370   0.0252684   0.0000000), wk =   0.0277778
        k(   61) = (   0.0685370   0.0408520   0.0000000), wk =   0.0277778
        k(   62) = (   0.0685370  -0.1305677   0.0000000), wk =   0.0277778
        k(   63) = (   0.0685370  -0.1149841   0.0000000), wk =   0.0277778
        k(   64) = (   0.0685370  -0.0994005   0.0000000), wk =   0.0277778
        k(   65) = (   0.0685370  -0.0838169   0.0000000), wk =   0.0277778
        k(   66) = (   0.0685370  -0.0682333   0.0000000), wk =   0.0277778
        k(   67) = (   0.0685370  -0.0526497   0.0000000), wk =   0.0277778
        k(   68) = (  -0.0822444   0.0444793   0.0000000), wk =   0.0138889
        k(   69) = (  -0.0822444   0.0600629   0.0000000), wk =   0.0277778
        k(   70) = (  -0.0822444   0.0756465   0.0000000), wk =   0.0277778
        k(   71) = (  -0.0822444   0.0912301   0.0000000), wk =   0.0277778
        k(   72) = (  -0.0822444   0.1068137   0.0000000), wk =   0.0277778
        k(   73) = (  -0.0822444   0.1223973   0.0000000), wk =   0.0277778
        k(   74) = (  -0.0822444  -0.0490223   0.0000000), wk =   0.0138889

     Check: negative core charge=   -0.000001

     Initial potential from superposition of free atoms

     starting charge  143.97822, renormalised to  144.00000

     negative rho (up, down):  9.407E-04 0.000E+00

     %%%%%%%%%%%%%%%%%%%%%%%%%%%%%%%%%%%%%%%%%%%%%%%%%%%%%%%%%%%%%%%%%%%%%%%%
     %                                                                      %
     % You are using vdW-DF, which was implemented by the Thonhauser group. %
     % Please cite the following two papers that made this development      %
     % possible and the two reviews that describe the various versions:     %
     %                                                                      %
     %   T. Thonhauser et al., PRL 115, 136402 (2015).                      %
     %   T. Thonhauser et al., PRB 76, 125112 (2007).                       %
     %   K. Berland et al., Rep. Prog. Phys. 78, 066501 (2015).             %
     %   D.C. Langreth et al., J. Phys.: Condens. Matter 21, 084203 (2009). %
     %                                                                      %
     %                                                                      %
     % If you are calculating the stress with vdW-DF, please also cite:     %
     %                                                                      %
     %   R. Sabatini et al., J. Phys.: Condens. Matter 24, 424209 (2012).   %
     %                                                                      %
     %%%%%%%%%%%%%%%%%%%%%%%%%%%%%%%%%%%%%%%%%%%%%%%%%%%%%%%%%%%%%%%%%%%%%%%%

     Adding external electric field

     Computed dipole along edir(3) :
        Dipole                0.0001 Ry au,          0.0003 Debye
        Dipole field          0.0000 Ry au,

        Potential amp.       -0.0000 Ry
        Total length         46.0595 bohr

     Starting wfcs are  138 randomized atomic wfcs

     Self-consistent Calculation

     iteration #  1     ecut=    55.12 Ry     beta= 0.10
     Davidson diagonalization with overlap
     ethr =  1.00E-02,  avg # of iterations =  2.0

[...]

     total energy              =   -1321.07951483 Ry
     estimated scf accuracy    <      10.33064117 Ry

[...]

     iteration #  9     ecut=    55.12 Ry     beta= 0.10
     Davidson diagonalization with overlap
     c_bands:  1 eigenvalues not converged
     c_bands:  1 eigenvalues not converged
     c_bands:  1 eigenvalues not converged
     c_bands:  1 eigenvalues not converged
     c_bands:  1 eigenvalues not converged
     ethr =  3.21E-05,  avg # of iterations = 10.2

[...]

     iteration # 16     ecut=    55.12 Ry     beta= 0.10
     Davidson diagonalization with overlap
     c_bands:  1 eigenvalues not converged
     c_bands:  1 eigenvalues not converged
     c_bands:  1 eigenvalues not converged
     ethr =  5.17E-07,  avg # of iterations =  7.1

[...]

     total energy              =   -1322.22690367 Ry
     estimated scf accuracy    <       0.00001252 Ry

     iteration # 22     ecut=    55.12 Ry     beta= 0.10
     Davidson diagonalization with overlap
     ethr =  8.69E-09,  avg # of iterations =  5.2

[...]

     Adding external electric field

     Computed dipole along edir(3) :
        Dipole                0.0193 Ry au,          0.0491 Debye
        Dipole field          0.0000 Ry au,

        Potential amp.       -0.0041 Ry
        Total length         46.0595 bohr

     End of self-consistent calculation

          k = 0.0000 0.0000 0.0000 ( 37965 PWs)   bands (ev):

   -56.0810 -56.0636 -55.9942 -55.9764 -55.8618 -55.8443 -47.9488 -47.9300
   -47.8856 -47.8665 -47.5697 -47.5056 -32.3696 -32.3542 -32.3339 -32.3092
   -32.2953 -32.2855 -32.2822 -32.2616 -32.2411 -32.2180 -32.1866 -32.1398
   -32.1078 -32.1070 -32.0813 -32.0595 -32.0404 -31.9544 -26.2065 -26.1931
   -26.0549 -25.9830 -25.9732 -25.9192 -25.9052 -25.9004 -25.8647 -25.8579
   -25.8411 -25.5829 -25.5756 -25.5692 -25.5061 -25.4763 -25.4134 -25.2330
    -4.0841  -2.8535  -1.9107  -1.7107  -1.5502  -1.3832  -1.2358  -1.0974
    -1.0469  -0.9502  -0.8133  -0.6857  -0.6099  -0.5050  -0.4421   0.0221
     0.1590   0.3625   0.9657   1.0853   1.1943   1.3593   1.4929   1.5670
     1.5976   1.6645   1.6650   1.8021   1.8482   1.8606   1.9028   1.9519
     1.9893   2.0610   2.0798   2.2573   2.2912   2.3342

[...]

          k = 0.0685-0.0526 0.0000 ( 37900 PWs)   bands (ev):

[...]

          k =-0.0822 0.0445 0.0000 ( 37898 PWs)   bands (ev):

[...]

          k =-0.0822-0.0490 0.0000 ( 37874 PWs)   bands (ev):

   -56.0809 -56.0636 -55.9941 -55.9764 -55.8617 -55.8443 -47.9494 -47.9306
   -47.8858 -47.8667 -47.5704 -47.5055 -32.3651 -32.3517 -32.3327 -32.3015
   -32.2906 -32.2821 -32.2787 -32.2597 -32.2323 -32.2135 -32.1862 -32.1357
   -32.1073 -32.0999 -32.0803 -32.0581 -32.0406 -31.9542 -26.2190 -26.2033
   -26.0751 -25.9922 -25.9616 -25.9477 -25.9266 -25.8944 -25.8741 -25.8675
   -25.8512 -25.5848 -25.5818 -25.5710 -25.5131 -25.4807 -25.4155 -25.2346
    -2.5832  -2.5002  -1.6435  -1.3674  -0.9194  -0.9044  -0.8875  -0.7027
    -0.6021  -0.2810  -0.2457  -0.0094   0.1046   0.1911   0.2528   0.4123
     0.4198   0.4338   0.5726   0.5835   0.7271   0.7703   0.9199   0.9389
     0.9558   0.9897   0.9968   1.0977   1.2092   1.3034   1.4719   1.5112
     1.6261   1.7373   1.8306   2.0922   2.1013   2.1533

     the Fermi energy is     1.0896 ev

!    total energy              =   -1322.22686105 Ry
     estimated scf accuracy    <       0.00000156 Ry
     smearing contrib. (-TS)   =      -0.10783488 Ry
     internal energy E=F+TS    =   -1322.11902617 Ry

     The total energy is F=E-TS. E is the sum of the following terms:
     one-electron contribution =   -9473.91567245 Ry
     hartree contribution      =    4725.16140184 Ry
     xc contribution           =    -227.07468321 Ry
     ewald contribution        =    3653.70992680 Ry
     electric field correction =       0.00000085 Ry

     convergence has been achieved in  22 iterations

     negative rho (up, down):  7.466E-04 0.000E+00

     Forces acting on atoms (cartesian axes, Ry/au):

     atom    1 type  1   force =     0.00736785    0.00439291    0.01398025
     atom    2 type  1   force =     0.00736821    0.00438960    0.01398725
     atom    3 type  2   force =    -0.00870462   -0.00518630    0.00483871
     atom    4 type  2   force =    -0.00870415   -0.00519037    0.00483754
     atom    5 type  1   force =    -0.00002641   -0.00001515   -0.00896554
     atom    6 type  1   force =    -0.00004250   -0.00002613   -0.00897010
     atom    7 type  2   force =     0.00290153    0.00175688   -0.01054313
     atom    8 type  2   force =     0.00292572    0.00171590   -0.01054510
     atom    9 type  1   force =    -0.00006173   -0.00003647    0.00085913
     atom   10 type  1   force =    -0.00006646   -0.00003895    0.00084277
     atom   11 type  2   force =    -0.00147679   -0.00088740   -0.00016082
     atom   12 type  2   force =    -0.00148064   -0.00087451   -0.00016095

     Total force =     0.034700     Total SCF correction =     0.003743
     SCF correction compared to forces is large: reduce conv_thr to get better values

     Writing output data file ./Ti2Zr2/Ti2Zr2_beef.save/

     General routines

     Parallel routines

   This run was terminated on:  19:29:29  25Jun2022

   JOB DONE.