     Program PWSCF v.6.6 starts on 25Jun2022 at  3:36: 6

     R & G space division:  proc/nbgrp/npool/nimage =      37
     Fft bands division:     nmany     =       1
     Reading input from V2Au2.in
Warning: card &CELL ignored
Warning: card / ignored

     Current dimensions of program PWSCF are:
     Max number of different atomic species (ntypx) = 10
     Max number of k-points (npk) =  40000
     Max angular momentum in pseudopotentials (lmaxx) =  3
     Presently stress not available with electric field and gates

     Message from routine cell_base_init:
     DEPRECATED: use true lattice parameter, not A to a.u. conversion factor
     file V.pbe-spnl-rrkjus_psl.1.0.0.UPF: wavefunction(s)  3P 3D renormalized

     IMPORTANT: XC functional enforced from input :
     Exchange-correlation= BEEF-VDW
                           (   1   4  43  14   2   0   0)
     Any further DFT definition will be discarded
     Please, verify this is what you really want

     Subspace diagonalization in iterative solution of the eigenvalue problem:
     a serial algorithm will be used

     bravais-lattice index     =            0
     lattice parameter (alat)  =       1.8897  a.u.
     unit-cell volume          =    4548.0062 (a.u.)^3
     number of atoms/cell      =           12
     number of atomic types    =            2
     number of electrons       =       144.00
     number of Kohn-Sham states=           86
     kinetic-energy cutoff     =      55.1240  Ry
     charge density cutoff     =     551.2396  Ry
     convergence threshold     =      1.0E-05
     mixing beta               =       0.1000
     number of iterations used =           10  plain     mixing
     Exchange-correlation= BEEF-VDW
                           (   1   4  43  14   2   0   0)

     celldm(1)=   1.889726  celldm(2)=   0.000000  celldm(3)=   0.000000
     celldm(4)=   0.000000  celldm(5)=   0.000000  celldm(6)=   0.000000

     crystal axes: (cart. coord. in units of alat)
               a(1) = (   5.525924   0.000000   0.000000 )
               a(2) = (  -2.762962   4.959938   0.000000 )
               a(3) = (   0.000000   0.000000  24.589142 )

     reciprocal axes: (cart. coord. in units 2 pi/alat)
               b(1) = (  0.180965  0.100808 -0.000000 )
               b(2) = (  0.000000  0.201615  0.000000 )
               b(3) = (  0.000000 -0.000000  0.040668 )

     PseudoPot. # 1 for V  read from file:
     ../pseudo/V.pbe-spnl-rrkjus_psl.1.0.0.UPF
     MD5 check sum: 79b3eb63147daf0b665d9f1bcc691206
     Pseudo is Ultrasoft + core correction, Zval = 13.0
     Generated using "atomic" code by A. Dal Corso v.6.2.2
     Using radial grid of 1181 points,  6 beta functions with:
                l(1) =   0
                l(2) =   0
                l(3) =   1
                l(4) =   1
                l(5) =   2
                l(6) =   2
     Q(r) pseudized with 0 coefficients

     PseudoPot. # 2 for Au read from file:
     ../pseudo/Au.pbe-n-rrkjus_psl.1.0.0.UPF
     MD5 check sum: d7e77ba19504afed2c9b41c931dde4f0
     Pseudo is Ultrasoft + core correction, Zval = 11.0
     Generated using "atomic" code by A. Dal Corso v.6.3
     Using radial grid of 1279 points,  6 beta functions with:
                l(1) =   0
                l(2) =   0
                l(3) =   1
                l(4) =   1
                l(5) =   2
                l(6) =   2
     Q(r) pseudized with 0 coefficients

     atomic species   valence    mass     pseudopotential
        V             13.00    50.94150     V ( 1.00)
        Au            11.00   196.96657     Au( 1.00)

     No symmetry found

   Cartesian axes

     site n.     atom                  positions (alat units)
         1           V   tau(   1) = (   0.0000000   0.0000000  10.0000000  )
         2           V   tau(   2) = (   2.7629619   0.0000000  10.0000000  )
         3           Au  tau(   3) = (   1.3814810   2.4799688  10.0000000  )
         4           Au  tau(   4) = (  -1.3814810   2.4799688  10.0000000  )
         5           V   tau(   5) = (   2.7629619   1.5391239  12.2945710  )
         6           V   tau(   6) = (  -0.0000000   1.5391239  12.2945710  )
         7           Au  tau(   7) = (  -1.3814810   4.0190927  12.2945710  )
         8           Au  tau(   8) = (   1.3814810   4.0190927  12.2945710  )
         9           V   tau(   9) = (   0.0001498   2.9779384  14.3922607  )
        10           V   tau(  10) = (   2.7631054   2.9780621  14.3922828  )
        11           Au  tau(  11) = (   4.1446338   0.6134671  14.6881332  )
        12           Au  tau(  12) = (   1.3812645   0.6134716  14.6881349  )

     number of k points=    74  Fermi-Dirac smearing, width (Ry)=  0.0100
                       cart. coord. in units 2pi/alat
        k(    1) = (   0.0000000   0.0000000   0.0000000), wk =   0.0138889
        k(    2) = (   0.0000000   0.0168013   0.0000000), wk =   0.0277778
        k(    3) = (   0.0000000   0.0336026   0.0000000), wk =   0.0277778
        k(    4) = (   0.0000000   0.0504039   0.0000000), wk =   0.0277778
        k(    5) = (   0.0000000   0.0672051   0.0000000), wk =   0.0277778
        k(    6) = (   0.0000000   0.0840064   0.0000000), wk =   0.0277778
        k(    7) = (   0.0000000  -0.1008077   0.0000000), wk =   0.0138889
        k(    8) = (   0.0150804   0.0084006   0.0000000), wk =   0.0277778
        k(    9) = (   0.0150804   0.0252019   0.0000000), wk =   0.0277778
        k(   10) = (   0.0150804   0.0420032   0.0000000), wk =   0.0277778
        k(   11) = (   0.0150804   0.0588045   0.0000000), wk =   0.0277778
        k(   12) = (   0.0150804   0.0756058   0.0000000), wk =   0.0277778
        k(   13) = (   0.0150804   0.0924071   0.0000000), wk =   0.0277778
        k(   14) = (   0.0150804  -0.0924071   0.0000000), wk =   0.0277778
        k(   15) = (   0.0150804  -0.0756058   0.0000000), wk =   0.0277778
        k(   16) = (   0.0150804  -0.0588045   0.0000000), wk =   0.0277778
        k(   17) = (   0.0150804  -0.0420032   0.0000000), wk =   0.0277778
        k(   18) = (   0.0150804  -0.0252019   0.0000000), wk =   0.0277778
        k(   19) = (   0.0150804  -0.0084006   0.0000000), wk =   0.0277778
        k(   20) = (   0.0301609   0.0168013   0.0000000), wk =   0.0277778
        k(   21) = (   0.0301609   0.0336026   0.0000000), wk =   0.0277778
        k(   22) = (   0.0301609   0.0504039   0.0000000), wk =   0.0277778
        k(   23) = (   0.0301609   0.0672051   0.0000000), wk =   0.0277778
        k(   24) = (   0.0301609   0.0840064   0.0000000), wk =   0.0277778
        k(   25) = (   0.0301609   0.1008077   0.0000000), wk =   0.0277778
        k(   26) = (   0.0301609  -0.0840064   0.0000000), wk =   0.0277778
        k(   27) = (   0.0301609  -0.0672051   0.0000000), wk =   0.0277778
        k(   28) = (   0.0301609  -0.0504039   0.0000000), wk =   0.0277778
        k(   29) = (   0.0301609  -0.0336026   0.0000000), wk =   0.0277778
        k(   30) = (   0.0301609  -0.0168013   0.0000000), wk =   0.0277778
        k(   31) = (   0.0301609  -0.0000000   0.0000000), wk =   0.0277778
        k(   32) = (   0.0452413   0.0252019   0.0000000), wk =   0.0277778
        k(   33) = (   0.0452413   0.0420032   0.0000000), wk =   0.0277778
        k(   34) = (   0.0452413   0.0588045   0.0000000), wk =   0.0277778
        k(   35) = (   0.0452413   0.0756058   0.0000000), wk =   0.0277778
        k(   36) = (   0.0452413   0.0924071   0.0000000), wk =   0.0277778
        k(   37) = (   0.0452413   0.1092084   0.0000000), wk =   0.0277778
        k(   38) = (   0.0452413  -0.0756058   0.0000000), wk =   0.0277778
        k(   39) = (   0.0452413  -0.0588045   0.0000000), wk =   0.0277778
        k(   40) = (   0.0452413  -0.0420032   0.0000000), wk =   0.0277778
        k(   41) = (   0.0452413  -0.0252019   0.0000000), wk =   0.0277778
        k(   42) = (   0.0452413  -0.0084006   0.0000000), wk =   0.0277778
        k(   43) = (   0.0452413   0.0084006   0.0000000), wk =   0.0277778
        k(   44) = (   0.0603217   0.0336026   0.0000000), wk =   0.0277778
        k(   45) = (   0.0603217   0.0504039   0.0000000), wk =   0.0277778
        k(   46) = (   0.0603217   0.0672051   0.0000000), wk =   0.0277778
        k(   47) = (   0.0603217   0.0840064   0.0000000), wk =   0.0277778
        k(   48) = (   0.0603217   0.1008077   0.0000000), wk =   0.0277778
        k(   49) = (   0.0603217   0.1176090   0.0000000), wk =   0.0277778
        k(   50) = (   0.0603217  -0.0672051   0.0000000), wk =   0.0277778
        k(   51) = (   0.0603217  -0.0504039   0.0000000), wk =   0.0277778
        k(   52) = (   0.0603217  -0.0336026   0.0000000), wk =   0.0277778
        k(   53) = (   0.0603217  -0.0168013   0.0000000), wk =   0.0277778
        k(   54) = (   0.0603217   0.0000000   0.0000000), wk =   0.0277778
        k(   55) = (   0.0603217   0.0168013   0.0000000), wk =   0.0277778
        k(   56) = (   0.0754022   0.0420032   0.0000000), wk =   0.0277778
        k(   57) = (   0.0754022   0.0588045   0.0000000), wk =   0.0277778
        k(   58) = (   0.0754022   0.0756058   0.0000000), wk =   0.0277778
        k(   59) = (   0.0754022   0.0924071   0.0000000), wk =   0.0277778
        k(   60) = (   0.0754022   0.1092084   0.0000000), wk =   0.0277778
        k(   61) = (   0.0754022   0.1260096   0.0000000), wk =   0.0277778
        k(   62) = (   0.0754022  -0.0588045   0.0000000), wk =   0.0277778
        k(   63) = (   0.0754022  -0.0420032   0.0000000), wk =   0.0277778
        k(   64) = (   0.0754022  -0.0252019   0.0000000), wk =   0.0277778
        k(   65) = (   0.0754022  -0.0084006   0.0000000), wk =   0.0277778
        k(   66) = (   0.0754022   0.0084006   0.0000000), wk =   0.0277778
        k(   67) = (   0.0754022   0.0252019   0.0000000), wk =   0.0277778
        k(   68) = (  -0.0904826  -0.0504039   0.0000000), wk =   0.0138889
        k(   69) = (  -0.0904826  -0.0336026   0.0000000), wk =   0.0277778
        k(   70) = (  -0.0904826  -0.0168013   0.0000000), wk =   0.0277778
        k(   71) = (  -0.0904826   0.0000000   0.0000000), wk =   0.0277778
        k(   72) = (  -0.0904826   0.0168013   0.0000000), wk =   0.0277778
        k(   73) = (  -0.0904826   0.0336026   0.0000000), wk =   0.0277778
        k(   74) = (  -0.0904826  -0.1512116   0.0000000), wk =   0.0138889

     Initial potential from superposition of free atoms

     starting charge  143.99389, renormalised to  144.00000

     negative rho (up, down):  1.395E-03 0.000E+00

     %%%%%%%%%%%%%%%%%%%%%%%%%%%%%%%%%%%%%%%%%%%%%%%%%%%%%%%%%%%%%%%%%%%%%%%%
     %                                                                      %
     % You are using vdW-DF, which was implemented by the Thonhauser group. %
     % Please cite the following two papers that made this development      %
     % possible and the two reviews that describe the various versions:     %
     %                                                                      %
     %   T. Thonhauser et al., PRL 115, 136402 (2015).                      %
     %   T. Thonhauser et al., PRB 76, 125112 (2007).                       %
     %   K. Berland et al., Rep. Prog. Phys. 78, 066501 (2015).             %
     %   D.C. Langreth et al., J. Phys.: Condens. Matter 21, 084203 (2009). %
     %                                                                      %
     %                                                                      %
     % If you are calculating the stress with vdW-DF, please also cite:     %
     %                                                                      %
     %   R. Sabatini et al., J. Phys.: Condens. Matter 24, 424209 (2012).   %
     %                                                                      %
     %%%%%%%%%%%%%%%%%%%%%%%%%%%%%%%%%%%%%%%%%%%%%%%%%%%%%%%%%%%%%%%%%%%%%%%%

     Adding external electric field

     Computed dipole along edir(3) :
        Dipole               -0.0004 Ry au,         -0.0010 Debye
        Dipole field         -0.0000 Ry au,

        Potential amp.        0.0001 Ry
        Total length         45.3051 bohr

     Starting wfcs are  114 randomized atomic wfcs

     Self-consistent Calculation

     iteration #  1     ecut=    55.12 Ry     beta= 0.10
     Davidson diagonalization with overlap
     ethr =  1.00E-02,  avg # of iterations =  2.0

[...]

     total energy              =   -1395.16835131 Ry
     estimated scf accuracy    <       9.79088308 Ry

[...]

     iteration #  8     ecut=    55.12 Ry     beta= 0.10
     Davidson diagonalization with overlap
     c_bands:  1 eigenvalues not converged
     ethr =  3.82E-04,  avg # of iterations = 11.1

[...]

     iteration # 27     ecut=    55.12 Ry     beta= 0.10
     Davidson diagonalization with overlap
     ethr =  2.21E-08,  avg # of iterations =  2.3

[...]

     total energy              =   -1396.25284914 Ry
     estimated scf accuracy    <       0.00001287 Ry

     iteration # 28     ecut=    55.12 Ry     beta= 0.10
     Davidson diagonalization with overlap
     c_bands:  1 eigenvalues not converged
     c_bands:  2 eigenvalues not converged
     ethr =  8.93E-09,  avg # of iterations =  8.6

[...]

     Adding external electric field

     Computed dipole along edir(3) :
        Dipole               -0.0617 Ry au,         -0.1567 Debye
        Dipole field         -0.0002 Ry au,

        Potential amp.        0.0154 Ry
        Total length         45.3051 bohr

     End of self-consistent calculation

          k = 0.0000 0.0000 0.0000 ( 31483 PWs)   bands (ev):

   -63.6420 -63.6030 -63.5853 -63.5453 -63.5342 -63.4954 -37.5782 -37.5419
   -37.5283 -37.5027 -37.4947 -37.4893 -37.4670 -37.4610 -37.4322 -37.4237
   -37.3997 -37.3958 -37.3702 -37.1586 -37.1083 -37.0775 -37.0701 -37.0392
    -7.4059  -6.0220  -5.8674  -5.7242  -5.5135  -5.4429  -5.2371  -5.0864
    -5.0147  -4.9245  -4.8011  -4.6838  -4.6837  -4.3585  -4.3153  -3.8431
    -3.7712  -3.6869  -3.6596  -3.5650  -3.4274  -3.2987  -3.1412  -3.1394
    -3.0898  -2.9014  -2.8449  -2.6219  -2.5115  -2.2111  -1.9725  -1.3327
    -1.2446  -0.4575  -0.2246  -0.0970   0.1028   0.1682   0.2451   0.2560
     0.2975   0.3310   0.3588   0.6865   0.7306   0.9158   1.0969   1.1904
     1.1927   1.3952   1.5867   1.6247   1.8707   1.8852   1.9074   2.0120
     2.0738   2.1968   2.2363   2.3286   2.4301   2.5721

[...]

          k = 0.0754 0.0252 0.0000 ( 31406 PWs)   bands (ev):

[...]

          k =-0.0905-0.0504 0.0000 ( 31450 PWs)   bands (ev):

[...]

          k =-0.0905-0.1512 0.0000 ( 31450 PWs)   bands (ev):

   -63.6226 -63.6224 -63.5653 -63.5653 -63.5148 -63.5148 -37.5606 -37.5605
   -37.5096 -37.5095 -37.4858 -37.4856 -37.4427 -37.4427 -37.4148 -37.4148
   -37.3285 -37.3282 -37.2367 -37.2365 -37.2066 -37.2065 -37.0930 -37.0930
    -5.7812  -5.7810  -4.9684  -4.9681  -4.7377  -4.7376  -4.7261  -4.7261
    -4.4320  -4.4319  -4.3553  -4.3551  -4.1008  -4.1005  -3.8953  -3.8947
    -3.7099  -3.7097  -3.6656  -3.6650  -3.5538  -3.5537  -3.4566  -3.4557
    -3.3725  -3.3722  -3.3073  -3.3068  -3.0696  -3.0689  -2.9578  -2.9575
    -2.8173  -2.8171  -0.9984  -0.9983  -0.4845  -0.4844   0.0047   0.0047
     0.2739   0.2740   0.5179   0.5179   0.8768   0.8768   1.0254   1.0255
     1.1657   1.1658   1.2648   1.2650   1.2803   1.2804   1.4313   1.4314
     1.5826   1.5828   2.1375   2.1381   2.2427   2.2430

     the Fermi energy is     0.9893 ev

!    total energy              =   -1396.25342048 Ry
     estimated scf accuracy    <       0.00000431 Ry
     smearing contrib. (-TS)   =      -0.07859203 Ry
     internal energy E=F+TS    =   -1396.17482845 Ry

     The total energy is F=E-TS. E is the sum of the following terms:
     one-electron contribution =  -11347.66686357 Ry
     hartree contribution      =    5709.52430850 Ry
     xc contribution           =    -325.56705528 Ry
     ewald contribution        =    4567.53477139 Ry
     electric field correction =       0.00001050 Ry

     convergence has been achieved in  28 iterations

     negative rho (up, down):  1.982E-03 0.000E+00

     Forces acting on atoms (cartesian axes, Ry/au):

     atom    1 type  1   force =    -0.00000398    0.01513727    0.02708872
     atom    2 type  1   force =    -0.00000250    0.01511878    0.02710085
     atom    3 type  2   force =     0.00001841   -0.02473432   -0.03114749
     atom    4 type  2   force =    -0.00001418   -0.02473458   -0.03113532
     atom    5 type  1   force =    -0.00000980   -0.00569961    0.00121387
     atom    6 type  1   force =     0.00000503   -0.00573266    0.00114240
     atom    7 type  2   force =     0.00006873    0.01533994   -0.00396961
     atom    8 type  2   force =    -0.00005409    0.01535785   -0.00395653
     atom    9 type  1   force =    -0.00002055    0.00009844    0.00207503
     atom   10 type  1   force =    -0.00000475    0.00002837    0.00202415
     atom   11 type  2   force =    -0.00014463   -0.00009931    0.00478116
     atom   12 type  2   force =     0.00016230   -0.00008018    0.00478275

     Total force =     0.075591     Total SCF correction =     0.006517

     Writing output data file ./V2Au2/V2Au2_beef.save/

     General routines

     Parallel routines

   This run was terminated on:   5: 5:58  25Jun2022

   JOB DONE.