     Program PWSCF v.6.6 starts on 25Jun2022 at  5: 6: 0

     R & G space division:  proc/nbgrp/npool/nimage =      37
     Fft bands division:     nmany     =       1
     Reading input from V2Cd2.in
Warning: card &CELL ignored
Warning: card / ignored

     Current dimensions of program PWSCF are:
     Max number of different atomic species (ntypx) = 10
     Max number of k-points (npk) =  40000
     Max angular momentum in pseudopotentials (lmaxx) =  3
     Presently stress not available with electric field and gates

     Message from routine cell_base_init:
     DEPRECATED: use true lattice parameter, not A to a.u. conversion factor
     file V.pbe-spnl-rrkjus_psl.1.0.0.UPF: wavefunction(s)  3P 3D renormalized
     file Cd.pbe-n-rrkjus_psl.1.0.0.UPF: wavefunction(s)  4D renormalized

     IMPORTANT: XC functional enforced from input :
     Exchange-correlation= BEEF-VDW
                           (   1   4  43  14   2   0   0)
     Any further DFT definition will be discarded
     Please, verify this is what you really want

     Subspace diagonalization in iterative solution of the eigenvalue problem:
     a serial algorithm will be used

     bravais-lattice index     =            0
     lattice parameter (alat)  =       1.8897  a.u.
     unit-cell volume          =    4850.4352 (a.u.)^3
     number of atoms/cell      =           12
     number of atomic types    =            2
     number of electrons       =       150.00
     number of Kohn-Sham states=           90
     kinetic-energy cutoff     =      55.1240  Ry
     charge density cutoff     =     551.2396  Ry
     convergence threshold     =      1.0E-05
     mixing beta               =       0.1000
     number of iterations used =           10  plain     mixing
     Exchange-correlation= BEEF-VDW
                           (   1   4  43  14   2   0   0)

     celldm(1)=   1.889726  celldm(2)=   0.000000  celldm(3)=   0.000000
     celldm(4)=   0.000000  celldm(5)=   0.000000  celldm(6)=   0.000000

     crystal axes: (cart. coord. in units of alat)
               a(1) = (   5.535126   0.000000   0.000000 )
               a(2) = (  -2.767563   5.256058   0.000000 )
               a(3) = (   0.000000   0.000000  24.705664 )

     reciprocal axes: (cart. coord. in units 2 pi/alat)
               b(1) = (  0.180664  0.095128 -0.000000 )
               b(2) = (  0.000000  0.190257  0.000000 )
               b(3) = (  0.000000 -0.000000  0.040477 )

     PseudoPot. # 1 for V  read from file:
     ../pseudo/V.pbe-spnl-rrkjus_psl.1.0.0.UPF
     MD5 check sum: 79b3eb63147daf0b665d9f1bcc691206
     Pseudo is Ultrasoft + core correction, Zval = 13.0
     Generated using "atomic" code by A. Dal Corso v.6.2.2
     Using radial grid of 1181 points,  6 beta functions with:
                l(1) =   0
                l(2) =   0
                l(3) =   1
                l(4) =   1
                l(5) =   2
                l(6) =   2
     Q(r) pseudized with 0 coefficients

     PseudoPot. # 2 for Cd read from file:
     ../pseudo/Cd.pbe-n-rrkjus_psl.1.0.0.UPF
     MD5 check sum: a744746c89d2344a134ead0d8ab94e7a
     Pseudo is Ultrasoft + core correction, Zval = 12.0
     Generated using "atomic" code by A. Dal Corso v.6.3
     Using radial grid of 1239 points,  6 beta functions with:
                l(1) =   0
                l(2) =   0
                l(3) =   1
                l(4) =   1
                l(5) =   2
                l(6) =   2
     Q(r) pseudized with 0 coefficients

     atomic species   valence    mass     pseudopotential
        V             13.00    50.94150     V ( 1.00)
        Cd            12.00   112.41400     Cd( 1.00)

     No symmetry found

   Cartesian axes

     site n.     atom                  positions (alat units)
         1           V   tau(   1) = (   0.0000000   0.0000000  10.0000000  )
         2           V   tau(   2) = (   2.7675629   0.0000000  10.0000000  )
         3           Cd  tau(   3) = (   1.3837814   2.6280290  10.0000000  )
         4           Cd  tau(   4) = (  -1.3837814   2.6280290  10.0000000  )
         5           V   tau(   5) = (   2.7675629   1.4572526  12.3528322  )
         6           V   tau(   6) = (   0.0000000   1.4572526  12.3528322  )
         7           Cd  tau(   7) = (  -1.3837814   4.0852816  12.3528322  )
         8           Cd  tau(   8) = (   1.3837814   4.0852816  12.3528322  )
         9           V   tau(   9) = (   0.0000406   2.4429081  14.3774646  )
        10           V   tau(  10) = (   2.7676073   2.4431458  14.3774345  )
        11           Cd  tau(  11) = (   1.3845741   5.1956742  15.0745688  )
        12           Cd  tau(  12) = (  -1.3845525   5.1956742  15.0745849  )

     number of k points=    74  Fermi-Dirac smearing, width (Ry)=  0.0100
                       cart. coord. in units 2pi/alat
        k(    1) = (   0.0000000   0.0000000   0.0000000), wk =   0.0138889
        k(    2) = (   0.0000000   0.0158547   0.0000000), wk =   0.0277778
        k(    3) = (   0.0000000   0.0317094   0.0000000), wk =   0.0277778
        k(    4) = (   0.0000000   0.0475642   0.0000000), wk =   0.0277778
        k(    5) = (   0.0000000   0.0634189   0.0000000), wk =   0.0277778
        k(    6) = (   0.0000000   0.0792736   0.0000000), wk =   0.0277778
        k(    7) = (   0.0000000  -0.0951283   0.0000000), wk =   0.0138889
        k(    8) = (   0.0150554   0.0079274   0.0000000), wk =   0.0277778
        k(    9) = (   0.0150554   0.0237821   0.0000000), wk =   0.0277778
        k(   10) = (   0.0150554   0.0396368   0.0000000), wk =   0.0277778
        k(   11) = (   0.0150554   0.0554915   0.0000000), wk =   0.0277778
        k(   12) = (   0.0150554   0.0713462   0.0000000), wk =   0.0277778
        k(   13) = (   0.0150554   0.0872010   0.0000000), wk =   0.0277778
        k(   14) = (   0.0150554  -0.0872010   0.0000000), wk =   0.0277778
        k(   15) = (   0.0150554  -0.0713462   0.0000000), wk =   0.0277778
        k(   16) = (   0.0150554  -0.0554915   0.0000000), wk =   0.0277778
        k(   17) = (   0.0150554  -0.0396368   0.0000000), wk =   0.0277778
        k(   18) = (   0.0150554  -0.0237821   0.0000000), wk =   0.0277778
        k(   19) = (   0.0150554  -0.0079274   0.0000000), wk =   0.0277778
        k(   20) = (   0.0301107   0.0158547   0.0000000), wk =   0.0277778
        k(   21) = (   0.0301107   0.0317094   0.0000000), wk =   0.0277778
        k(   22) = (   0.0301107   0.0475642   0.0000000), wk =   0.0277778
        k(   23) = (   0.0301107   0.0634189   0.0000000), wk =   0.0277778
        k(   24) = (   0.0301107   0.0792736   0.0000000), wk =   0.0277778
        k(   25) = (   0.0301107   0.0951283   0.0000000), wk =   0.0277778
        k(   26) = (   0.0301107  -0.0792736   0.0000000), wk =   0.0277778
        k(   27) = (   0.0301107  -0.0634189   0.0000000), wk =   0.0277778
        k(   28) = (   0.0301107  -0.0475642   0.0000000), wk =   0.0277778
        k(   29) = (   0.0301107  -0.0317094   0.0000000), wk =   0.0277778
        k(   30) = (   0.0301107  -0.0158547   0.0000000), wk =   0.0277778
        k(   31) = (   0.0301107  -0.0000000   0.0000000), wk =   0.0277778
        k(   32) = (   0.0451661   0.0237821   0.0000000), wk =   0.0277778
        k(   33) = (   0.0451661   0.0396368   0.0000000), wk =   0.0277778
        k(   34) = (   0.0451661   0.0554915   0.0000000), wk =   0.0277778
        k(   35) = (   0.0451661   0.0713462   0.0000000), wk =   0.0277778
        k(   36) = (   0.0451661   0.0872010   0.0000000), wk =   0.0277778
        k(   37) = (   0.0451661   0.1030557   0.0000000), wk =   0.0277778
        k(   38) = (   0.0451661  -0.0713462   0.0000000), wk =   0.0277778
        k(   39) = (   0.0451661  -0.0554915   0.0000000), wk =   0.0277778
        k(   40) = (   0.0451661  -0.0396368   0.0000000), wk =   0.0277778
        k(   41) = (   0.0451661  -0.0237821   0.0000000), wk =   0.0277778
        k(   42) = (   0.0451661  -0.0079274   0.0000000), wk =   0.0277778
        k(   43) = (   0.0451661   0.0079274   0.0000000), wk =   0.0277778
        k(   44) = (   0.0602215   0.0317094   0.0000000), wk =   0.0277778
        k(   45) = (   0.0602215   0.0475642   0.0000000), wk =   0.0277778
        k(   46) = (   0.0602215   0.0634189   0.0000000), wk =   0.0277778
        k(   47) = (   0.0602215   0.0792736   0.0000000), wk =   0.0277778
        k(   48) = (   0.0602215   0.0951283   0.0000000), wk =   0.0277778
        k(   49) = (   0.0602215   0.1109830   0.0000000), wk =   0.0277778
        k(   50) = (   0.0602215  -0.0634189   0.0000000), wk =   0.0277778
        k(   51) = (   0.0602215  -0.0475642   0.0000000), wk =   0.0277778
        k(   52) = (   0.0602215  -0.0317094   0.0000000), wk =   0.0277778
        k(   53) = (   0.0602215  -0.0158547   0.0000000), wk =   0.0277778
        k(   54) = (   0.0602215   0.0000000   0.0000000), wk =   0.0277778
        k(   55) = (   0.0602215   0.0158547   0.0000000), wk =   0.0277778
        k(   56) = (   0.0752768   0.0396368   0.0000000), wk =   0.0277778
        k(   57) = (   0.0752768   0.0554915   0.0000000), wk =   0.0277778
        k(   58) = (   0.0752768   0.0713462   0.0000000), wk =   0.0277778
        k(   59) = (   0.0752768   0.0872010   0.0000000), wk =   0.0277778
        k(   60) = (   0.0752768   0.1030557   0.0000000), wk =   0.0277778
        k(   61) = (   0.0752768   0.1189104   0.0000000), wk =   0.0277778
        k(   62) = (   0.0752768  -0.0554915   0.0000000), wk =   0.0277778
        k(   63) = (   0.0752768  -0.0396368   0.0000000), wk =   0.0277778
        k(   64) = (   0.0752768  -0.0237821   0.0000000), wk =   0.0277778
        k(   65) = (   0.0752768  -0.0079274   0.0000000), wk =   0.0277778
        k(   66) = (   0.0752768   0.0079274   0.0000000), wk =   0.0277778
        k(   67) = (   0.0752768   0.0237821   0.0000000), wk =   0.0277778
        k(   68) = (  -0.0903322  -0.0475642   0.0000000), wk =   0.0138889
        k(   69) = (  -0.0903322  -0.0317094   0.0000000), wk =   0.0277778
        k(   70) = (  -0.0903322  -0.0158547   0.0000000), wk =   0.0277778
        k(   71) = (  -0.0903322   0.0000000   0.0000000), wk =   0.0277778
        k(   72) = (  -0.0903322   0.0158547   0.0000000), wk =   0.0277778
        k(   73) = (  -0.0903322   0.0317094   0.0000000), wk =   0.0277778
        k(   74) = (  -0.0903322  -0.1426925   0.0000000), wk =   0.0138889

     Initial potential from superposition of free atoms

     starting charge  149.96525, renormalised to  150.00000

     negative rho (up, down):  2.861E-03 0.000E+00

     %%%%%%%%%%%%%%%%%%%%%%%%%%%%%%%%%%%%%%%%%%%%%%%%%%%%%%%%%%%%%%%%%%%%%%%%
     %                                                                      %
     % You are using vdW-DF, which was implemented by the Thonhauser group. %
     % Please cite the following two papers that made this development      %
     % possible and the two reviews that describe the various versions:     %
     %                                                                      %
     %   T. Thonhauser et al., PRL 115, 136402 (2015).                      %
     %   T. Thonhauser et al., PRB 76, 125112 (2007).                       %
     %   K. Berland et al., Rep. Prog. Phys. 78, 066501 (2015).             %
     %   D.C. Langreth et al., J. Phys.: Condens. Matter 21, 084203 (2009). %
     %                                                                      %
     %                                                                      %
     % If you are calculating the stress with vdW-DF, please also cite:     %
     %                                                                      %
     %   R. Sabatini et al., J. Phys.: Condens. Matter 24, 424209 (2012).   %
     %                                                                      %
     %%%%%%%%%%%%%%%%%%%%%%%%%%%%%%%%%%%%%%%%%%%%%%%%%%%%%%%%%%%%%%%%%%%%%%%%

     Adding external electric field

     Computed dipole along edir(3) :
        Dipole                0.0055 Ry au,          0.0141 Debye
        Dipole field          0.0000 Ry au,

        Potential amp.       -0.0013 Ry
        Total length         45.5198 bohr

     Starting wfcs are  114 randomized atomic wfcs

     Self-consistent Calculation

     iteration #  1     ecut=    55.12 Ry     beta= 0.10
     Davidson diagonalization with overlap
     ethr =  1.00E-02,  avg # of iterations =  2.0

[...]

     total energy              =   -1483.08617033 Ry
     estimated scf accuracy    <       9.37107487 Ry

[...]

     iteration #  8     ecut=    55.12 Ry     beta= 0.10
     Davidson diagonalization with overlap
     c_bands:  1 eigenvalues not converged
     c_bands:  1 eigenvalues not converged
     c_bands:  1 eigenvalues not converged
     c_bands:  1 eigenvalues not converged
     c_bands:  1 eigenvalues not converged
     c_bands:  1 eigenvalues not converged
     c_bands:  1 eigenvalues not converged
     c_bands:  1 eigenvalues not converged
     c_bands:  2 eigenvalues not converged
     c_bands:  2 eigenvalues not converged
     c_bands:  1 eigenvalues not converged
     c_bands:  1 eigenvalues not converged
     c_bands:  1 eigenvalues not converged
     c_bands:  1 eigenvalues not converged
     c_bands:  1 eigenvalues not converged
     c_bands:  1 eigenvalues not converged
     c_bands:  1 eigenvalues not converged
     c_bands:  1 eigenvalues not converged
     c_bands:  1 eigenvalues not converged
     c_bands:  4 eigenvalues not converged
     c_bands:  4 eigenvalues not converged
     c_bands:  1 eigenvalues not converged
     c_bands:  1 eigenvalues not converged
     c_bands:  2 eigenvalues not converged
     c_bands:  1 eigenvalues not converged
     c_bands:  3 eigenvalues not converged
     c_bands:  2 eigenvalues not converged
     c_bands:  1 eigenvalues not converged
     c_bands:  2 eigenvalues not converged
     c_bands:  2 eigenvalues not converged
     c_bands:  1 eigenvalues not converged
     c_bands:  1 eigenvalues not converged
     c_bands:  1 eigenvalues not converged
     c_bands:  2 eigenvalues not converged
     c_bands:  1 eigenvalues not converged
     c_bands:  1 eigenvalues not converged
     c_bands:  1 eigenvalues not converged
     c_bands:  1 eigenvalues not converged
     c_bands:  1 eigenvalues not converged
     c_bands:  3 eigenvalues not converged
     c_bands:  3 eigenvalues not converged
     c_bands:  2 eigenvalues not converged
     c_bands:  1 eigenvalues not converged
     c_bands:  1 eigenvalues not converged
     c_bands:  3 eigenvalues not converged
     ethr =  2.61E-05,  avg # of iterations = 18.4

[...]

     iteration # 18     ecut=    55.12 Ry     beta= 0.10
     Davidson diagonalization with overlap
     c_bands:  1 eigenvalues not converged
     ethr =  1.74E-07,  avg # of iterations =  5.8

[...]

     total energy              =   -1484.41898141 Ry
     estimated scf accuracy    <       0.00001117 Ry

     iteration # 27     ecut=    55.12 Ry     beta= 0.10
     Davidson diagonalization with overlap
     ethr =  7.45E-09,  avg # of iterations =  6.6

[...]

     Adding external electric field

     Computed dipole along edir(3) :
        Dipole               -0.0501 Ry au,         -0.1274 Debye
        Dipole field         -0.0001 Ry au,

        Potential amp.        0.0118 Ry
        Total length         45.5198 bohr

     End of self-consistent calculation

          k = 0.0000 0.0000 0.0000 ( 33569 PWs)   bands (ev):

   -63.7264 -63.6883 -63.4835 -63.4434 -63.2906 -63.2525 -37.7079 -37.6693
   -37.6140 -37.5747 -37.5261 -37.5034 -37.4908 -37.4109 -37.3242 -37.2859
   -37.2730 -37.1966 -37.1783 -37.1619 -37.0694 -36.9564 -36.6750 -36.6467
    -9.2188  -8.9687  -8.9576  -8.8398  -8.7728  -8.6129  -8.5530  -8.5194
    -8.4965  -8.3787  -8.3416  -8.3261  -8.1230  -8.0072  -7.9702  -7.8656
    -7.8612  -7.8256  -7.7662  -7.7576  -7.7572  -7.7349  -7.6463  -7.5602
    -7.5547  -7.5018  -7.4225  -7.3758  -7.2693  -7.0011  -6.8274  -5.0936
    -2.9748  -1.8243  -1.3624  -1.2471  -1.1246  -1.0145  -0.7226  -0.6096
    -0.5237  -0.4306  -0.2817  -0.0197   0.0768   0.1278   0.2635   0.5881
     0.6320   0.6838   0.8898   0.9725   1.0068   1.0914   1.2581   1.3892
     1.5291   1.5352   1.6349   1.8637   2.0879   2.0997   2.1184   2.1824
     2.2402   2.5226

[...]

          k = 0.0753 0.0238 0.0000 ( 33531 PWs)   bands (ev):

[...]

          k =-0.0903-0.0476 0.0000 ( 33530 PWs)   bands (ev):

[...]

          k =-0.0903-0.1427 0.0000 ( 33530 PWs)   bands (ev):

   -63.7075 -63.7073 -63.4635 -63.4635 -63.2717 -63.2715 -37.6886 -37.6886
   -37.5945 -37.5944 -37.5088 -37.5086 -37.3425 -37.3423 -37.3053 -37.3052
   -37.2417 -37.2416 -37.1794 -37.1792 -37.1163 -37.1161 -36.6609 -36.6608
    -8.6810  -8.6809  -8.4833  -8.4831  -8.4138  -8.4138  -8.2857  -8.2856
    -8.2627  -8.2626  -8.0978  -8.0974  -8.0534  -8.0533  -7.9975  -7.9933
    -7.9695  -7.9685  -7.9193  -7.9171  -7.8876  -7.8867  -7.8748  -7.8741
    -7.7703  -7.7687  -7.6958  -7.6954  -7.6440  -7.6436  -5.1921  -5.1914
    -3.6564  -3.6544  -2.2132  -2.2123  -1.4100  -1.4097  -0.5787  -0.5785
    -0.1794  -0.1791  -0.0707  -0.0706   0.2647   0.2650   0.4019   0.4020
     0.5295   0.5298   0.7910   0.7911   0.9150   0.9154   1.0830   1.0831
     1.3648   1.3652   1.5599   1.5601   1.9042   1.9043   2.0750   2.0751
     2.5450   2.5452

     the Fermi energy is     0.7522 ev

!    total energy              =   -1484.41972445 Ry
     estimated scf accuracy    <       0.00000764 Ry
     smearing contrib. (-TS)   =      -0.08020249 Ry
     internal energy E=F+TS    =   -1484.33952196 Ry

     The total energy is F=E-TS. E is the sum of the following terms:
     one-electron contribution =  -11535.69448779 Ry
     hartree contribution      =    5802.78085642 Ry
     xc contribution           =    -269.20026125 Ry
     ewald contribution        =    4517.77436415 Ry
     electric field correction =       0.00000650 Ry

     convergence has been achieved in  27 iterations

     negative rho (up, down):  3.399E-03 0.000E+00

     Forces acting on atoms (cartesian axes, Ry/au):

     atom    1 type  1   force =     0.00000538    0.01862671    0.03688137
     atom    2 type  1   force =     0.00000965    0.01859128    0.03684127
     atom    3 type  2   force =     0.00004506   -0.01375919   -0.04231686
     atom    4 type  2   force =    -0.00006386   -0.01376135   -0.04231187
     atom    5 type  1   force =    -0.00000749   -0.01555380   -0.00582295
     atom    6 type  1   force =    -0.00000774   -0.01551852   -0.00584274
     atom    7 type  2   force =     0.00001022    0.01219645    0.01073053
     atom    8 type  2   force =     0.00001524    0.01219077    0.01072886
     atom    9 type  1   force =     0.00000129   -0.00072019    0.00070909
     atom   10 type  1   force =     0.00000003   -0.00080593    0.00085561
     atom   11 type  2   force =    -0.00052158   -0.00074200   -0.00022832
     atom   12 type  2   force =     0.00051380   -0.00074423   -0.00022399

     Total force =     0.091937     Total SCF correction =     0.018443
     SCF correction compared to forces is large: reduce conv_thr to get better values

     Writing output data file ./V2Cd2/V2Cd2_beef.save/

     General routines

     Parallel routines

   This run was terminated on:   6:42:48  25Jun2022

   JOB DONE.