     Program PWSCF v.6.6 starts on 25Jun2022 at  7:49:41

     R & G space division:  proc/nbgrp/npool/nimage =      37
     Fft bands division:     nmany     =       1
     Reading input from V2Cu2.in
Warning: card &CELL ignored
Warning: card / ignored

     Current dimensions of program PWSCF are:
     Max number of different atomic species (ntypx) = 10
     Max number of k-points (npk) =  40000
     Max angular momentum in pseudopotentials (lmaxx) =  3
     Presently stress not available with electric field and gates

     Message from routine cell_base_init:
     DEPRECATED: use true lattice parameter, not A to a.u. conversion factor
     file V.pbe-spnl-rrkjus_psl.1.0.0.UPF: wavefunction(s)  3P 3D renormalized
     file Cu.pbe-dn-rrkjus_psl.1.0.0.UPF: wavefunction(s)  3D renormalized

     IMPORTANT: XC functional enforced from input :
     Exchange-correlation= BEEF-VDW
                           (   1   4  43  14   2   0   0)
     Any further DFT definition will be discarded
     Please, verify this is what you really want

     Subspace diagonalization in iterative solution of the eigenvalue problem:
     a serial algorithm will be used

     bravais-lattice index     =            0
     lattice parameter (alat)  =       1.8897  a.u.
     unit-cell volume          =    3921.9285 (a.u.)^3
     number of atoms/cell      =           12
     number of atomic types    =            2
     number of electrons       =       144.00
     number of Kohn-Sham states=           86
     kinetic-energy cutoff     =      55.1240  Ry
     charge density cutoff     =     551.2396  Ry
     convergence threshold     =      1.0E-05
     mixing beta               =       0.1000
     number of iterations used =           10  plain     mixing
     Exchange-correlation= BEEF-VDW
                           (   1   4  43  14   2   0   0)

     celldm(1)=   1.889726  celldm(2)=   0.000000  celldm(3)=   0.000000
     celldm(4)=   0.000000  celldm(5)=   0.000000  celldm(6)=   0.000000

     crystal axes: (cart. coord. in units of alat)
               a(1) = (   4.981395   0.000000   0.000000 )
               a(2) = (  -2.490698   4.808842   0.000000 )
               a(3) = (   0.000000   0.000000  24.261166 )

     reciprocal axes: (cart. coord. in units 2 pi/alat)
               b(1) = (  0.200747  0.103975 -0.000000 )
               b(2) = (  0.000000  0.207950  0.000000 )
               b(3) = (  0.000000 -0.000000  0.041218 )

     PseudoPot. # 1 for V  read from file:
     ../pseudo/V.pbe-spnl-rrkjus_psl.1.0.0.UPF
     MD5 check sum: 79b3eb63147daf0b665d9f1bcc691206
     Pseudo is Ultrasoft + core correction, Zval = 13.0
     Generated using "atomic" code by A. Dal Corso v.6.2.2
     Using radial grid of 1181 points,  6 beta functions with:
                l(1) =   0
                l(2) =   0
                l(3) =   1
                l(4) =   1
                l(5) =   2
                l(6) =   2
     Q(r) pseudized with 0 coefficients

     PseudoPot. # 2 for Cu read from file:
     ../pseudo/Cu.pbe-dn-rrkjus_psl.1.0.0.UPF
     MD5 check sum: 8469560995d0c2df1ffe68c099c04a63
     Pseudo is Ultrasoft + core correction, Zval = 11.0
     Generated using "atomic" code by A. Dal Corso v.6.3
     Using radial grid of 1199 points,  6 beta functions with:
                l(1) =   0
                l(2) =   0
                l(3) =   1
                l(4) =   1
                l(5) =   2
                l(6) =   2
     Q(r) pseudized with 0 coefficients

     atomic species   valence    mass     pseudopotential
        V             13.00    50.94150     V ( 1.00)
        Cu            11.00    63.54600     Cu( 1.00)

     No symmetry found

   Cartesian axes

     site n.     atom                  positions (alat units)
         1           V   tau(   1) = (   0.0000000   0.0000000  10.0000000  )
         2           V   tau(   2) = (   2.4906976   0.0000000  10.0000000  )
         3           Cu  tau(   3) = (   1.2453488   2.4044208  10.0000000  )
         4           Cu  tau(   4) = (  -1.2453488   2.4044208  10.0000000  )
         5           V   tau(   5) = (   2.4906976   1.2900351  12.1305830  )
         6           V   tau(   6) = (   0.0000000   1.2900351  12.1305830  )
         7           Cu  tau(   7) = (  -1.2453488   3.6944559  12.1305830  )
         8           Cu  tau(   8) = (   1.2453488   3.6944559  12.1305830  )
         9           V   tau(   9) = (   0.0000022   2.6368325  14.1613253  )
        10           V   tau(  10) = (   2.4906921   2.6368265  14.1613289  )
        11           Cu  tau(  11) = (   3.7359989   0.2551536  14.2881354  )
        12           Cu  tau(  12) = (   1.2450637   0.2551365  14.2881462  )

     number of k points=    74  Fermi-Dirac smearing, width (Ry)=  0.0100
                       cart. coord. in units 2pi/alat
        k(    1) = (   0.0000000   0.0000000   0.0000000), wk =   0.0138889
        k(    2) = (   0.0000000   0.0173292   0.0000000), wk =   0.0277778
        k(    3) = (   0.0000000   0.0346584   0.0000000), wk =   0.0277778
        k(    4) = (   0.0000000   0.0519876   0.0000000), wk =   0.0277778
        k(    5) = (   0.0000000   0.0693168   0.0000000), wk =   0.0277778
        k(    6) = (   0.0000000   0.0866459   0.0000000), wk =   0.0277778
        k(    7) = (   0.0000000  -0.1039751   0.0000000), wk =   0.0138889
        k(    8) = (   0.0167289   0.0086646   0.0000000), wk =   0.0277778
        k(    9) = (   0.0167289   0.0259938   0.0000000), wk =   0.0277778
        k(   10) = (   0.0167289   0.0433230   0.0000000), wk =   0.0277778
        k(   11) = (   0.0167289   0.0606522   0.0000000), wk =   0.0277778
        k(   12) = (   0.0167289   0.0779814   0.0000000), wk =   0.0277778
        k(   13) = (   0.0167289   0.0953105   0.0000000), wk =   0.0277778
        k(   14) = (   0.0167289  -0.0953105   0.0000000), wk =   0.0277778
        k(   15) = (   0.0167289  -0.0779814   0.0000000), wk =   0.0277778
        k(   16) = (   0.0167289  -0.0606522   0.0000000), wk =   0.0277778
        k(   17) = (   0.0167289  -0.0433230   0.0000000), wk =   0.0277778
        k(   18) = (   0.0167289  -0.0259938   0.0000000), wk =   0.0277778
        k(   19) = (   0.0167289  -0.0086646   0.0000000), wk =   0.0277778
        k(   20) = (   0.0334578   0.0173292   0.0000000), wk =   0.0277778
        k(   21) = (   0.0334578   0.0346584   0.0000000), wk =   0.0277778
        k(   22) = (   0.0334578   0.0519876   0.0000000), wk =   0.0277778
        k(   23) = (   0.0334578   0.0693168   0.0000000), wk =   0.0277778
        k(   24) = (   0.0334578   0.0866459   0.0000000), wk =   0.0277778
        k(   25) = (   0.0334578   0.1039751   0.0000000), wk =   0.0277778
        k(   26) = (   0.0334578  -0.0866459   0.0000000), wk =   0.0277778
        k(   27) = (   0.0334578  -0.0693168   0.0000000), wk =   0.0277778
        k(   28) = (   0.0334578  -0.0519876   0.0000000), wk =   0.0277778
        k(   29) = (   0.0334578  -0.0346584   0.0000000), wk =   0.0277778
        k(   30) = (   0.0334578  -0.0173292   0.0000000), wk =   0.0277778
        k(   31) = (   0.0334578   0.0000000   0.0000000), wk =   0.0277778
        k(   32) = (   0.0501867   0.0259938   0.0000000), wk =   0.0277778
        k(   33) = (   0.0501867   0.0433230   0.0000000), wk =   0.0277778
        k(   34) = (   0.0501867   0.0606522   0.0000000), wk =   0.0277778
        k(   35) = (   0.0501867   0.0779814   0.0000000), wk =   0.0277778
        k(   36) = (   0.0501867   0.0953105   0.0000000), wk =   0.0277778
        k(   37) = (   0.0501867   0.1126397   0.0000000), wk =   0.0277778
        k(   38) = (   0.0501867  -0.0779813   0.0000000), wk =   0.0277778
        k(   39) = (   0.0501867  -0.0606522   0.0000000), wk =   0.0277778
        k(   40) = (   0.0501867  -0.0433230   0.0000000), wk =   0.0277778
        k(   41) = (   0.0501867  -0.0259938   0.0000000), wk =   0.0277778
        k(   42) = (   0.0501867  -0.0086646   0.0000000), wk =   0.0277778
        k(   43) = (   0.0501867   0.0086646   0.0000000), wk =   0.0277778
        k(   44) = (   0.0669157   0.0346584   0.0000000), wk =   0.0277778
        k(   45) = (   0.0669157   0.0519876   0.0000000), wk =   0.0277778
        k(   46) = (   0.0669157   0.0693168   0.0000000), wk =   0.0277778
        k(   47) = (   0.0669157   0.0866460   0.0000000), wk =   0.0277778
        k(   48) = (   0.0669157   0.1039751   0.0000000), wk =   0.0277778
        k(   49) = (   0.0669157   0.1213043   0.0000000), wk =   0.0277778
        k(   50) = (   0.0669157  -0.0693168   0.0000000), wk =   0.0277778
        k(   51) = (   0.0669157  -0.0519876   0.0000000), wk =   0.0277778
        k(   52) = (   0.0669157  -0.0346584   0.0000000), wk =   0.0277778
        k(   53) = (   0.0669157  -0.0173292   0.0000000), wk =   0.0277778
        k(   54) = (   0.0669157   0.0000000   0.0000000), wk =   0.0277778
        k(   55) = (   0.0669157   0.0173292   0.0000000), wk =   0.0277778
        k(   56) = (   0.0836446   0.0433230   0.0000000), wk =   0.0277778
        k(   57) = (   0.0836446   0.0606522   0.0000000), wk =   0.0277778
        k(   58) = (   0.0836446   0.0779814   0.0000000), wk =   0.0277778
        k(   59) = (   0.0836446   0.0953105   0.0000000), wk =   0.0277778
        k(   60) = (   0.0836446   0.1126397   0.0000000), wk =   0.0277778
        k(   61) = (   0.0836446   0.1299689   0.0000000), wk =   0.0277778
        k(   62) = (   0.0836446  -0.0606522   0.0000000), wk =   0.0277778
        k(   63) = (   0.0836446  -0.0433230   0.0000000), wk =   0.0277778
        k(   64) = (   0.0836446  -0.0259938   0.0000000), wk =   0.0277778
        k(   65) = (   0.0836446  -0.0086646   0.0000000), wk =   0.0277778
        k(   66) = (   0.0836446   0.0086646   0.0000000), wk =   0.0277778
        k(   67) = (   0.0836446   0.0259938   0.0000000), wk =   0.0277778
        k(   68) = (  -0.1003735  -0.0519876   0.0000000), wk =   0.0138889
        k(   69) = (  -0.1003735  -0.0346584   0.0000000), wk =   0.0277778
        k(   70) = (  -0.1003735  -0.0173292   0.0000000), wk =   0.0277778
        k(   71) = (  -0.1003735  -0.0000000   0.0000000), wk =   0.0277778
        k(   72) = (  -0.1003735   0.0173292   0.0000000), wk =   0.0277778
        k(   73) = (  -0.1003735   0.0346584   0.0000000), wk =   0.0277778
        k(   74) = (  -0.1003735  -0.1559627   0.0000000), wk =   0.0138889

     Initial potential from superposition of free atoms

     starting charge  143.99316, renormalised to  144.00000

     negative rho (up, down):  1.017E-03 0.000E+00

     %%%%%%%%%%%%%%%%%%%%%%%%%%%%%%%%%%%%%%%%%%%%%%%%%%%%%%%%%%%%%%%%%%%%%%%%
     %                                                                      %
     % You are using vdW-DF, which was implemented by the Thonhauser group. %
     % Please cite the following two papers that made this development      %
     % possible and the two reviews that describe the various versions:     %
     %                                                                      %
     %   T. Thonhauser et al., PRL 115, 136402 (2015).                      %
     %   T. Thonhauser et al., PRB 76, 125112 (2007).                       %
     %   K. Berland et al., Rep. Prog. Phys. 78, 066501 (2015).             %
     %   D.C. Langreth et al., J. Phys.: Condens. Matter 21, 084203 (2009). %
     %                                                                      %
     %                                                                      %
     % If you are calculating the stress with vdW-DF, please also cite:     %
     %                                                                      %
     %   R. Sabatini et al., J. Phys.: Condens. Matter 24, 424209 (2012).   %
     %                                                                      %
     %%%%%%%%%%%%%%%%%%%%%%%%%%%%%%%%%%%%%%%%%%%%%%%%%%%%%%%%%%%%%%%%%%%%%%%%

     Adding external electric field

     Computed dipole along edir(3) :
        Dipole               -0.0001 Ry au,         -0.0004 Debye
        Dipole field         -0.0000 Ry au,

        Potential amp.        0.0000 Ry
        Total length         44.7008 bohr

     Starting wfcs are  114 randomized atomic wfcs

     Self-consistent Calculation

     iteration #  1     ecut=    55.12 Ry     beta= 0.10
     Davidson diagonalization with overlap
     ethr =  1.00E-02,  avg # of iterations =  2.0

[...]

     total energy              =   -1620.62526420 Ry
     estimated scf accuracy    <       7.29605277 Ry

[...]

     iteration #  9     ecut=    55.12 Ry     beta= 0.10
     Davidson diagonalization with overlap
     c_bands:  1 eigenvalues not converged
     c_bands:  1 eigenvalues not converged
     c_bands:  1 eigenvalues not converged
     c_bands:  2 eigenvalues not converged
     c_bands:  2 eigenvalues not converged
     ethr =  1.62E-05,  avg # of iterations = 12.1

[...]

     iteration # 17     ecut=    55.12 Ry     beta= 0.10
     Davidson diagonalization with overlap
     c_bands:  1 eigenvalues not converged
     c_bands:  1 eigenvalues not converged
     ethr =  1.13E-07,  avg # of iterations =  8.3

[...]

     total energy              =   -1621.41638630 Ry
     estimated scf accuracy    <       0.00001113 Ry

     iteration # 21     ecut=    55.12 Ry     beta= 0.10
     Davidson diagonalization with overlap
     ethr =  7.06E-09,  avg # of iterations =  3.1

[...]

     Adding external electric field

     Computed dipole along edir(3) :
        Dipole               -0.0099 Ry au,         -0.0251 Debye
        Dipole field         -0.0000 Ry au,

        Potential amp.        0.0028 Ry
        Total length         44.7008 bohr

     End of self-consistent calculation

          k = 0.0000 0.0000 0.0000 ( 27063 PWs)   bands (ev):

   -63.9635 -63.9322 -63.8355 -63.8044 -63.8028 -63.6757 -38.0472 -38.0199
   -37.9778 -37.9411 -37.9030 -37.8401 -37.8153 -37.7686 -37.7393 -37.7138
   -37.6916 -37.6676 -37.5883 -37.3021 -37.2167 -37.1898 -37.1409 -37.1176
    -7.1192  -5.3810  -4.4535  -4.0650  -4.0031  -3.9993  -3.9055  -3.8311
    -3.7074  -3.6307  -3.5395  -3.5013  -3.4920  -3.4841  -3.2082  -3.1176
    -3.0271  -2.8740  -2.8690  -2.6640  -2.6207  -2.6010  -2.4079  -2.3314
    -2.3309  -2.2476  -2.2294  -2.0260  -2.0195  -1.8564  -1.7634  -1.5158
    -1.4669  -1.3231  -1.1882  -1.0122  -0.8611  -0.8085  -0.6211  -0.5900
    -0.4337  -0.2432  -0.2275  -0.1025   0.0183   0.4414   0.4873   0.5045
     0.6765   0.7357   1.0266   1.2092   1.2448   1.3239   1.6735   1.8382
     2.0195   2.0330   2.1132   2.2359   2.4005   2.4741

[...]

          k = 0.0836 0.0260 0.0000 ( 27110 PWs)   bands (ev):

[...]

          k =-0.1004-0.0520 0.0000 ( 27106 PWs)   bands (ev):

[...]

          k =-0.1004-0.1560 0.0000 ( 27106 PWs)   bands (ev):

   -63.8999 -63.8999 -63.8689 -63.8685 -63.7398 -63.7396 -37.9622 -37.9621
   -37.7901 -37.7900 -37.7656 -37.7653 -37.7194 -37.7191 -37.6404 -37.6402
   -37.6264 -37.6263 -37.5673 -37.5671 -37.5372 -37.5370 -37.2593 -37.2592
    -5.2971  -5.2969  -4.0163  -4.0161  -3.5298  -3.5297  -3.4616  -3.4616
    -3.3736  -3.3735  -3.2276  -3.2276  -3.1614  -3.1614  -3.0195  -3.0195
    -2.7998  -2.7997  -2.7411  -2.7410  -2.6540  -2.6538  -2.5997  -2.5995
    -2.5891  -2.5888  -2.4739  -2.4739  -2.4298  -2.4296  -2.2917  -2.2916
    -2.1660  -2.1659  -1.3543  -1.3542  -0.9892  -0.9892  -0.7047  -0.7047
    -0.2573  -0.2572  -0.1083  -0.1082   0.3329   0.3329   0.4270   0.4270
     0.5880   0.5882   0.7136   0.7138   0.8120   0.8121   0.9954   0.9955
     1.1637   1.1638   1.7530   1.7531   1.9994   1.9994

     the Fermi energy is     0.3893 ev

!    total energy              =   -1621.41820891 Ry
     estimated scf accuracy    <       0.00000957 Ry
     smearing contrib. (-TS)   =      -0.06748760 Ry
     internal energy E=F+TS    =   -1621.35072131 Ry

     The total energy is F=E-TS. E is the sum of the following terms:
     one-electron contribution =  -13512.67003894 Ry
     hartree contribution      =    6820.81567654 Ry
     xc contribution           =    -402.00368138 Ry
     ewald contribution        =    5472.50732215 Ry
     electric field correction =       0.00000031 Ry

     convergence has been achieved in  21 iterations

     negative rho (up, down):  1.635E-03 0.000E+00

     Forces acting on atoms (cartesian axes, Ry/au):

     atom    1 type  1   force =     0.00000025    0.00400057    0.02041764
     atom    2 type  1   force =    -0.00000290    0.00398251    0.02037496
     atom    3 type  2   force =     0.00002365   -0.00707005   -0.01068063
     atom    4 type  2   force =    -0.00002500   -0.00706795   -0.01069913
     atom    5 type  1   force =    -0.00000271   -0.00349204   -0.00593854
     atom    6 type  1   force =     0.00000070   -0.00355060   -0.00602606
     atom    7 type  2   force =     0.00012731    0.00807575   -0.00509807
     atom    8 type  2   force =    -0.00012793    0.00807615   -0.00509622
     atom    9 type  1   force =    -0.00001128   -0.00076549   -0.00218349
     atom   10 type  1   force =    -0.00001040   -0.00077334   -0.00218383
     atom   11 type  2   force =    -0.00007618   -0.00070245    0.00354879
     atom   12 type  2   force =     0.00010450   -0.00071305    0.00356458

     Total force =     0.038836     Total SCF correction =     0.014869
     SCF correction compared to forces is large: reduce conv_thr to get better values

     Writing output data file ./V2Cu2/V2Cu2_beef.save/

     General routines

     Parallel routines

   This run was terminated on:   8:47:37  25Jun2022

   JOB DONE.