     Program PWSCF v.6.6 starts on 27Jun2022 at 13:15:34

     R & G space division:  proc/nbgrp/npool/nimage =      37
     Fft bands division:     nmany     =       1
     Reading input from V2Hf2.in
Warning: card &CELL ignored
Warning: card / ignored

     Current dimensions of program PWSCF are:
     Max number of different atomic species (ntypx) = 10
     Max number of k-points (npk) =  40000
     Max angular momentum in pseudopotentials (lmaxx) =  3
     Presently stress not available with electric field and gates

     Message from routine cell_base_init:
     DEPRECATED: use true lattice parameter, not A to a.u. conversion factor
     file V.pbe-spnl-rrkjus_psl.1.0.0.UPF: wavefunction(s)  3P 3D renormalized

     IMPORTANT: XC functional enforced from input :
     Exchange-correlation= BEEF-VDW
                           (   1   4  43  14   2   0   0)
     Any further DFT definition will be discarded
     Please, verify this is what you really want

     Subspace diagonalization in iterative solution of the eigenvalue problem:
     a serial algorithm will be used

     bravais-lattice index     =            0
     lattice parameter (alat)  =       1.8897  a.u.
     unit-cell volume          =    5077.9043 (a.u.)^3
     number of atoms/cell      =           12
     number of atomic types    =            2
     number of electrons       =       150.00
     number of Kohn-Sham states=           90
     kinetic-energy cutoff     =      55.1240  Ry
     charge density cutoff     =     551.2396  Ry
     convergence threshold     =      1.0E-05
     mixing beta               =       0.1000
     number of iterations used =           10  plain     mixing
     Exchange-correlation= BEEF-VDW
                           (   1   4  43  14   2   0   0)

     celldm(1)=   1.889726  celldm(2)=   0.000000  celldm(3)=   0.000000
     celldm(4)=   0.000000  celldm(5)=   0.000000  celldm(6)=   0.000000

     crystal axes: (cart. coord. in units of alat)
               a(1) = (   5.691414   0.000000   0.000000 )
               a(2) = (   1.903166   5.363782   0.000000 )
               a(3) = (   0.000000   0.000000  24.648852 )

     reciprocal axes: (cart. coord. in units 2 pi/alat)
               b(1) = (  0.175703 -0.062343  0.000000 )
               b(2) = (  0.000000  0.186436  0.000000 )
               b(3) = (  0.000000  0.000000  0.040570 )

     PseudoPot. # 1 for V  read from file:
     ../pseudo/V.pbe-spnl-rrkjus_psl.1.0.0.UPF
     MD5 check sum: 79b3eb63147daf0b665d9f1bcc691206
     Pseudo is Ultrasoft + core correction, Zval = 13.0
     Generated using "atomic" code by A. Dal Corso v.6.2.2
     Using radial grid of 1181 points,  6 beta functions with:
                l(1) =   0
                l(2) =   0
                l(3) =   1
                l(4) =   1
                l(5) =   2
                l(6) =   2
     Q(r) pseudized with 0 coefficients

     PseudoPot. # 2 for Hf read from file:
     ../pseudo/Hf.pbe-spn-rrkjus_psl.1.0.0.UPF
     MD5 check sum: 9605440c6f839e558204c6a924125fd0
     Pseudo is Ultrasoft + core correction, Zval = 12.0
     Generated using "atomic" code by A. Dal Corso v.6.2.2
     Using radial grid of 1271 points,  6 beta functions with:
                l(1) =   0
                l(2) =   0
                l(3) =   1
                l(4) =   1
                l(5) =   2
                l(6) =   2
     Q(r) pseudized with 0 coefficients

     atomic species   valence    mass     pseudopotential
        V             13.00    50.94150     V ( 1.00)
        Hf            12.00   178.49000     Hf( 1.00)

     No symmetry found

   Cartesian axes

     site n.     atom                  positions (alat units)
         1           V   tau(   1) = (   0.0000000   0.0000000  10.0000000  )
         2           V   tau(   2) = (   3.7972902   2.6818909  10.0000000  )
         3           Hf  tau(   3) = (   2.8457072   0.0000000  10.0000000  )
         4           Hf  tau(   4) = (   0.9515830   2.6818909  10.0000000  )
         5           V   tau(   5) = (   5.6914143   4.0196434  12.3244262  )
         6           V   tau(   6) = (   1.8941241   1.3377525  12.3244262  )
         7           Hf  tau(   7) = (   2.8457072   4.0196434  12.3244262  )
         8           Hf  tau(   8) = (   4.7398313   1.3377525  12.3244262  )
         9           V   tau(   9) = (   3.7881297   2.6754213  14.4931546  )
        10           V   tau(  10) = (   7.5852624   5.3572013  14.4931539  )
        11           Hf  tau(  11) = (   6.6354080   2.6763322  14.5896728  )
        12           Hf  tau(  12) = (   4.7410962   5.3584892  14.5896752  )

     number of k points=    74  Fermi-Dirac smearing, width (Ry)=  0.0100
                       cart. coord. in units 2pi/alat
        k(    1) = (   0.0000000   0.0000000   0.0000000), wk =   0.0138889
        k(    2) = (   0.0000000   0.0155363   0.0000000), wk =   0.0277778
        k(    3) = (   0.0000000   0.0310726   0.0000000), wk =   0.0277778
        k(    4) = (   0.0000000   0.0466089   0.0000000), wk =   0.0277778
        k(    5) = (   0.0000000   0.0621452   0.0000000), wk =   0.0277778
        k(    6) = (   0.0000000   0.0776815   0.0000000), wk =   0.0277778
        k(    7) = (   0.0000000  -0.0932178   0.0000000), wk =   0.0138889
        k(    8) = (   0.0146419  -0.0051952   0.0000000), wk =   0.0277778
        k(    9) = (   0.0146419   0.0103411   0.0000000), wk =   0.0277778
        k(   10) = (   0.0146419   0.0258774   0.0000000), wk =   0.0277778
        k(   11) = (   0.0146419   0.0414137   0.0000000), wk =   0.0277778
        k(   12) = (   0.0146419   0.0569500   0.0000000), wk =   0.0277778
        k(   13) = (   0.0146419   0.0724863   0.0000000), wk =   0.0277778
        k(   14) = (   0.0146419  -0.0984130   0.0000000), wk =   0.0277778
        k(   15) = (   0.0146419  -0.0828767   0.0000000), wk =   0.0277778
        k(   16) = (   0.0146419  -0.0673404   0.0000000), wk =   0.0277778
        k(   17) = (   0.0146419  -0.0518041   0.0000000), wk =   0.0277778
        k(   18) = (   0.0146419  -0.0362678   0.0000000), wk =   0.0277778
        k(   19) = (   0.0146419  -0.0207315   0.0000000), wk =   0.0277778
        k(   20) = (   0.0292839  -0.0103904   0.0000000), wk =   0.0277778
        k(   21) = (   0.0292839   0.0051459   0.0000000), wk =   0.0277778
        k(   22) = (   0.0292839   0.0206822   0.0000000), wk =   0.0277778
        k(   23) = (   0.0292839   0.0362185   0.0000000), wk =   0.0277778
        k(   24) = (   0.0292839   0.0517548   0.0000000), wk =   0.0277778
        k(   25) = (   0.0292839   0.0672911   0.0000000), wk =   0.0277778
        k(   26) = (   0.0292839  -0.1036083   0.0000000), wk =   0.0277778
        k(   27) = (   0.0292839  -0.0880720   0.0000000), wk =   0.0277778
        k(   28) = (   0.0292839  -0.0725356   0.0000000), wk =   0.0277778
        k(   29) = (   0.0292839  -0.0569993   0.0000000), wk =   0.0277778
        k(   30) = (   0.0292839  -0.0414630   0.0000000), wk =   0.0277778
        k(   31) = (   0.0292839  -0.0259267   0.0000000), wk =   0.0277778
        k(   32) = (   0.0439258  -0.0155857   0.0000000), wk =   0.0277778
        k(   33) = (   0.0439258  -0.0000494   0.0000000), wk =   0.0277778
        k(   34) = (   0.0439258   0.0154869   0.0000000), wk =   0.0277778
        k(   35) = (   0.0439258   0.0310232   0.0000000), wk =   0.0277778
        k(   36) = (   0.0439258   0.0465595   0.0000000), wk =   0.0277778
        k(   37) = (   0.0439258   0.0620958   0.0000000), wk =   0.0277778
        k(   38) = (   0.0439258  -0.1088035   0.0000000), wk =   0.0277778
        k(   39) = (   0.0439258  -0.0932672   0.0000000), wk =   0.0277778
        k(   40) = (   0.0439258  -0.0777309   0.0000000), wk =   0.0277778
        k(   41) = (   0.0439258  -0.0621946   0.0000000), wk =   0.0277778
        k(   42) = (   0.0439258  -0.0466583   0.0000000), wk =   0.0277778
        k(   43) = (   0.0439258  -0.0311220   0.0000000), wk =   0.0277778
        k(   44) = (   0.0585678  -0.0207809   0.0000000), wk =   0.0277778
        k(   45) = (   0.0585678  -0.0052446   0.0000000), wk =   0.0277778
        k(   46) = (   0.0585678   0.0102917   0.0000000), wk =   0.0277778
        k(   47) = (   0.0585678   0.0258280   0.0000000), wk =   0.0277778
        k(   48) = (   0.0585678   0.0413643   0.0000000), wk =   0.0277778
        k(   49) = (   0.0585678   0.0569006   0.0000000), wk =   0.0277778
        k(   50) = (   0.0585678  -0.1139987   0.0000000), wk =   0.0277778
        k(   51) = (   0.0585678  -0.0984624   0.0000000), wk =   0.0277778
        k(   52) = (   0.0585678  -0.0829261   0.0000000), wk =   0.0277778
        k(   53) = (   0.0585678  -0.0673898   0.0000000), wk =   0.0277778
        k(   54) = (   0.0585678  -0.0518535   0.0000000), wk =   0.0277778
        k(   55) = (   0.0585678  -0.0363172   0.0000000), wk =   0.0277778
        k(   56) = (   0.0732097  -0.0259761   0.0000000), wk =   0.0277778
        k(   57) = (   0.0732097  -0.0104398   0.0000000), wk =   0.0277778
        k(   58) = (   0.0732097   0.0050965   0.0000000), wk =   0.0277778
        k(   59) = (   0.0732097   0.0206328   0.0000000), wk =   0.0277778
        k(   60) = (   0.0732097   0.0361691   0.0000000), wk =   0.0277778
        k(   61) = (   0.0732097   0.0517054   0.0000000), wk =   0.0277778
        k(   62) = (   0.0732097  -0.1191939   0.0000000), wk =   0.0277778
        k(   63) = (   0.0732097  -0.1036576   0.0000000), wk =   0.0277778
        k(   64) = (   0.0732097  -0.0881213   0.0000000), wk =   0.0277778
        k(   65) = (   0.0732097  -0.0725850   0.0000000), wk =   0.0277778
        k(   66) = (   0.0732097  -0.0570487   0.0000000), wk =   0.0277778
        k(   67) = (   0.0732097  -0.0415124   0.0000000), wk =   0.0277778
        k(   68) = (  -0.0878516   0.0311713   0.0000000), wk =   0.0138889
        k(   69) = (  -0.0878516   0.0467076   0.0000000), wk =   0.0277778
        k(   70) = (  -0.0878516   0.0622439   0.0000000), wk =   0.0277778
        k(   71) = (  -0.0878516   0.0777802   0.0000000), wk =   0.0277778
        k(   72) = (  -0.0878516   0.0933165   0.0000000), wk =   0.0277778
        k(   73) = (  -0.0878516   0.1088528   0.0000000), wk =   0.0277778
        k(   74) = (  -0.0878516  -0.0620465   0.0000000), wk =   0.0138889

     Initial potential from superposition of free atoms

     starting charge  149.98292, renormalised to  150.00000

     negative rho (up, down):  1.187E-03 0.000E+00

     %%%%%%%%%%%%%%%%%%%%%%%%%%%%%%%%%%%%%%%%%%%%%%%%%%%%%%%%%%%%%%%%%%%%%%%%
     %                                                                      %
     % You are using vdW-DF, which was implemented by the Thonhauser group. %
     % Please cite the following two papers that made this development      %
     % possible and the two reviews that describe the various versions:     %
     %                                                                      %
     %   T. Thonhauser et al., PRL 115, 136402 (2015).                      %
     %   T. Thonhauser et al., PRB 76, 125112 (2007).                       %
     %   K. Berland et al., Rep. Prog. Phys. 78, 066501 (2015).             %
     %   D.C. Langreth et al., J. Phys.: Condens. Matter 21, 084203 (2009). %
     %                                                                      %
     %                                                                      %
     % If you are calculating the stress with vdW-DF, please also cite:     %
     %                                                                      %
     %   R. Sabatini et al., J. Phys.: Condens. Matter 24, 424209 (2012).   %
     %                                                                      %
     %%%%%%%%%%%%%%%%%%%%%%%%%%%%%%%%%%%%%%%%%%%%%%%%%%%%%%%%%%%%%%%%%%%%%%%%

     Adding external electric field

     Computed dipole along edir(3) :
        Dipole                0.0002 Ry au,          0.0005 Debye
        Dipole field          0.0000 Ry au,

        Potential amp.       -0.0000 Ry
        Total length         45.4151 bohr

     Starting wfcs are  120 randomized atomic wfcs

     Self-consistent Calculation

     iteration #  1     ecut=    55.12 Ry     beta= 0.10
     Davidson diagonalization with overlap
     ethr =  1.00E-02,  avg # of iterations =  2.2

[...]

     total energy              =   -1633.04557744 Ry
     estimated scf accuracy    <      12.50752499 Ry

[...]

     iteration #  8     ecut=    55.12 Ry     beta= 0.10
     Davidson diagonalization with overlap
     c_bands:  1 eigenvalues not converged
     c_bands:  1 eigenvalues not converged
     c_bands:  1 eigenvalues not converged
     c_bands:  1 eigenvalues not converged
     c_bands:  1 eigenvalues not converged
     ethr =  7.13E-05,  avg # of iterations = 11.6

[...]

     iteration # 20     ecut=    55.12 Ry     beta= 0.10
     Davidson diagonalization with overlap
     c_bands:  1 eigenvalues not converged
     ethr =  3.74E-08,  avg # of iterations =  6.7

[...]

     total energy              =   -1634.34509684 Ry
     estimated scf accuracy    <       0.00001058 Ry

     iteration # 24     ecut=    55.12 Ry     beta= 0.10
     Davidson diagonalization with overlap
     ethr =  7.05E-09,  avg # of iterations =  5.1

[...]

     Adding external electric field

     Computed dipole along edir(3) :
        Dipole                0.0190 Ry au,          0.0483 Debye
        Dipole field          0.0000 Ry au,

        Potential amp.       -0.0043 Ry
        Total length         45.4151 bohr

     End of self-consistent calculation

          k = 0.0000 0.0000 0.0000 ( 35077 PWs)   bands (ev):

   -62.8786 -62.8728 -62.8197 -62.8128 -62.7841 -62.7788 -60.9784 -60.9677
   -60.9420 -60.9313 -60.2423 -60.2315 -36.7603 -36.7568 -36.7181 -36.6921
   -36.6853 -36.6728 -36.6726 -36.6504 -36.6375 -36.6327 -36.6279 -36.6109
   -36.6029 -36.5967 -36.5785 -36.5666 -36.5445 -36.5071 -29.5779 -29.5521
   -29.5449 -29.5267 -29.5257 -29.5009 -29.4526 -29.4362 -29.4294 -29.4102
   -29.2981 -29.2655 -28.9247 -28.8005 -28.7955 -28.7720 -28.7666 -28.6357
    -5.0698  -3.5708  -2.2786  -1.7773  -1.6488  -1.6223  -1.5740  -1.4595
    -1.2901  -1.1629  -0.9816  -0.8833  -0.8166   0.1116   0.1264   0.3659
     0.4150   0.4243   0.4352   0.4574   0.5051   0.7414   0.9190   0.9354
     1.0162   1.1645   1.2010   1.5819   1.6669   1.6835   1.7072   1.9549
     2.0089   2.0852   2.1974   2.6299   2.6335   2.6627   3.1331   3.2443
     3.2986   3.3159

[...]

          k = 0.0732-0.0415 0.0000 ( 35116 PWs)   bands (ev):

[...]

          k =-0.0879 0.0312 0.0000 ( 35100 PWs)   bands (ev):

[...]

          k =-0.0879-0.0620 0.0000 ( 35126 PWs)   bands (ev):

   -62.8775 -62.8729 -62.8181 -62.8133 -62.7842 -62.7784 -60.9797 -60.9678
   -60.9432 -60.9315 -60.2434 -60.2314 -36.7608 -36.7536 -36.7112 -36.6936
   -36.6793 -36.6658 -36.6560 -36.6491 -36.6340 -36.6334 -36.6184 -36.6092
   -36.6013 -36.5837 -36.5717 -36.5606 -36.5540 -36.5066 -29.5950 -29.5653
   -29.5617 -29.5285 -29.5224 -29.4962 -29.4871 -29.4585 -29.4474 -29.4233
   -29.3026 -29.2699 -28.9396 -28.8160 -28.7893 -28.7861 -28.7729 -28.6407
    -3.1045  -3.0277  -2.2565  -1.9627  -1.2313  -1.1153  -0.7804  -0.7630
    -0.6210  -0.6067  -0.0887   0.1636   0.2235   0.2607   0.3010   0.3194
     0.4903   0.5032   0.5383   0.5517   0.6151   0.6548   0.7448   0.8839
     1.2387   1.2800   1.2853   1.2893   1.3136   1.3419   1.3581   1.4096
     1.5055   1.5581   1.7034   1.7347   1.7763   1.8702   2.0992   2.3048
     2.3380   2.3474

     the Fermi energy is     1.1402 ev

!    total energy              =   -1634.34506010 Ry
     estimated scf accuracy    <       0.00000622 Ry
     smearing contrib. (-TS)   =      -0.11685995 Ry
     internal energy E=F+TS    =   -1634.22820015 Ry

     The total energy is F=E-TS. E is the sum of the following terms:
     one-electron contribution =  -11260.57312149 Ry
     hartree contribution      =    5617.75715689 Ry
     xc contribution           =    -383.32902565 Ry
     ewald contribution        =    4391.91678921 Ry
     electric field correction =       0.00000089 Ry

     convergence has been achieved in  24 iterations

     negative rho (up, down):  8.334E-04 0.000E+00

     Forces acting on atoms (cartesian axes, Ry/au):

     atom    1 type  1   force =     0.00005489    0.00003496    0.01907373
     atom    2 type  1   force =     0.00005409    0.00004324    0.01909478
     atom    3 type  2   force =    -0.00025183   -0.00018311    0.00623956
     atom    4 type  2   force =    -0.00025314   -0.00017519    0.00624043
     atom    5 type  1   force =     0.00009242    0.00006446    0.00039764
     atom    6 type  1   force =     0.00011606    0.00008270    0.00036777
     atom    7 type  2   force =     0.00005762    0.00002597   -0.02270556
     atom    8 type  2   force =     0.00004529    0.00004581   -0.02270571
     atom    9 type  1   force =     0.00003835    0.00002908   -0.00175951
     atom   10 type  1   force =     0.00003567    0.00002474   -0.00177769
     atom   11 type  2   force =    -0.00000332    0.00001718   -0.00123151
     atom   12 type  2   force =     0.00001391   -0.00000983   -0.00123391

     Total force =     0.042979     Total SCF correction =     0.006328
     SCF correction compared to forces is large: reduce conv_thr to get better values

     Writing output data file ./V2Hf2/V2Hf2_beef.save/

     General routines

     Parallel routines

   This run was terminated on:  14:40: 2  27Jun2022

   JOB DONE.