     Program PWSCF v.6.6 starts on 25Jun2022 at  8:47:40

     R & G space division:  proc/nbgrp/npool/nimage =      37
     Fft bands division:     nmany     =       1
     Reading input from V2Hg2.in
Warning: card &CELL ignored
Warning: card / ignored

     Current dimensions of program PWSCF are:
     Max number of different atomic species (ntypx) = 10
     Max number of k-points (npk) =  40000
     Max angular momentum in pseudopotentials (lmaxx) =  3
     Presently stress not available with electric field and gates

     Message from routine cell_base_init:
     DEPRECATED: use true lattice parameter, not A to a.u. conversion factor
     file V.pbe-spnl-rrkjus_psl.1.0.0.UPF: wavefunction(s)  3P 3D renormalized
     file Hg.pbe-n-rrkjus_psl.1.0.0.UPF: wavefunction(s)  6S renormalized

     IMPORTANT: XC functional enforced from input :
     Exchange-correlation= BEEF-VDW
                           (   1   4  43  14   2   0   0)
     Any further DFT definition will be discarded
     Please, verify this is what you really want

     Subspace diagonalization in iterative solution of the eigenvalue problem:
     a serial algorithm will be used

     bravais-lattice index     =            0
     lattice parameter (alat)  =       1.8897  a.u.
     unit-cell volume          =    4917.0681 (a.u.)^3
     number of atoms/cell      =           12
     number of atomic types    =            2
     number of electrons       =       150.00
     number of Kohn-Sham states=           90
     kinetic-energy cutoff     =      55.1240  Ry
     charge density cutoff     =     551.2396  Ry
     convergence threshold     =      1.0E-05
     mixing beta               =       0.1000
     number of iterations used =           10  plain     mixing
     Exchange-correlation= BEEF-VDW
                           (   1   4  43  14   2   0   0)

     celldm(1)=   1.889726  celldm(2)=   0.000000  celldm(3)=   0.000000
     celldm(4)=   0.000000  celldm(5)=   0.000000  celldm(6)=   0.000000

     crystal axes: (cart. coord. in units of alat)
               a(1) = (   5.817500   0.000000   0.000000 )
               a(2) = (  -2.908750   5.058600   0.000000 )
               a(3) = (   0.000000   0.000000  24.759563 )

     reciprocal axes: (cart. coord. in units 2 pi/alat)
               b(1) = (  0.171895  0.098842 -0.000000 )
               b(2) = (  0.000000  0.197683  0.000000 )
               b(3) = (  0.000000 -0.000000  0.040388 )

     PseudoPot. # 1 for V  read from file:
     ../pseudo/V.pbe-spnl-rrkjus_psl.1.0.0.UPF
     MD5 check sum: 79b3eb63147daf0b665d9f1bcc691206
     Pseudo is Ultrasoft + core correction, Zval = 13.0
     Generated using "atomic" code by A. Dal Corso v.6.2.2
     Using radial grid of 1181 points,  6 beta functions with:
                l(1) =   0
                l(2) =   0
                l(3) =   1
                l(4) =   1
                l(5) =   2
                l(6) =   2
     Q(r) pseudized with 0 coefficients

     PseudoPot. # 2 for Hg read from file:
     ../pseudo/Hg.pbe-n-rrkjus_psl.1.0.0.UPF
     MD5 check sum: 7519ac2e5b9cac440d3cfd4127d6ea3c
     Pseudo is Ultrasoft + core correction, Zval = 12.0
     Generated using "atomic" code by A. Dal Corso v.6.3
     Using radial grid of 1279 points,  6 beta functions with:
                l(1) =   0
                l(2) =   0
                l(3) =   1
                l(4) =   1
                l(5) =   2
                l(6) =   2
     Q(r) pseudized with 0 coefficients

     atomic species   valence    mass     pseudopotential
        V             13.00    50.94150     V ( 1.00)
        Hg            12.00   200.59200     Hg( 1.00)

     No symmetry found

   Cartesian axes

     site n.     atom                  positions (alat units)
         1           V   tau(   1) = (   0.0000000   0.0000000  10.0000000  )
         2           V   tau(   2) = (   2.9087499   0.0000000  10.0000000  )
         3           Hg  tau(   3) = (   1.4543749   2.5293001  10.0000000  )
         4           Hg  tau(   4) = (  -1.4543749   2.5293001  10.0000000  )
         5           V   tau(   5) = (   2.9087499   1.6725627  12.3797815  )
         6           V   tau(   6) = (  -0.0000000   1.6725627  12.3797815  )
         7           Hg  tau(   7) = (  -1.4543749   4.2018628  12.3797815  )
         8           Hg  tau(   8) = (   1.4543749   4.2018628  12.3797815  )
         9           V   tau(   9) = (   0.0000116   2.2195034  14.1284308  )
        10           V   tau(  10) = (   2.9087609   2.2195613  14.1283886  )
        11           Hg  tau(  11) = (   1.4546255   4.9516979  15.3689109  )
        12           Hg  tau(  12) = (  -1.4546217   4.9516931  15.3689172  )

     number of k points=    74  Fermi-Dirac smearing, width (Ry)=  0.0100
                       cart. coord. in units 2pi/alat
        k(    1) = (   0.0000000   0.0000000   0.0000000), wk =   0.0138889
        k(    2) = (   0.0000000   0.0164736   0.0000000), wk =   0.0277778
        k(    3) = (   0.0000000   0.0329472   0.0000000), wk =   0.0277778
        k(    4) = (   0.0000000   0.0494208   0.0000000), wk =   0.0277778
        k(    5) = (   0.0000000   0.0658944   0.0000000), wk =   0.0277778
        k(    6) = (   0.0000000   0.0823680   0.0000000), wk =   0.0277778
        k(    7) = (   0.0000000  -0.0988416   0.0000000), wk =   0.0138889
        k(    8) = (   0.0143246   0.0082368   0.0000000), wk =   0.0277778
        k(    9) = (   0.0143246   0.0247104   0.0000000), wk =   0.0277778
        k(   10) = (   0.0143246   0.0411840   0.0000000), wk =   0.0277778
        k(   11) = (   0.0143246   0.0576576   0.0000000), wk =   0.0277778
        k(   12) = (   0.0143246   0.0741312   0.0000000), wk =   0.0277778
        k(   13) = (   0.0143246   0.0906048   0.0000000), wk =   0.0277778
        k(   14) = (   0.0143246  -0.0906048   0.0000000), wk =   0.0277778
        k(   15) = (   0.0143246  -0.0741312   0.0000000), wk =   0.0277778
        k(   16) = (   0.0143246  -0.0576576   0.0000000), wk =   0.0277778
        k(   17) = (   0.0143246  -0.0411840   0.0000000), wk =   0.0277778
        k(   18) = (   0.0143246  -0.0247104   0.0000000), wk =   0.0277778
        k(   19) = (   0.0143246  -0.0082368   0.0000000), wk =   0.0277778
        k(   20) = (   0.0286492   0.0164736   0.0000000), wk =   0.0277778
        k(   21) = (   0.0286492   0.0329472   0.0000000), wk =   0.0277778
        k(   22) = (   0.0286492   0.0494208   0.0000000), wk =   0.0277778
        k(   23) = (   0.0286492   0.0658944   0.0000000), wk =   0.0277778
        k(   24) = (   0.0286492   0.0823680   0.0000000), wk =   0.0277778
        k(   25) = (   0.0286492   0.0988416   0.0000000), wk =   0.0277778
        k(   26) = (   0.0286492  -0.0823680   0.0000000), wk =   0.0277778
        k(   27) = (   0.0286492  -0.0658944   0.0000000), wk =   0.0277778
        k(   28) = (   0.0286492  -0.0494208   0.0000000), wk =   0.0277778
        k(   29) = (   0.0286492  -0.0329472   0.0000000), wk =   0.0277778
        k(   30) = (   0.0286492  -0.0164736   0.0000000), wk =   0.0277778
        k(   31) = (   0.0286492  -0.0000000   0.0000000), wk =   0.0277778
        k(   32) = (   0.0429738   0.0247104   0.0000000), wk =   0.0277778
        k(   33) = (   0.0429738   0.0411840   0.0000000), wk =   0.0277778
        k(   34) = (   0.0429738   0.0576576   0.0000000), wk =   0.0277778
        k(   35) = (   0.0429738   0.0741312   0.0000000), wk =   0.0277778
        k(   36) = (   0.0429738   0.0906048   0.0000000), wk =   0.0277778
        k(   37) = (   0.0429738   0.1070784   0.0000000), wk =   0.0277778
        k(   38) = (   0.0429738  -0.0741312   0.0000000), wk =   0.0277778
        k(   39) = (   0.0429738  -0.0576576   0.0000000), wk =   0.0277778
        k(   40) = (   0.0429738  -0.0411840   0.0000000), wk =   0.0277778
        k(   41) = (   0.0429738  -0.0247104   0.0000000), wk =   0.0277778
        k(   42) = (   0.0429738  -0.0082368   0.0000000), wk =   0.0277778
        k(   43) = (   0.0429738   0.0082368   0.0000000), wk =   0.0277778
        k(   44) = (   0.0572984   0.0329472   0.0000000), wk =   0.0277778
        k(   45) = (   0.0572984   0.0494208   0.0000000), wk =   0.0277778
        k(   46) = (   0.0572984   0.0658944   0.0000000), wk =   0.0277778
        k(   47) = (   0.0572984   0.0823680   0.0000000), wk =   0.0277778
        k(   48) = (   0.0572984   0.0988416   0.0000000), wk =   0.0277778
        k(   49) = (   0.0572984   0.1153152   0.0000000), wk =   0.0277778
        k(   50) = (   0.0572984  -0.0658944   0.0000000), wk =   0.0277778
        k(   51) = (   0.0572984  -0.0494208   0.0000000), wk =   0.0277778
        k(   52) = (   0.0572984  -0.0329472   0.0000000), wk =   0.0277778
        k(   53) = (   0.0572984  -0.0164736   0.0000000), wk =   0.0277778
        k(   54) = (   0.0572984   0.0000000   0.0000000), wk =   0.0277778
        k(   55) = (   0.0572984   0.0164736   0.0000000), wk =   0.0277778
        k(   56) = (   0.0716230   0.0411840   0.0000000), wk =   0.0277778
        k(   57) = (   0.0716230   0.0576576   0.0000000), wk =   0.0277778
        k(   58) = (   0.0716230   0.0741312   0.0000000), wk =   0.0277778
        k(   59) = (   0.0716230   0.0906048   0.0000000), wk =   0.0277778
        k(   60) = (   0.0716230   0.1070784   0.0000000), wk =   0.0277778
        k(   61) = (   0.0716230   0.1235520   0.0000000), wk =   0.0277778
        k(   62) = (   0.0716230  -0.0576576   0.0000000), wk =   0.0277778
        k(   63) = (   0.0716230  -0.0411840   0.0000000), wk =   0.0277778
        k(   64) = (   0.0716230  -0.0247104   0.0000000), wk =   0.0277778
        k(   65) = (   0.0716230  -0.0082368   0.0000000), wk =   0.0277778
        k(   66) = (   0.0716230   0.0082368   0.0000000), wk =   0.0277778
        k(   67) = (   0.0716230   0.0247104   0.0000000), wk =   0.0277778
        k(   68) = (  -0.0859476  -0.0494208   0.0000000), wk =   0.0138889
        k(   69) = (  -0.0859476  -0.0329472   0.0000000), wk =   0.0277778
        k(   70) = (  -0.0859476  -0.0164736   0.0000000), wk =   0.0277778
        k(   71) = (  -0.0859476   0.0000000   0.0000000), wk =   0.0277778
        k(   72) = (  -0.0859476   0.0164736   0.0000000), wk =   0.0277778
        k(   73) = (  -0.0859476   0.0329472   0.0000000), wk =   0.0277778
        k(   74) = (  -0.0859476  -0.1482624   0.0000000), wk =   0.0138889

     Initial potential from superposition of free atoms

     starting charge  149.99405, renormalised to  150.00000

     negative rho (up, down):  1.627E-03 0.000E+00

     %%%%%%%%%%%%%%%%%%%%%%%%%%%%%%%%%%%%%%%%%%%%%%%%%%%%%%%%%%%%%%%%%%%%%%%%
     %                                                                      %
     % You are using vdW-DF, which was implemented by the Thonhauser group. %
     % Please cite the following two papers that made this development      %
     % possible and the two reviews that describe the various versions:     %
     %                                                                      %
     %   T. Thonhauser et al., PRL 115, 136402 (2015).                      %
     %   T. Thonhauser et al., PRB 76, 125112 (2007).                       %
     %   K. Berland et al., Rep. Prog. Phys. 78, 066501 (2015).             %
     %   D.C. Langreth et al., J. Phys.: Condens. Matter 21, 084203 (2009). %
     %                                                                      %
     %                                                                      %
     % If you are calculating the stress with vdW-DF, please also cite:     %
     %                                                                      %
     %   R. Sabatini et al., J. Phys.: Condens. Matter 24, 424209 (2012).   %
     %                                                                      %
     %%%%%%%%%%%%%%%%%%%%%%%%%%%%%%%%%%%%%%%%%%%%%%%%%%%%%%%%%%%%%%%%%%%%%%%%

     Adding external electric field

     Computed dipole along edir(3) :
        Dipole               -0.0018 Ry au,         -0.0047 Debye
        Dipole field         -0.0000 Ry au,

        Potential amp.        0.0004 Ry
        Total length         45.6191 bohr

     Starting wfcs are  114 randomized atomic wfcs

     Self-consistent Calculation

     iteration #  1     ecut=    55.12 Ry     beta= 0.10
     Davidson diagonalization with overlap
     ethr =  1.00E-02,  avg # of iterations =  2.0

[...]

     total energy              =   -1480.05740373 Ry
     estimated scf accuracy    <      27.59904992 Ry

[...]

     iteration # 12     ecut=    55.12 Ry     beta= 0.10
     Davidson diagonalization with overlap
     c_bands:  2 eigenvalues not converged
     c_bands:  1 eigenvalues not converged
     c_bands:  1 eigenvalues not converged
     c_bands:  1 eigenvalues not converged
     c_bands:  1 eigenvalues not converged
     c_bands:  1 eigenvalues not converged
     c_bands:  1 eigenvalues not converged
     c_bands:  1 eigenvalues not converged
     c_bands:  1 eigenvalues not converged
     c_bands:  1 eigenvalues not converged
     c_bands:  1 eigenvalues not converged
     c_bands:  1 eigenvalues not converged
     c_bands:  1 eigenvalues not converged
     c_bands:  1 eigenvalues not converged
     c_bands:  2 eigenvalues not converged
     c_bands:  1 eigenvalues not converged
     c_bands:  1 eigenvalues not converged
     c_bands:  1 eigenvalues not converged
     c_bands:  1 eigenvalues not converged
     ethr =  2.54E-05,  avg # of iterations = 14.2

[...]

     iteration # 17     ecut=    55.12 Ry     beta= 0.10
     Davidson diagonalization with overlap
     c_bands:  1 eigenvalues not converged
     ethr =  9.47E-07,  avg # of iterations =  5.6

[...]

     total energy              =   -1483.74583494 Ry
     estimated scf accuracy    <       0.00002667 Ry

     iteration # 23     ecut=    55.12 Ry     beta= 0.10
     Davidson diagonalization with overlap
     ethr =  1.78E-08,  avg # of iterations =  5.1

[...]

     Adding external electric field

     Computed dipole along edir(3) :
        Dipole               -0.0059 Ry au,         -0.0150 Debye
        Dipole field         -0.0000 Ry au,

        Potential amp.        0.0014 Ry
        Total length         45.6191 bohr

     End of self-consistent calculation

          k = 0.0000 0.0000 0.0000 ( 33945 PWs)   bands (ev):

   -63.5090 -63.4882 -63.3813 -63.3575 -62.2558 -62.2351 -38.3530 -38.3269
   -37.4661 -37.4457 -37.3056 -37.2844 -37.2431 -37.1343 -37.0624 -37.0420
   -37.0370 -36.8999 -36.4659 -36.4178 -36.3978 -36.2763 -34.6291 -34.6131
    -7.9585  -7.5225  -7.4508  -7.3223  -7.3154  -7.1691  -7.0865  -6.9266
    -6.8942  -6.8791  -6.7610  -6.5708  -6.4936  -6.3622  -6.2759  -6.2228
    -6.1385  -6.0746  -6.0689  -5.9894  -5.9210  -5.8987  -5.8313  -5.6958
    -5.6949  -5.6777  -5.5120  -5.3688  -5.3099  -5.2497  -5.2100  -4.8822
    -3.2194  -2.1052  -1.4447  -1.1877  -1.1230  -0.7536  -0.5213  -0.4161
    -0.2538  -0.2031  -0.1328  -0.0430   0.3882   0.5516   0.6477   0.8905
     0.8910   0.9824   1.3510   1.3593   1.4180   1.5627   1.5766   1.7477
     2.0215   2.0487   2.1258   2.1488   2.1744   2.2462   2.3450   2.5866
     2.7966   2.8084

[...]

          k = 0.0716 0.0247 0.0000 ( 33981 PWs)   bands (ev):

[...]

          k =-0.0859-0.0494 0.0000 ( 33960 PWs)   bands (ev):

[...]

          k =-0.0859-0.1483 0.0000 ( 33960 PWs)   bands (ev):

   -63.4987 -63.4985 -63.3696 -63.3692 -62.2455 -62.2454 -38.3402 -38.3398
   -37.4560 -37.4558 -37.2956 -37.2955 -37.1435 -37.1433 -37.0502 -37.0500
   -37.0182 -37.0179 -36.4081 -36.4080 -36.3720 -36.3718 -34.6211 -34.6209
    -7.0917  -7.0916  -6.9016  -6.9016  -6.8175  -6.8174  -6.7236  -6.7236
    -6.6399  -6.6398  -6.3778  -6.3777  -6.3045  -6.3044  -6.1948  -6.1947
    -6.1112  -6.1109  -6.0809  -6.0807  -6.0336  -6.0322  -5.9682  -5.9673
    -5.8550  -5.8550  -5.7818  -5.7811  -5.7453  -5.7451  -5.4239  -5.4235
    -4.0568  -4.0560  -2.6096  -2.6090  -1.2626  -1.2625  -0.6580  -0.6580
    -0.2233  -0.2232   0.1034   0.1035   0.3331   0.3332   0.5909   0.5910
     0.8862   0.8863   1.0942   1.0943   1.1894   1.1894   1.4626   1.4627
     1.8566   1.8567   2.1591   2.1593   2.3897   2.3899   2.8302   2.8303
     3.1409   3.1411

     the Fermi energy is     1.0912 ev

!    total energy              =   -1483.74811682 Ry
     estimated scf accuracy    <       0.00000986 Ry
     smearing contrib. (-TS)   =      -0.06968288 Ry
     internal energy E=F+TS    =   -1483.67843394 Ry

     The total energy is F=E-TS. E is the sum of the following terms:
     one-electron contribution =  -11293.43277022 Ry
     hartree contribution      =    5684.12168483 Ry
     xc contribution           =    -327.96960846 Ry
     ewald contribution        =    4453.60225981 Ry
     electric field correction =       0.00000009 Ry

     convergence has been achieved in  23 iterations

     negative rho (up, down):  2.442E-03 0.000E+00

     Forces acting on atoms (cartesian axes, Ry/au):

     atom    1 type  1   force =    -0.00000230    0.01437060    0.03215571
     atom    2 type  1   force =    -0.00000114    0.01435763    0.03211424
     atom    3 type  2   force =     0.00000728   -0.00978521   -0.04733579
     atom    4 type  2   force =    -0.00000846   -0.00978749   -0.04733746
     atom    5 type  1   force =     0.00000417   -0.02055331   -0.01063382
     atom    6 type  1   force =    -0.00000309   -0.02065024   -0.01083166
     atom    7 type  2   force =     0.00008676    0.01255552    0.01383389
     atom    8 type  2   force =    -0.00009736    0.01255144    0.01382818
     atom    9 type  1   force =    -0.00000950    0.00455993    0.01205396
     atom   10 type  1   force =     0.00000811    0.00454906    0.01206916
     atom   11 type  2   force =    -0.00008890   -0.00108982    0.00003675
     atom   12 type  2   force =     0.00010444   -0.00107811    0.00004684

     Total force =     0.096244     Total SCF correction =     0.010138
     SCF correction compared to forces is large: reduce conv_thr to get better values

     Writing output data file ./V2Hg2/V2Hg2_beef.save/

     General routines

     Parallel routines

   This run was terminated on:  10:24: 9  25Jun2022

   JOB DONE.