     Program PWSCF v.6.6 starts on 25Jun2022 at 14: 2:55

     R & G space division:  proc/nbgrp/npool/nimage =      37
     Fft bands division:     nmany     =       1
     Reading input from V2Os2.in
Warning: card &CELL ignored
Warning: card / ignored

     Current dimensions of program PWSCF are:
     Max number of different atomic species (ntypx) = 10
     Max number of k-points (npk) =  40000
     Max angular momentum in pseudopotentials (lmaxx) =  3
     Presently stress not available with electric field and gates

     Message from routine cell_base_init:
     DEPRECATED: use true lattice parameter, not A to a.u. conversion factor
     file V.pbe-spnl-rrkjus_psl.1.0.0.UPF: wavefunction(s)  3P 3D renormalized

     IMPORTANT: XC functional enforced from input :
     Exchange-correlation= BEEF-VDW
                           (   1   4  43  14   2   0   0)
     Any further DFT definition will be discarded
     Please, verify this is what you really want

     Subspace diagonalization in iterative solution of the eigenvalue problem:
     a serial algorithm will be used

     bravais-lattice index     =            0
     lattice parameter (alat)  =       1.8897  a.u.
     unit-cell volume          =    4228.7231 (a.u.)^3
     number of atoms/cell      =           12
     number of atomic types    =            2
     number of electrons       =       174.00
     number of Kohn-Sham states=          104
     kinetic-energy cutoff     =      55.1240  Ry
     charge density cutoff     =     551.2396  Ry
     convergence threshold     =      1.0E-05
     mixing beta               =       0.1000
     number of iterations used =           10  plain     mixing
     Exchange-correlation= BEEF-VDW
                           (   1   4  43  14   2   0   0)

     celldm(1)=   1.889726  celldm(2)=   0.000000  celldm(3)=   0.000000
     celldm(4)=   0.000000  celldm(5)=   0.000000  celldm(6)=   0.000000

     crystal axes: (cart. coord. in units of alat)
               a(1) = (   5.233335   0.000000   0.000000 )
               a(2) = (   1.748007   4.932775   0.000000 )
               a(3) = (   0.000000   0.000000  24.274086 )

     reciprocal axes: (cart. coord. in units 2 pi/alat)
               b(1) = (  0.191083 -0.067713  0.000000 )
               b(2) = (  0.000000  0.202726  0.000000 )
               b(3) = (  0.000000  0.000000  0.041196 )

     PseudoPot. # 1 for V  read from file:
     ../pseudo/V.pbe-spnl-rrkjus_psl.1.0.0.UPF
     MD5 check sum: 79b3eb63147daf0b665d9f1bcc691206
     Pseudo is Ultrasoft + core correction, Zval = 13.0
     Generated using "atomic" code by A. Dal Corso v.6.2.2
     Using radial grid of 1181 points,  6 beta functions with:
                l(1) =   0
                l(2) =   0
                l(3) =   1
                l(4) =   1
                l(5) =   2
                l(6) =   2
     Q(r) pseudized with 0 coefficients

     PseudoPot. # 2 for Os read from file:
     ../pseudo/Os.pbe-spn-rrkjus_psl.1.0.0.UPF
     MD5 check sum: 3e7416ed594f6513d36e5cb31ba709d9
     Pseudo is Ultrasoft + core correction, Zval = 16.0
     Generated using "atomic" code by A. Dal Corso v.6.2.2
     Using radial grid of 1275 points,  6 beta functions with:
                l(1) =   0
                l(2) =   0
                l(3) =   1
                l(4) =   1
                l(5) =   2
                l(6) =   2
     Q(r) pseudized with 0 coefficients

     atomic species   valence    mass     pseudopotential
        V             13.00    50.94150     V ( 1.00)
        Os            16.00   190.23000     Os( 1.00)

     No symmetry found

   Cartesian axes

     site n.     atom                  positions (alat units)
         1           V   tau(   1) = (   0.0000000   0.0000000  10.0000000  )
         2           V   tau(   2) = (   3.4906709   2.4663875  10.0000000  )
         3           Os  tau(   3) = (   2.6166676   0.0000000  10.0000000  )
         4           Os  tau(   4) = (   0.8740034   2.4663875  10.0000000  )
         5           V   tau(   5) = (   5.2333351   3.6976938  12.1370428  )
         6           V   tau(   6) = (   1.7426642   1.2313063  12.1370428  )
         7           Os  tau(   7) = (   2.6166676   3.6976938  12.1370428  )
         8           Os  tau(   8) = (   4.3593317   1.2313063  12.1370428  )
         9           V   tau(   9) = (   3.4861309   2.4631818  14.3347571  )
        10           V   tau(  10) = (   6.9767528   4.9295302  14.3347483  )
        11           Os  tau(  11) = (   6.1027173   2.4631638  14.1253445  )
        12           Os  tau(  12) = (   4.3601032   4.9295010  14.1253495  )

     number of k points=    74  Fermi-Dirac smearing, width (Ry)=  0.0100
                       cart. coord. in units 2pi/alat
        k(    1) = (   0.0000000   0.0000000   0.0000000), wk =   0.0138889
        k(    2) = (   0.0000000   0.0168938   0.0000000), wk =   0.0277778
        k(    3) = (   0.0000000   0.0337876   0.0000000), wk =   0.0277778
        k(    4) = (   0.0000000   0.0506814   0.0000000), wk =   0.0277778
        k(    5) = (   0.0000000   0.0675752   0.0000000), wk =   0.0277778
        k(    6) = (   0.0000000   0.0844690   0.0000000), wk =   0.0277778
        k(    7) = (   0.0000000  -0.1013628   0.0000000), wk =   0.0138889
        k(    8) = (   0.0159236  -0.0056428   0.0000000), wk =   0.0277778
        k(    9) = (   0.0159236   0.0112510   0.0000000), wk =   0.0277778
        k(   10) = (   0.0159236   0.0281448   0.0000000), wk =   0.0277778
        k(   11) = (   0.0159236   0.0450386   0.0000000), wk =   0.0277778
        k(   12) = (   0.0159236   0.0619324   0.0000000), wk =   0.0277778
        k(   13) = (   0.0159236   0.0788263   0.0000000), wk =   0.0277778
        k(   14) = (   0.0159236  -0.1070056   0.0000000), wk =   0.0277778
        k(   15) = (   0.0159236  -0.0901118   0.0000000), wk =   0.0277778
        k(   16) = (   0.0159236  -0.0732180   0.0000000), wk =   0.0277778
        k(   17) = (   0.0159236  -0.0563242   0.0000000), wk =   0.0277778
        k(   18) = (   0.0159236  -0.0394304   0.0000000), wk =   0.0277778
        k(   19) = (   0.0159236  -0.0225366   0.0000000), wk =   0.0277778
        k(   20) = (   0.0318471  -0.0112855   0.0000000), wk =   0.0277778
        k(   21) = (   0.0318471   0.0056083   0.0000000), wk =   0.0277778
        k(   22) = (   0.0318471   0.0225021   0.0000000), wk =   0.0277778
        k(   23) = (   0.0318471   0.0393959   0.0000000), wk =   0.0277778
        k(   24) = (   0.0318471   0.0562897   0.0000000), wk =   0.0277778
        k(   25) = (   0.0318471   0.0731835   0.0000000), wk =   0.0277778
        k(   26) = (   0.0318471  -0.1126484   0.0000000), wk =   0.0277778
        k(   27) = (   0.0318471  -0.0957546   0.0000000), wk =   0.0277778
        k(   28) = (   0.0318471  -0.0788607   0.0000000), wk =   0.0277778
        k(   29) = (   0.0318471  -0.0619669   0.0000000), wk =   0.0277778
        k(   30) = (   0.0318471  -0.0450731   0.0000000), wk =   0.0277778
        k(   31) = (   0.0318471  -0.0281793   0.0000000), wk =   0.0277778
        k(   32) = (   0.0477707  -0.0169283   0.0000000), wk =   0.0277778
        k(   33) = (   0.0477707  -0.0000345   0.0000000), wk =   0.0277778
        k(   34) = (   0.0477707   0.0168593   0.0000000), wk =   0.0277778
        k(   35) = (   0.0477707   0.0337531   0.0000000), wk =   0.0277778
        k(   36) = (   0.0477707   0.0506469   0.0000000), wk =   0.0277778
        k(   37) = (   0.0477707   0.0675407   0.0000000), wk =   0.0277778
        k(   38) = (   0.0477707  -0.1182911   0.0000000), wk =   0.0277778
        k(   39) = (   0.0477707  -0.1013973   0.0000000), wk =   0.0277778
        k(   40) = (   0.0477707  -0.0845035   0.0000000), wk =   0.0277778
        k(   41) = (   0.0477707  -0.0676097   0.0000000), wk =   0.0277778
        k(   42) = (   0.0477707  -0.0507159   0.0000000), wk =   0.0277778
        k(   43) = (   0.0477707  -0.0338221   0.0000000), wk =   0.0277778
        k(   44) = (   0.0636942  -0.0225711   0.0000000), wk =   0.0277778
        k(   45) = (   0.0636942  -0.0056773   0.0000000), wk =   0.0277778
        k(   46) = (   0.0636942   0.0112165   0.0000000), wk =   0.0277778
        k(   47) = (   0.0636942   0.0281103   0.0000000), wk =   0.0277778
        k(   48) = (   0.0636942   0.0450041   0.0000000), wk =   0.0277778
        k(   49) = (   0.0636942   0.0618980   0.0000000), wk =   0.0277778
        k(   50) = (   0.0636942  -0.1239339   0.0000000), wk =   0.0277778
        k(   51) = (   0.0636942  -0.1070401   0.0000000), wk =   0.0277778
        k(   52) = (   0.0636942  -0.0901463   0.0000000), wk =   0.0277778
        k(   53) = (   0.0636942  -0.0732525   0.0000000), wk =   0.0277778
        k(   54) = (   0.0636942  -0.0563587   0.0000000), wk =   0.0277778
        k(   55) = (   0.0636942  -0.0394649   0.0000000), wk =   0.0277778
        k(   56) = (   0.0796178  -0.0282138   0.0000000), wk =   0.0277778
        k(   57) = (   0.0796178  -0.0113200   0.0000000), wk =   0.0277778
        k(   58) = (   0.0796178   0.0055738   0.0000000), wk =   0.0277778
        k(   59) = (   0.0796178   0.0224676   0.0000000), wk =   0.0277778
        k(   60) = (   0.0796178   0.0393614   0.0000000), wk =   0.0277778
        k(   61) = (   0.0796178   0.0562552   0.0000000), wk =   0.0277778
        k(   62) = (   0.0796178  -0.1295767   0.0000000), wk =   0.0277778
        k(   63) = (   0.0796178  -0.1126829   0.0000000), wk =   0.0277778
        k(   64) = (   0.0796178  -0.0957890   0.0000000), wk =   0.0277778
        k(   65) = (   0.0796178  -0.0788952   0.0000000), wk =   0.0277778
        k(   66) = (   0.0796178  -0.0620014   0.0000000), wk =   0.0277778
        k(   67) = (   0.0796178  -0.0451076   0.0000000), wk =   0.0277778
        k(   68) = (  -0.0955414   0.0338566   0.0000000), wk =   0.0138889
        k(   69) = (  -0.0955414   0.0507504   0.0000000), wk =   0.0277778
        k(   70) = (  -0.0955414   0.0676442   0.0000000), wk =   0.0277778
        k(   71) = (  -0.0955414   0.0845380   0.0000000), wk =   0.0277778
        k(   72) = (  -0.0955414   0.1014318   0.0000000), wk =   0.0277778
        k(   73) = (  -0.0955414   0.1183256   0.0000000), wk =   0.0277778
        k(   74) = (  -0.0955414  -0.0675062   0.0000000), wk =   0.0138889

     Initial potential from superposition of free atoms

     starting charge  173.99309, renormalised to  174.00000

     negative rho (up, down):  1.116E-03 0.000E+00

     %%%%%%%%%%%%%%%%%%%%%%%%%%%%%%%%%%%%%%%%%%%%%%%%%%%%%%%%%%%%%%%%%%%%%%%%
     %                                                                      %
     % You are using vdW-DF, which was implemented by the Thonhauser group. %
     % Please cite the following two papers that made this development      %
     % possible and the two reviews that describe the various versions:     %
     %                                                                      %
     %   T. Thonhauser et al., PRL 115, 136402 (2015).                      %
     %   T. Thonhauser et al., PRB 76, 125112 (2007).                       %
     %   K. Berland et al., Rep. Prog. Phys. 78, 066501 (2015).             %
     %   D.C. Langreth et al., J. Phys.: Condens. Matter 21, 084203 (2009). %
     %                                                                      %
     %                                                                      %
     % If you are calculating the stress with vdW-DF, please also cite:     %
     %                                                                      %
     %   R. Sabatini et al., J. Phys.: Condens. Matter 24, 424209 (2012).   %
     %                                                                      %
     %%%%%%%%%%%%%%%%%%%%%%%%%%%%%%%%%%%%%%%%%%%%%%%%%%%%%%%%%%%%%%%%%%%%%%%%

     Adding external electric field

     Computed dipole along edir(3) :
        Dipole                0.0003 Ry au,          0.0008 Debye
        Dipole field          0.0000 Ry au,

        Potential amp.       -0.0001 Ry
        Total length         44.7246 bohr

     Starting wfcs are  120 randomized atomic wfcs

     Self-consistent Calculation

     iteration #  1     ecut=    55.12 Ry     beta= 0.10
     Davidson diagonalization with overlap
     ethr =  1.00E-02,  avg # of iterations =  2.4

[...]

     total energy              =   -2081.01215369 Ry
     estimated scf accuracy    <       3.09756556 Ry

[...]

     iteration # 11     ecut=    55.12 Ry     beta= 0.10
     Davidson diagonalization with overlap
     c_bands:  2 eigenvalues not converged
     c_bands:  2 eigenvalues not converged
     ethr =  5.50E-06,  avg # of iterations = 10.3

[...]

     iteration # 14     ecut=    55.12 Ry     beta= 0.10
     Davidson diagonalization with overlap
     c_bands:  1 eigenvalues not converged
     ethr =  2.09E-07,  avg # of iterations =  6.9

[...]

     total energy              =   -2081.33719972 Ry
     estimated scf accuracy    <       0.00001434 Ry

     iteration # 18     ecut=    55.12 Ry     beta= 0.10
     Davidson diagonalization with overlap
     ethr =  8.24E-09,  avg # of iterations =  5.0

[...]

     Adding external electric field

     Computed dipole along edir(3) :
        Dipole                0.0773 Ry au,          0.1964 Debye
        Dipole field          0.0002 Ry au,

        Potential amp.       -0.0205 Ry
        Total length         44.7246 bohr

     End of self-consistent calculation

          k = 0.0000 0.0000 0.0000 ( 29303 PWs)   bands (ev):

   -84.8963 -84.8891 -84.3338 -84.3267 -84.2760 -84.2690 -63.0814 -63.0673
   -62.8266 -62.8136 -62.8066 -62.7936 -44.3377 -44.2139 -44.1977 -44.1488
   -44.1473 -44.1367 -43.7694 -43.6682 -43.6287 -43.6080 -43.6063 -43.5923
   -43.5875 -43.5777 -43.5687 -43.5308 -43.5122 -43.4807 -36.9595 -36.8492
   -36.8466 -36.8376 -36.8044 -36.7889 -36.7216 -36.7104 -36.6698 -36.6622
   -36.5655 -36.5560 -36.5304 -36.5264 -36.5103 -36.5060 -36.4379 -36.4339
    -6.2969  -4.2231  -3.7226  -3.5806  -3.4852  -3.4819  -3.3604  -3.1509
    -3.1136  -3.0136  -2.2810  -2.2415  -1.8214  -1.5998  -1.4595  -1.4127
    -1.3395  -1.1668  -1.1369  -1.1321  -1.0031  -0.7166  -0.4287  -0.4019
     0.0393   0.1202   0.3273   0.6814   0.8873   1.1415   1.2094   1.3761
     1.6230   1.9201   2.0924   2.2115   2.4702   2.6157   2.7359   2.8411
     2.8441   2.8478   2.8737   2.8989   2.9492   2.9678   3.0371   3.1269
     3.1471   3.2463   3.4038   3.4695   3.4914   3.6902   3.7221   3.7510

[...]

          k = 0.0796-0.0451 0.0000 ( 29223 PWs)   bands (ev):

[...]

          k =-0.0955 0.0339 0.0000 ( 29174 PWs)   bands (ev):

[...]

          k =-0.0955-0.0675 0.0000 ( 29222 PWs)   bands (ev):

   -84.8962 -84.8892 -84.3338 -84.3267 -84.2759 -84.2690 -63.0822 -63.0680
   -62.8276 -62.8138 -62.8077 -62.7938 -44.3263 -44.1974 -44.1807 -44.1522
   -44.1445 -44.1292 -43.7581 -43.6559 -43.6119 -43.6076 -43.5979 -43.5947
   -43.5760 -43.5736 -43.5608 -43.5281 -43.5132 -43.4785 -36.9829 -36.8936
   -36.8687 -36.8441 -36.8048 -36.8032 -36.7170 -36.7038 -36.6726 -36.6603
   -36.5881 -36.5778 -36.5597 -36.5473 -36.5390 -36.5292 -36.4444 -36.4400
    -4.4882  -3.9438  -3.4272  -3.3452  -2.5182  -2.3489  -2.3259  -2.2470
    -2.2424  -1.9774  -1.7348  -1.6471  -1.6449  -1.6408  -1.3631  -1.2513
    -0.9023  -0.6792  -0.4442  -0.4342  -0.4226  -0.2681  -0.2455  -0.2201
    -0.1096   0.2342   0.4509   0.4920   0.5245   0.5760   0.7284   0.7854
     0.7936   0.8562   1.0800   1.1097   1.1518   1.3016   1.4907   1.5655
     1.7747   1.8995   2.0199   2.0268   2.0890   2.2178   2.2929   2.3646
     2.3770   2.4030   2.5464   2.6320   2.6907   2.8025   3.2237   3.3113

     the Fermi energy is     1.9879 ev

!    total energy              =   -2081.33812203 Ry
     estimated scf accuracy    <       0.00000587 Ry
     smearing contrib. (-TS)   =      -0.05999413 Ry
     internal energy E=F+TS    =   -2081.27812790 Ry

     The total energy is F=E-TS. E is the sum of the following terms:
     one-electron contribution =  -18079.68741121 Ry
     hartree contribution      =    9022.82698173 Ry
     xc contribution           =    -362.34644118 Ry
     ewald contribution        =    7337.92872502 Ry
     electric field correction =       0.00001774 Ry

     convergence has been achieved in  18 iterations

     negative rho (up, down):  1.202E-03 0.000E+00

     Forces acting on atoms (cartesian axes, Ry/au):

     atom    1 type  1   force =    -0.00018685   -0.00013345   -0.02447180
     atom    2 type  1   force =    -0.00019338   -0.00013530   -0.02446581
     atom    3 type  2   force =    -0.00006213   -0.00003503    0.05182416
     atom    4 type  2   force =    -0.00005192   -0.00004285    0.05182655
     atom    5 type  1   force =     0.00006479    0.00004386   -0.02308649
     atom    6 type  1   force =     0.00006801    0.00004736   -0.02308814
     atom    7 type  2   force =    -0.00009634   -0.00011262   -0.00546926
     atom    8 type  2   force =    -0.00013595   -0.00005304   -0.00547108
     atom    9 type  1   force =     0.00014129    0.00009804    0.00027564
     atom   10 type  1   force =     0.00014846    0.00010613    0.00026183
     atom   11 type  2   force =     0.00016091    0.00009267    0.00093361
     atom   12 type  2   force =     0.00014313    0.00012421    0.00093077

     Total force =     0.087734     Total SCF correction =     0.011586
     SCF correction compared to forces is large: reduce conv_thr to get better values

     Writing output data file ./V2Os2/V2Os2_beef.save/

     General routines

     Parallel routines

   This run was terminated on:  15:27:15  25Jun2022

   JOB DONE.