     Program PWSCF v.6.6 starts on 25Jun2022 at 15:27:19

     R & G space division:  proc/nbgrp/npool/nimage =      37
     Fft bands division:     nmany     =       1
     Reading input from V2Pd2.in
Warning: card &CELL ignored
Warning: card / ignored

     Current dimensions of program PWSCF are:
     Max number of different atomic species (ntypx) = 10
     Max number of k-points (npk) =  40000
     Max angular momentum in pseudopotentials (lmaxx) =  3
     Presently stress not available with electric field and gates

     Message from routine cell_base_init:
     DEPRECATED: use true lattice parameter, not A to a.u. conversion factor
     file V.pbe-spnl-rrkjus_psl.1.0.0.UPF: wavefunction(s)  3P 3D renormalized
     file Pd.pbe-n-rrkjus_psl.1.0.0.UPF: wavefunction(s)  4D renormalized

     IMPORTANT: XC functional enforced from input :
     Exchange-correlation= BEEF-VDW
                           (   1   4  43  14   2   0   0)
     Any further DFT definition will be discarded
     Please, verify this is what you really want

     Subspace diagonalization in iterative solution of the eigenvalue problem:
     a serial algorithm will be used

     Found symmetry operation: I + ( -0.5000  0.0000  0.0000)
     This is a supercell, fractional translations are disabled

     bravais-lattice index     =            0
     lattice parameter (alat)  =       1.8897  a.u.
     unit-cell volume          =    4264.4101 (a.u.)^3
     number of atoms/cell      =           12
     number of atomic types    =            2
     number of electrons       =       138.00
     number of Kohn-Sham states=           83
     kinetic-energy cutoff     =      55.1240  Ry
     charge density cutoff     =     551.2396  Ry
     convergence threshold     =      1.0E-05
     mixing beta               =       0.1000
     number of iterations used =           10  plain     mixing
     Exchange-correlation= BEEF-VDW
                           (   1   4  43  14   2   0   0)

     celldm(1)=   1.889726  celldm(2)=   0.000000  celldm(3)=   0.000000
     celldm(4)=   0.000000  celldm(5)=   0.000000  celldm(6)=   0.000000

     crystal axes: (cart. coord. in units of alat)
               a(1) = (   5.402779   0.000000   0.000000 )
               a(2) = (  -2.701390   4.782127   0.000000 )
               a(3) = (   0.000000   0.000000  24.458180 )

     reciprocal axes: (cart. coord. in units 2 pi/alat)
               b(1) = (  0.185090  0.104556 -0.000000 )
               b(2) = (  0.000000  0.209112  0.000000 )
               b(3) = (  0.000000 -0.000000  0.040886 )

     PseudoPot. # 1 for V  read from file:
     ../pseudo/V.pbe-spnl-rrkjus_psl.1.0.0.UPF
     MD5 check sum: 79b3eb63147daf0b665d9f1bcc691206
     Pseudo is Ultrasoft + core correction, Zval = 13.0
     Generated using "atomic" code by A. Dal Corso v.6.2.2
     Using radial grid of 1181 points,  6 beta functions with:
                l(1) =   0
                l(2) =   0
                l(3) =   1
                l(4) =   1
                l(5) =   2
                l(6) =   2
     Q(r) pseudized with 0 coefficients

     PseudoPot. # 2 for Pd read from file:
     ../pseudo/Pd.pbe-n-rrkjus_psl.1.0.0.UPF
     MD5 check sum: d9f693bf1c5b493397a6bd6f2231cfc3
     Pseudo is Ultrasoft + core correction, Zval = 10.0
     Generated using "atomic" code by A. Dal Corso v.6.3
     Using radial grid of 1235 points,  6 beta functions with:
                l(1) =   0
                l(2) =   0
                l(3) =   1
                l(4) =   1
                l(5) =   2
                l(6) =   2
     Q(r) pseudized with 0 coefficients

     atomic species   valence    mass     pseudopotential
        V             13.00    50.94150     V ( 1.00)
        Pd            10.00   106.42000     Pd( 1.00)

     No symmetry found

   Cartesian axes

     site n.     atom                  positions (alat units)
         1           V   tau(   1) = (   0.0000000   0.0000000  10.0000000  )
         2           V   tau(   2) = (   2.7013897   0.0000000  10.0000000  )
         3           Pd  tau(   3) = (   1.3506949   2.3910636  10.0000000  )
         4           Pd  tau(   4) = (  -1.3506949   2.3910636  10.0000000  )
         5           V   tau(   5) = (   2.7013897   1.5259959  12.2290902  )
         6           V   tau(   6) = (   0.0000000   1.5259959  12.2290902  )
         7           Pd  tau(   7) = (  -1.3506949   3.9170595  12.2290902  )
         8           Pd  tau(   8) = (   1.3506949   3.9170595  12.2290902  )
         9           V   tau(   9) = (  -0.0000002   3.0232652  14.2915299  )
        10           V   tau(  10) = (   2.7013896   3.0232718  14.2915271  )
        11           Pd  tau(  11) = (   4.0520979   0.7385394  14.4824256  )
        12           Pd  tau(  12) = (   1.3506813   0.7385397  14.4824263  )

     number of k points=    74  Fermi-Dirac smearing, width (Ry)=  0.0100
                       cart. coord. in units 2pi/alat
        k(    1) = (   0.0000000   0.0000000   0.0000000), wk =   0.0138889
        k(    2) = (   0.0000000   0.0174260   0.0000000), wk =   0.0277778
        k(    3) = (   0.0000000   0.0348520   0.0000000), wk =   0.0277778
        k(    4) = (   0.0000000   0.0522780   0.0000000), wk =   0.0277778
        k(    5) = (   0.0000000   0.0697040   0.0000000), wk =   0.0277778
        k(    6) = (   0.0000000   0.0871300   0.0000000), wk =   0.0277778
        k(    7) = (   0.0000000  -0.1045560   0.0000000), wk =   0.0138889
        k(    8) = (   0.0154242   0.0087130   0.0000000), wk =   0.0277778
        k(    9) = (   0.0154242   0.0261390   0.0000000), wk =   0.0277778
        k(   10) = (   0.0154242   0.0435650   0.0000000), wk =   0.0277778
        k(   11) = (   0.0154242   0.0609910   0.0000000), wk =   0.0277778
        k(   12) = (   0.0154242   0.0784170   0.0000000), wk =   0.0277778
        k(   13) = (   0.0154242   0.0958430   0.0000000), wk =   0.0277778
        k(   14) = (   0.0154242  -0.0958430   0.0000000), wk =   0.0277778
        k(   15) = (   0.0154242  -0.0784170   0.0000000), wk =   0.0277778
        k(   16) = (   0.0154242  -0.0609910   0.0000000), wk =   0.0277778
        k(   17) = (   0.0154242  -0.0435650   0.0000000), wk =   0.0277778
        k(   18) = (   0.0154242  -0.0261390   0.0000000), wk =   0.0277778
        k(   19) = (   0.0154242  -0.0087130   0.0000000), wk =   0.0277778
        k(   20) = (   0.0308483   0.0174260   0.0000000), wk =   0.0277778
        k(   21) = (   0.0308483   0.0348520   0.0000000), wk =   0.0277778
        k(   22) = (   0.0308483   0.0522780   0.0000000), wk =   0.0277778
        k(   23) = (   0.0308483   0.0697040   0.0000000), wk =   0.0277778
        k(   24) = (   0.0308483   0.0871300   0.0000000), wk =   0.0277778
        k(   25) = (   0.0308483   0.1045560   0.0000000), wk =   0.0277778
        k(   26) = (   0.0308483  -0.0871300   0.0000000), wk =   0.0277778
        k(   27) = (   0.0308483  -0.0697040   0.0000000), wk =   0.0277778
        k(   28) = (   0.0308483  -0.0522780   0.0000000), wk =   0.0277778
        k(   29) = (   0.0308483  -0.0348520   0.0000000), wk =   0.0277778
        k(   30) = (   0.0308483  -0.0174260   0.0000000), wk =   0.0277778
        k(   31) = (   0.0308483   0.0000000   0.0000000), wk =   0.0277778
        k(   32) = (   0.0462725   0.0261390   0.0000000), wk =   0.0277778
        k(   33) = (   0.0462725   0.0435650   0.0000000), wk =   0.0277778
        k(   34) = (   0.0462725   0.0609910   0.0000000), wk =   0.0277778
        k(   35) = (   0.0462725   0.0784170   0.0000000), wk =   0.0277778
        k(   36) = (   0.0462725   0.0958430   0.0000000), wk =   0.0277778
        k(   37) = (   0.0462725   0.1132690   0.0000000), wk =   0.0277778
        k(   38) = (   0.0462725  -0.0784170   0.0000000), wk =   0.0277778
        k(   39) = (   0.0462725  -0.0609910   0.0000000), wk =   0.0277778
        k(   40) = (   0.0462725  -0.0435650   0.0000000), wk =   0.0277778
        k(   41) = (   0.0462725  -0.0261390   0.0000000), wk =   0.0277778
        k(   42) = (   0.0462725  -0.0087130   0.0000000), wk =   0.0277778
        k(   43) = (   0.0462725   0.0087130   0.0000000), wk =   0.0277778
        k(   44) = (   0.0616966   0.0348520   0.0000000), wk =   0.0277778
        k(   45) = (   0.0616966   0.0522780   0.0000000), wk =   0.0277778
        k(   46) = (   0.0616966   0.0697040   0.0000000), wk =   0.0277778
        k(   47) = (   0.0616966   0.0871300   0.0000000), wk =   0.0277778
        k(   48) = (   0.0616966   0.1045560   0.0000000), wk =   0.0277778
        k(   49) = (   0.0616966   0.1219820   0.0000000), wk =   0.0277778
        k(   50) = (   0.0616966  -0.0697040   0.0000000), wk =   0.0277778
        k(   51) = (   0.0616966  -0.0522780   0.0000000), wk =   0.0277778
        k(   52) = (   0.0616966  -0.0348520   0.0000000), wk =   0.0277778
        k(   53) = (   0.0616966  -0.0174260   0.0000000), wk =   0.0277778
        k(   54) = (   0.0616966   0.0000000   0.0000000), wk =   0.0277778
        k(   55) = (   0.0616966   0.0174260   0.0000000), wk =   0.0277778
        k(   56) = (   0.0771208   0.0435650   0.0000000), wk =   0.0277778
        k(   57) = (   0.0771208   0.0609910   0.0000000), wk =   0.0277778
        k(   58) = (   0.0771208   0.0784170   0.0000000), wk =   0.0277778
        k(   59) = (   0.0771208   0.0958430   0.0000000), wk =   0.0277778
        k(   60) = (   0.0771208   0.1132690   0.0000000), wk =   0.0277778
        k(   61) = (   0.0771208   0.1306950   0.0000000), wk =   0.0277778
        k(   62) = (   0.0771208  -0.0609910   0.0000000), wk =   0.0277778
        k(   63) = (   0.0771208  -0.0435650   0.0000000), wk =   0.0277778
        k(   64) = (   0.0771208  -0.0261390   0.0000000), wk =   0.0277778
        k(   65) = (   0.0771208  -0.0087130   0.0000000), wk =   0.0277778
        k(   66) = (   0.0771208   0.0087130   0.0000000), wk =   0.0277778
        k(   67) = (   0.0771208   0.0261390   0.0000000), wk =   0.0277778
        k(   68) = (  -0.0925450  -0.0522780   0.0000000), wk =   0.0138889
        k(   69) = (  -0.0925450  -0.0348520   0.0000000), wk =   0.0277778
        k(   70) = (  -0.0925450  -0.0174260   0.0000000), wk =   0.0277778
        k(   71) = (  -0.0925450  -0.0000000   0.0000000), wk =   0.0277778
        k(   72) = (  -0.0925450   0.0174260   0.0000000), wk =   0.0277778
        k(   73) = (  -0.0925450   0.0348520   0.0000000), wk =   0.0277778
        k(   74) = (  -0.0925450  -0.1568340   0.0000000), wk =   0.0138889

     Initial potential from superposition of free atoms

     starting charge  137.99112, renormalised to  138.00000

     negative rho (up, down):  1.411E-03 0.000E+00

     %%%%%%%%%%%%%%%%%%%%%%%%%%%%%%%%%%%%%%%%%%%%%%%%%%%%%%%%%%%%%%%%%%%%%%%%
     %                                                                      %
     % You are using vdW-DF, which was implemented by the Thonhauser group. %
     % Please cite the following two papers that made this development      %
     % possible and the two reviews that describe the various versions:     %
     %                                                                      %
     %   T. Thonhauser et al., PRL 115, 136402 (2015).                      %
     %   T. Thonhauser et al., PRB 76, 125112 (2007).                       %
     %   K. Berland et al., Rep. Prog. Phys. 78, 066501 (2015).             %
     %   D.C. Langreth et al., J. Phys.: Condens. Matter 21, 084203 (2009). %
     %                                                                      %
     %                                                                      %
     % If you are calculating the stress with vdW-DF, please also cite:     %
     %                                                                      %
     %   R. Sabatini et al., J. Phys.: Condens. Matter 24, 424209 (2012).   %
     %                                                                      %
     %%%%%%%%%%%%%%%%%%%%%%%%%%%%%%%%%%%%%%%%%%%%%%%%%%%%%%%%%%%%%%%%%%%%%%%%

     Adding external electric field

     Computed dipole along edir(3) :
        Dipole               -0.0001 Ry au,         -0.0001 Debye
        Dipole field         -0.0000 Ry au,

        Potential amp.        0.0000 Ry
        Total length         45.0638 bohr

     Starting wfcs are  114 randomized atomic wfcs

     Self-consistent Calculation

     iteration #  1     ecut=    55.12 Ry     beta= 0.10
     Davidson diagonalization with overlap
     ethr =  1.00E-02,  avg # of iterations =  2.0

[...]

     total energy              =   -1287.77249565 Ry
     estimated scf accuracy    <       7.04450884 Ry

[...]

     iteration #  9     ecut=    55.12 Ry     beta= 0.10
     Davidson diagonalization with overlap
     c_bands:  1 eigenvalues not converged
     c_bands:  1 eigenvalues not converged
     c_bands:  2 eigenvalues not converged
     c_bands:  1 eigenvalues not converged
     c_bands:  1 eigenvalues not converged
     c_bands:  2 eigenvalues not converged
     c_bands:  1 eigenvalues not converged
     c_bands:  1 eigenvalues not converged
     c_bands:  2 eigenvalues not converged
     c_bands:  2 eigenvalues not converged
     c_bands:  1 eigenvalues not converged
     c_bands:  1 eigenvalues not converged
     c_bands:  1 eigenvalues not converged
     c_bands:  2 eigenvalues not converged
     ethr =  1.57E-05,  avg # of iterations = 13.1

[...]

     iteration # 19     ecut=    55.12 Ry     beta= 0.10
     Davidson diagonalization with overlap
     c_bands:  1 eigenvalues not converged
     c_bands:  1 eigenvalues not converged
     ethr =  2.64E-08,  avg # of iterations =  8.5

[...]

     total energy              =   -1288.57659095 Ry
     estimated scf accuracy    <       0.00002305 Ry

     iteration # 20     ecut=    55.12 Ry     beta= 0.10
     Davidson diagonalization with overlap
     ethr =  1.67E-08,  avg # of iterations =  2.4

[...]

     Adding external electric field

     Computed dipole along edir(3) :
        Dipole               -0.0249 Ry au,         -0.0632 Debye
        Dipole field         -0.0001 Ry au,

        Potential amp.        0.0066 Ry
        Total length         45.0638 bohr

     End of self-consistent calculation

          k = 0.0000 0.0000 0.0000 ( 29437 PWs)   bands (ev):

   -63.8488 -63.7984 -63.7979 -63.7480 -63.7464 -63.6974 -37.7773 -37.7708
   -37.7302 -37.7239 -37.6894 -37.6772 -37.6531 -37.6486 -37.6476 -37.6280
   -37.6263 -37.6018 -37.5802 -37.3583 -37.2946 -37.2554 -37.2468 -37.2198
    -5.9134  -4.5893  -4.4834  -4.4342  -4.4308  -4.3307  -4.0699  -3.8637
    -3.7867  -3.7655  -3.7501  -3.6451  -3.6364  -3.5443  -3.0258  -2.9264
    -2.6382  -2.4913  -2.3885  -2.3596  -2.2354  -2.0269  -1.9644  -1.9526
    -1.8840  -1.7047  -1.5104  -1.3792  -1.3711  -0.8469  -0.6611  -0.3445
    -0.2514  -0.2242  -0.1524  -0.0333   0.2355   0.2530   0.2989   0.5670
     0.6704   0.7992   0.8054   0.8769   1.2502   1.2704   1.3588   1.3748
     1.4322   1.4707   1.7962   1.9312   2.0110   2.1501   2.1532   2.2532
     2.4227   2.4235   2.4902

[...]

          k = 0.0771 0.0261 0.0000 ( 29515 PWs)   bands (ev):

[...]

          k =-0.0925-0.0523 0.0000 ( 29512 PWs)   bands (ev):

[...]

          k =-0.0925-0.1568 0.0000 ( 29512 PWs)   bands (ev):

   -63.8233 -63.8233 -63.7725 -63.7723 -63.7229 -63.7226 -37.7548 -37.7548
   -37.7010 -37.7010 -37.6697 -37.6696 -37.6259 -37.6258 -37.6049 -37.6047
   -37.5673 -37.5669 -37.4527 -37.4527 -37.4272 -37.4266 -37.2753 -37.2752
    -4.3714  -4.3713  -3.7976  -3.7976  -3.6350  -3.6349  -3.5621  -3.5621
    -3.2929  -3.2929  -3.1193  -3.1192  -3.0339  -3.0339  -2.7130  -2.7130
    -2.5169  -2.5168  -2.4378  -2.4378  -2.1848  -2.1848  -2.1401  -2.1400
    -2.0485  -2.0484  -1.9333  -1.9333  -1.7799  -1.7799  -1.6810  -1.6810
    -1.4289  -1.4289  -0.4170  -0.4170   0.0572   0.0572   0.1029   0.1029
     0.2836   0.2836   0.5749   0.5749   0.9377   0.9377   1.0831   1.0832
     1.1701   1.1701   1.2851   1.2852   1.3459   1.3460   1.3914   1.3914
     1.6811   1.6811   2.1334

     the Fermi energy is     0.7628 ev

!    total energy              =   -1288.57774571 Ry
     estimated scf accuracy    <       0.00000678 Ry
     smearing contrib. (-TS)   =      -0.08058319 Ry
     internal energy E=F+TS    =   -1288.49716253 Ry

     The total energy is F=E-TS. E is the sum of the following terms:
     one-electron contribution =  -11236.68176241 Ry
     hartree contribution      =    5652.21291911 Ry
     xc contribution           =    -260.98817116 Ry
     ewald contribution        =    4556.95985011 Ry
     electric field correction =       0.00000182 Ry

     convergence has been achieved in  20 iterations

     negative rho (up, down):  1.586E-03 0.000E+00

     Forces acting on atoms (cartesian axes, Ry/au):

     atom    1 type  1   force =     0.00000016    0.01491138    0.02540464
     atom    2 type  1   force =    -0.00000188    0.01488896    0.02536423
     atom    3 type  2   force =     0.00000411   -0.02407343   -0.01341777
     atom    4 type  2   force =    -0.00000419   -0.02407174   -0.01341860
     atom    5 type  1   force =     0.00000102    0.00112781   -0.00391639
     atom    6 type  1   force =    -0.00000039    0.00112945   -0.00390046
     atom    7 type  2   force =     0.00000919    0.00911554   -0.00861410
     atom    8 type  2   force =    -0.00000968    0.00911493   -0.00861477
     atom    9 type  1   force =     0.00000344   -0.00003493    0.00003042
     atom   10 type  1   force =    -0.00000135   -0.00000914    0.00005466
     atom   11 type  2   force =    -0.00001589   -0.00104928    0.00051410
     atom   12 type  2   force =     0.00001549   -0.00104955    0.00051403

     Total force =     0.060019     Total SCF correction =     0.009419
     SCF correction compared to forces is large: reduce conv_thr to get better values

     Writing output data file ./V2Pd2/V2Pd2_beef.save/

     General routines

     Parallel routines

   This run was terminated on:  16:32:12  25Jun2022

   JOB DONE.