     Program PWSCF v.6.6 starts on 25Jun2022 at 16:32:17

     R & G space division:  proc/nbgrp/npool/nimage =      37
     Fft bands division:     nmany     =       1
     Reading input from V2Pt2.in
Warning: card &CELL ignored
Warning: card / ignored

     Current dimensions of program PWSCF are:
     Max number of different atomic species (ntypx) = 10
     Max number of k-points (npk) =  40000
     Max angular momentum in pseudopotentials (lmaxx) =  3
     Presently stress not available with electric field and gates

     Message from routine cell_base_init:
     DEPRECATED: use true lattice parameter, not A to a.u. conversion factor
     file V.pbe-spnl-rrkjus_psl.1.0.0.UPF: wavefunction(s)  3P 3D renormalized
     file Pt.pbe-n-rrkjus_psl.1.0.0.UPF: wavefunction(s)  6S renormalized

     IMPORTANT: XC functional enforced from input :
     Exchange-correlation= BEEF-VDW
                           (   1   4  43  14   2   0   0)
     Any further DFT definition will be discarded
     Please, verify this is what you really want

     Subspace diagonalization in iterative solution of the eigenvalue problem:
     a serial algorithm will be used

     bravais-lattice index     =            0
     lattice parameter (alat)  =       1.8897  a.u.
     unit-cell volume          =    4255.7249 (a.u.)^3
     number of atoms/cell      =           12
     number of atomic types    =            2
     number of electrons       =       138.00
     number of Kohn-Sham states=           83
     kinetic-energy cutoff     =      55.1240  Ry
     charge density cutoff     =     551.2396  Ry
     convergence threshold     =      1.0E-05
     mixing beta               =       0.1000
     number of iterations used =           10  plain     mixing
     Exchange-correlation= BEEF-VDW
                           (   1   4  43  14   2   0   0)

     celldm(1)=   1.889726  celldm(2)=   0.000000  celldm(3)=   0.000000
     celldm(4)=   0.000000  celldm(5)=   0.000000  celldm(6)=   0.000000

     crystal axes: (cart. coord. in units of alat)
               a(1) = (   5.417548   0.000000   0.000000 )
               a(2) = (  -2.708774   4.760034   0.000000 )
               a(3) = (   0.000000   0.000000  24.454805 )

     reciprocal axes: (cart. coord. in units 2 pi/alat)
               b(1) = (  0.184585  0.105041 -0.000000 )
               b(2) = (  0.000000  0.210083  0.000000 )
               b(3) = (  0.000000 -0.000000  0.040892 )

     PseudoPot. # 1 for V  read from file:
     ../pseudo/V.pbe-spnl-rrkjus_psl.1.0.0.UPF
     MD5 check sum: 79b3eb63147daf0b665d9f1bcc691206
     Pseudo is Ultrasoft + core correction, Zval = 13.0
     Generated using "atomic" code by A. Dal Corso v.6.2.2
     Using radial grid of 1181 points,  6 beta functions with:
                l(1) =   0
                l(2) =   0
                l(3) =   1
                l(4) =   1
                l(5) =   2
                l(6) =   2
     Q(r) pseudized with 0 coefficients

     PseudoPot. # 2 for Pt read from file:
     ../pseudo/Pt.pbe-n-rrkjus_psl.1.0.0.UPF
     MD5 check sum: 6bc887cfe28d63a5fc1f72d35a7d3ef7
     Pseudo is Ultrasoft + core correction, Zval = 10.0
     Generated using "atomic" code by A. Dal Corso v.6.3
     Using radial grid of 1277 points,  6 beta functions with:
                l(1) =   0
                l(2) =   0
                l(3) =   1
                l(4) =   1
                l(5) =   2
                l(6) =   2
     Q(r) pseudized with 0 coefficients

     atomic species   valence    mass     pseudopotential
        V             13.00    50.94150     V ( 1.00)
        Pt            10.00   195.08400     Pt( 1.00)

     No symmetry found

   Cartesian axes

     site n.     atom                  positions (alat units)
         1           V   tau(   1) = (   0.0000000   0.0000000  10.0000000  )
         2           V   tau(   2) = (   2.7087742   0.0000000  10.0000000  )
         3           Pt  tau(   3) = (   1.3543871   2.3800170  10.0000000  )
         4           Pt  tau(   4) = (  -1.3543871   2.3800170  10.0000000  )
         5           V   tau(   5) = (   2.7087742   1.5414716  12.2274027  )
         6           V   tau(   6) = (  -0.0000000   1.5414716  12.2274027  )
         7           Pt  tau(   7) = (  -1.3543871   3.9214886  12.2274027  )
         8           Pt  tau(   8) = (   1.3543871   3.9214886  12.2274027  )
         9           V   tau(   9) = (  -0.0000000   3.1507941  14.3521920  )
        10           V   tau(  10) = (   2.7087742   3.1508233  14.3521791  )
        11           Pt  tau(  11) = (   4.0632572   0.8787669  14.4264858  )
        12           Pt  tau(  12) = (   1.3542907   0.8787671  14.4264858  )

     number of k points=    74  Fermi-Dirac smearing, width (Ry)=  0.0100
                       cart. coord. in units 2pi/alat
        k(    1) = (   0.0000000   0.0000000   0.0000000), wk =   0.0138889
        k(    2) = (   0.0000000   0.0175069   0.0000000), wk =   0.0277778
        k(    3) = (   0.0000000   0.0350138   0.0000000), wk =   0.0277778
        k(    4) = (   0.0000000   0.0525206   0.0000000), wk =   0.0277778
        k(    5) = (   0.0000000   0.0700275   0.0000000), wk =   0.0277778
        k(    6) = (   0.0000000   0.0875344   0.0000000), wk =   0.0277778
        k(    7) = (   0.0000000  -0.1050413   0.0000000), wk =   0.0138889
        k(    8) = (   0.0153821   0.0087534   0.0000000), wk =   0.0277778
        k(    9) = (   0.0153821   0.0262603   0.0000000), wk =   0.0277778
        k(   10) = (   0.0153821   0.0437672   0.0000000), wk =   0.0277778
        k(   11) = (   0.0153821   0.0612741   0.0000000), wk =   0.0277778
        k(   12) = (   0.0153821   0.0787809   0.0000000), wk =   0.0277778
        k(   13) = (   0.0153821   0.0962878   0.0000000), wk =   0.0277778
        k(   14) = (   0.0153821  -0.0962878   0.0000000), wk =   0.0277778
        k(   15) = (   0.0153821  -0.0787809   0.0000000), wk =   0.0277778
        k(   16) = (   0.0153821  -0.0612741   0.0000000), wk =   0.0277778
        k(   17) = (   0.0153821  -0.0437672   0.0000000), wk =   0.0277778
        k(   18) = (   0.0153821  -0.0262603   0.0000000), wk =   0.0277778
        k(   19) = (   0.0153821  -0.0087534   0.0000000), wk =   0.0277778
        k(   20) = (   0.0307642   0.0175069   0.0000000), wk =   0.0277778
        k(   21) = (   0.0307642   0.0350138   0.0000000), wk =   0.0277778
        k(   22) = (   0.0307642   0.0525206   0.0000000), wk =   0.0277778
        k(   23) = (   0.0307642   0.0700275   0.0000000), wk =   0.0277778
        k(   24) = (   0.0307642   0.0875344   0.0000000), wk =   0.0277778
        k(   25) = (   0.0307642   0.1050413   0.0000000), wk =   0.0277778
        k(   26) = (   0.0307642  -0.0875344   0.0000000), wk =   0.0277778
        k(   27) = (   0.0307642  -0.0700275   0.0000000), wk =   0.0277778
        k(   28) = (   0.0307642  -0.0525206   0.0000000), wk =   0.0277778
        k(   29) = (   0.0307642  -0.0350138   0.0000000), wk =   0.0277778
        k(   30) = (   0.0307642  -0.0175069   0.0000000), wk =   0.0277778
        k(   31) = (   0.0307642  -0.0000000   0.0000000), wk =   0.0277778
        k(   32) = (   0.0461463   0.0262603   0.0000000), wk =   0.0277778
        k(   33) = (   0.0461463   0.0437672   0.0000000), wk =   0.0277778
        k(   34) = (   0.0461463   0.0612741   0.0000000), wk =   0.0277778
        k(   35) = (   0.0461463   0.0787809   0.0000000), wk =   0.0277778
        k(   36) = (   0.0461463   0.0962878   0.0000000), wk =   0.0277778
        k(   37) = (   0.0461463   0.1137947   0.0000000), wk =   0.0277778
        k(   38) = (   0.0461463  -0.0787809   0.0000000), wk =   0.0277778
        k(   39) = (   0.0461463  -0.0612741   0.0000000), wk =   0.0277778
        k(   40) = (   0.0461463  -0.0437672   0.0000000), wk =   0.0277778
        k(   41) = (   0.0461463  -0.0262603   0.0000000), wk =   0.0277778
        k(   42) = (   0.0461463  -0.0087534   0.0000000), wk =   0.0277778
        k(   43) = (   0.0461463   0.0087534   0.0000000), wk =   0.0277778
        k(   44) = (   0.0615285   0.0350138   0.0000000), wk =   0.0277778
        k(   45) = (   0.0615285   0.0525206   0.0000000), wk =   0.0277778
        k(   46) = (   0.0615285   0.0700275   0.0000000), wk =   0.0277778
        k(   47) = (   0.0615285   0.0875344   0.0000000), wk =   0.0277778
        k(   48) = (   0.0615285   0.1050413   0.0000000), wk =   0.0277778
        k(   49) = (   0.0615285   0.1225481   0.0000000), wk =   0.0277778
        k(   50) = (   0.0615285  -0.0700275   0.0000000), wk =   0.0277778
        k(   51) = (   0.0615285  -0.0525206   0.0000000), wk =   0.0277778
        k(   52) = (   0.0615285  -0.0350138   0.0000000), wk =   0.0277778
        k(   53) = (   0.0615285  -0.0175069   0.0000000), wk =   0.0277778
        k(   54) = (   0.0615285   0.0000000   0.0000000), wk =   0.0277778
        k(   55) = (   0.0615285   0.0175069   0.0000000), wk =   0.0277778
        k(   56) = (   0.0769106   0.0437672   0.0000000), wk =   0.0277778
        k(   57) = (   0.0769106   0.0612741   0.0000000), wk =   0.0277778
        k(   58) = (   0.0769106   0.0787809   0.0000000), wk =   0.0277778
        k(   59) = (   0.0769106   0.0962878   0.0000000), wk =   0.0277778
        k(   60) = (   0.0769106   0.1137947   0.0000000), wk =   0.0277778
        k(   61) = (   0.0769106   0.1313016   0.0000000), wk =   0.0277778
        k(   62) = (   0.0769106  -0.0612741   0.0000000), wk =   0.0277778
        k(   63) = (   0.0769106  -0.0437672   0.0000000), wk =   0.0277778
        k(   64) = (   0.0769106  -0.0262603   0.0000000), wk =   0.0277778
        k(   65) = (   0.0769106  -0.0087534   0.0000000), wk =   0.0277778
        k(   66) = (   0.0769106   0.0087534   0.0000000), wk =   0.0277778
        k(   67) = (   0.0769106   0.0262603   0.0000000), wk =   0.0277778
        k(   68) = (  -0.0922927  -0.0525206   0.0000000), wk =   0.0138889
        k(   69) = (  -0.0922927  -0.0350138   0.0000000), wk =   0.0277778
        k(   70) = (  -0.0922927  -0.0175069   0.0000000), wk =   0.0277778
        k(   71) = (  -0.0922927   0.0000000   0.0000000), wk =   0.0277778
        k(   72) = (  -0.0922927   0.0175069   0.0000000), wk =   0.0277778
        k(   73) = (  -0.0922927   0.0350138   0.0000000), wk =   0.0277778
        k(   74) = (  -0.0922927  -0.1575619   0.0000000), wk =   0.0138889

     Initial potential from superposition of free atoms

     starting charge  137.99353, renormalised to  138.00000

     negative rho (up, down):  1.213E-03 0.000E+00

     %%%%%%%%%%%%%%%%%%%%%%%%%%%%%%%%%%%%%%%%%%%%%%%%%%%%%%%%%%%%%%%%%%%%%%%%
     %                                                                      %
     % You are using vdW-DF, which was implemented by the Thonhauser group. %
     % Please cite the following two papers that made this development      %
     % possible and the two reviews that describe the various versions:     %
     %                                                                      %
     %   T. Thonhauser et al., PRL 115, 136402 (2015).                      %
     %   T. Thonhauser et al., PRB 76, 125112 (2007).                       %
     %   K. Berland et al., Rep. Prog. Phys. 78, 066501 (2015).             %
     %   D.C. Langreth et al., J. Phys.: Condens. Matter 21, 084203 (2009). %
     %                                                                      %
     %                                                                      %
     % If you are calculating the stress with vdW-DF, please also cite:     %
     %                                                                      %
     %   R. Sabatini et al., J. Phys.: Condens. Matter 24, 424209 (2012).   %
     %                                                                      %
     %%%%%%%%%%%%%%%%%%%%%%%%%%%%%%%%%%%%%%%%%%%%%%%%%%%%%%%%%%%%%%%%%%%%%%%%

     Adding external electric field

     Computed dipole along edir(3) :
        Dipole               -0.0001 Ry au,         -0.0002 Debye
        Dipole field         -0.0000 Ry au,

        Potential amp.        0.0000 Ry
        Total length         45.0576 bohr

     Starting wfcs are  114 randomized atomic wfcs

     Self-consistent Calculation

     iteration #  1     ecut=    55.12 Ry     beta= 0.10
     Davidson diagonalization with overlap
     ethr =  1.00E-02,  avg # of iterations =  2.0

[...]

     total energy              =   -1273.66095059 Ry
     estimated scf accuracy    <       8.99685751 Ry

[...]

     iteration #  9     ecut=    55.12 Ry     beta= 0.10
     Davidson diagonalization with overlap
     c_bands:  2 eigenvalues not converged
     c_bands:  3 eigenvalues not converged
     c_bands:  1 eigenvalues not converged
     c_bands:  1 eigenvalues not converged
     c_bands:  1 eigenvalues not converged
     c_bands:  2 eigenvalues not converged
     c_bands:  1 eigenvalues not converged
     c_bands:  1 eigenvalues not converged
     c_bands:  1 eigenvalues not converged
     c_bands:  1 eigenvalues not converged
     c_bands:  3 eigenvalues not converged
     c_bands:  1 eigenvalues not converged
     c_bands:  1 eigenvalues not converged
     c_bands:  2 eigenvalues not converged
     c_bands:  1 eigenvalues not converged
     c_bands:  1 eigenvalues not converged
     c_bands:  1 eigenvalues not converged
     c_bands:  1 eigenvalues not converged
     c_bands:  2 eigenvalues not converged
     c_bands:  1 eigenvalues not converged
     c_bands:  1 eigenvalues not converged
     c_bands:  1 eigenvalues not converged
     ethr =  4.24E-05,  avg # of iterations = 14.5

[...]

     iteration # 17     ecut=    55.12 Ry     beta= 0.10
     Davidson diagonalization with overlap
     c_bands:  1 eigenvalues not converged
     c_bands:  1 eigenvalues not converged
     c_bands:  1 eigenvalues not converged
     c_bands:  2 eigenvalues not converged
     ethr =  2.75E-07,  avg # of iterations =  7.1

[...]

     total energy              =   -1274.70303609 Ry
     estimated scf accuracy    <       0.00001525 Ry

     iteration # 22     ecut=    55.12 Ry     beta= 0.10
     Davidson diagonalization with overlap
     ethr =  1.11E-08,  avg # of iterations =  5.6

[...]

     Adding external electric field

     Computed dipole along edir(3) :
        Dipole               -0.0116 Ry au,         -0.0295 Debye
        Dipole field         -0.0000 Ry au,

        Potential amp.        0.0031 Ry
        Total length         45.0576 bohr

     End of self-consistent calculation

          k = 0.0000 0.0000 0.0000 ( 29337 PWs)   bands (ev):

   -63.5658 -63.5433 -63.5205 -63.5151 -63.4940 -63.4715 -37.5301 -37.4939
   -37.4583 -37.4509 -37.4485 -37.4155 -37.4060 -37.3911 -37.3526 -37.3483
   -37.3441 -37.3437 -37.3007 -37.1258 -37.1116 -37.0725 -36.9541 -36.9509
    -7.2580  -5.5653  -5.3034  -5.1409  -4.8139  -4.7786  -4.5042  -4.4462
    -4.4063  -4.0994  -4.0379  -4.0150  -3.8899  -3.8099  -3.2619  -3.1688
    -2.7683  -2.4508  -2.4445  -2.2654  -2.1811  -2.1614  -1.8336  -1.7669
    -1.6836  -1.6488  -1.5445  -1.1120  -1.0220  -0.4016  -0.1457  -0.0979
     0.0180   0.0757   0.2625   0.4101   0.5226   0.5456   0.6557   0.7026
     1.0515   1.3095   1.3757   1.3803   1.5513   1.6936   1.7321   1.7534
     2.0246   2.2233   2.3214   2.4038   2.4156   2.5028   2.6158   2.6186
     2.6399   2.6546   2.6970

[...]

          k = 0.0769 0.0263 0.0000 ( 29454 PWs)   bands (ev):

[...]

          k =-0.0923-0.0525 0.0000 ( 29454 PWs)   bands (ev):

[...]

          k =-0.0923-0.1576 0.0000 ( 29454 PWs)   bands (ev):

   -63.5403 -63.5403 -63.5187 -63.5186 -63.4960 -63.4960 -37.4730 -37.4730
   -37.4390 -37.4389 -37.4272 -37.4271 -37.3699 -37.3699 -37.3322 -37.3322
   -37.3230 -37.3229 -37.1557 -37.1557 -37.1535 -37.1534 -37.0924 -37.0923
    -5.4550  -5.4550  -4.3026  -4.3025  -3.9299  -3.9298  -3.8880  -3.8880
    -3.5557  -3.5556  -3.4713  -3.4713  -3.2329  -3.2328  -2.9679  -2.9677
    -2.6257  -2.6253  -2.4944  -2.4943  -2.2946  -2.2945  -2.1958  -2.1954
    -2.1621  -2.1617  -1.9793  -1.9788  -1.8941  -1.8941  -1.6063  -1.6062
    -1.3188  -1.3186  -0.1242  -0.1241   0.2424   0.2425   0.3850   0.3850
     0.5947   0.5947   0.9196   0.9196   1.1939   1.1940   1.5064   1.5064
     1.5378   1.5378   1.6388   1.6389   1.6891   1.6892   1.8476   1.8476
     2.1992   2.1993   2.3194

     the Fermi energy is     1.1110 ev

!    total energy              =   -1274.70353160 Ry
     estimated scf accuracy    <       0.00000471 Ry
     smearing contrib. (-TS)   =      -0.06946349 Ry
     internal energy E=F+TS    =   -1274.63406811 Ry

     The total energy is F=E-TS. E is the sum of the following terms:
     one-electron contribution =  -11178.07051945 Ry
     hartree contribution      =    5619.68220524 Ry
     xc contribution           =    -274.78545573 Ry
     ewald contribution        =    4558.53970143 Ry
     electric field correction =       0.00000040 Ry

     convergence has been achieved in  22 iterations

     negative rho (up, down):  1.296E-03 0.000E+00

     Forces acting on atoms (cartesian axes, Ry/au):

     atom    1 type  1   force =     0.00000146    0.01715740    0.01794076
     atom    2 type  1   force =    -0.00000185    0.01715762    0.01798044
     atom    3 type  2   force =    -0.00000977   -0.03762697   -0.00903601
     atom    4 type  2   force =    -0.00000259   -0.03762097   -0.00904441
     atom    5 type  1   force =     0.00000455    0.00742631   -0.01193745
     atom    6 type  1   force =    -0.00000021    0.00749410   -0.01189064
     atom    7 type  2   force =    -0.00005414    0.01229860   -0.00511064
     atom    8 type  2   force =     0.00005487    0.01228808   -0.00510948
     atom    9 type  1   force =     0.00000076   -0.00032412    0.00261770
     atom   10 type  1   force =     0.00000120   -0.00035588    0.00263435
     atom   11 type  2   force =    -0.00009015    0.00104980    0.00547716
     atom   12 type  2   force =     0.00009586    0.00105604    0.00547822

     Total force =     0.071095     Total SCF correction =     0.007765
     SCF correction compared to forces is large: reduce conv_thr to get better values

     Writing output data file ./V2Pt2/V2Pt2_beef.save/

     General routines

     Parallel routines

   This run was terminated on:  17:43: 9  25Jun2022

   JOB DONE.