     Program PWSCF v.6.6 starts on 25Jun2022 at 17:43:15

     R & G space division:  proc/nbgrp/npool/nimage =      37
     Fft bands division:     nmany     =       1
     Reading input from V2Re2.in
Warning: card &CELL ignored
Warning: card / ignored

     Current dimensions of program PWSCF are:
     Max number of different atomic species (ntypx) = 10
     Max number of k-points (npk) =  40000
     Max angular momentum in pseudopotentials (lmaxx) =  3
     Presently stress not available with electric field and gates

     Message from routine cell_base_init:
     DEPRECATED: use true lattice parameter, not A to a.u. conversion factor
     file V.pbe-spnl-rrkjus_psl.1.0.0.UPF: wavefunction(s)  3P 3D renormalized

     IMPORTANT: XC functional enforced from input :
     Exchange-correlation= BEEF-VDW
                           (   1   4  43  14   2   0   0)
     Any further DFT definition will be discarded
     Please, verify this is what you really want

     Subspace diagonalization in iterative solution of the eigenvalue problem:
     a serial algorithm will be used

     Found symmetry operation: I + ( -0.5000 -0.5000  0.0000)
     This is a supercell, fractional translations are disabled

     bravais-lattice index     =            0
     lattice parameter (alat)  =       1.8897  a.u.
     unit-cell volume          =    4274.8310 (a.u.)^3
     number of atoms/cell      =           12
     number of atomic types    =            2
     number of electrons       =       168.00
     number of Kohn-Sham states=          101
     kinetic-energy cutoff     =      55.1240  Ry
     charge density cutoff     =     551.2396  Ry
     convergence threshold     =      1.0E-05
     mixing beta               =       0.1000
     number of iterations used =           10  plain     mixing
     Exchange-correlation= BEEF-VDW
                           (   1   4  43  14   2   0   0)

     celldm(1)=   1.889726  celldm(2)=   0.000000  celldm(3)=   0.000000
     celldm(4)=   0.000000  celldm(5)=   0.000000  celldm(6)=   0.000000

     crystal axes: (cart. coord. in units of alat)
               a(1) = (   5.259707   0.000000   0.000000 )
               a(2) = (   1.758431   4.957059   0.000000 )
               a(3) = (   0.000000   0.000000  24.296113 )

     reciprocal axes: (cart. coord. in units 2 pi/alat)
               b(1) = (  0.190125 -0.067443  0.000000 )
               b(2) = (  0.000000  0.201733  0.000000 )
               b(3) = (  0.000000  0.000000  0.041159 )

     PseudoPot. # 1 for V  read from file:
     ../pseudo/V.pbe-spnl-rrkjus_psl.1.0.0.UPF
     MD5 check sum: 79b3eb63147daf0b665d9f1bcc691206
     Pseudo is Ultrasoft + core correction, Zval = 13.0
     Generated using "atomic" code by A. Dal Corso v.6.2.2
     Using radial grid of 1181 points,  6 beta functions with:
                l(1) =   0
                l(2) =   0
                l(3) =   1
                l(4) =   1
                l(5) =   2
                l(6) =   2
     Q(r) pseudized with 0 coefficients

     PseudoPot. # 2 for Re read from file:
     ../pseudo/Re.pbe-spn-rrkjus_psl.1.0.0.UPF
     MD5 check sum: 1282f1ec51ad523723a04c61ae80a9e6
     Pseudo is Ultrasoft + core correction, Zval = 15.0
     Generated using "atomic" code by A. Dal Corso v.6.2.2
     Using radial grid of 1275 points,  6 beta functions with:
                l(1) =   0
                l(2) =   0
                l(3) =   1
                l(4) =   1
                l(5) =   2
                l(6) =   2
     Q(r) pseudized with 0 coefficients

     atomic species   valence    mass     pseudopotential
        V             13.00    50.94150     V ( 1.00)
        Re            15.00   186.20700     Re( 1.00)

     No symmetry found

   Cartesian axes

     site n.     atom                  positions (alat units)
         1           V   tau(   1) = (   0.0000000   0.0000000  10.0000000  )
         2           V   tau(   2) = (   3.5090691   2.4785295  10.0000000  )
         3           Re  tau(   3) = (   2.6298534   0.0000000  10.0000000  )
         4           Re  tau(   4) = (   0.8792157   2.4785295  10.0000000  )
         5           V   tau(   5) = (   5.2597067   3.7150418  12.1480563  )
         6           V   tau(   6) = (   1.7506377   1.2365123  12.1480563  )
         7           Re  tau(   7) = (   2.6298534   3.7150418  12.1480563  )
         8           Re  tau(   8) = (   4.3804910   1.2365123  12.1480563  )
         9           V   tau(   9) = (   3.5031840   2.4743720  14.2647785  )
        10           V   tau(  10) = (   7.0122542   4.9529014  14.2647855  )
        11           Re  tau(  11) = (   6.1330808   2.4744119  14.1942575  )
        12           Re  tau(  12) = (   4.3824561   4.9529404  14.1942576  )

     number of k points=    74  Fermi-Dirac smearing, width (Ry)=  0.0100
                       cart. coord. in units 2pi/alat
        k(    1) = (   0.0000000   0.0000000   0.0000000), wk =   0.0138889
        k(    2) = (   0.0000000   0.0168110   0.0000000), wk =   0.0277778
        k(    3) = (   0.0000000   0.0336221   0.0000000), wk =   0.0277778
        k(    4) = (   0.0000000   0.0504331   0.0000000), wk =   0.0277778
        k(    5) = (   0.0000000   0.0672442   0.0000000), wk =   0.0277778
        k(    6) = (   0.0000000   0.0840552   0.0000000), wk =   0.0277778
        k(    7) = (   0.0000000  -0.1008663   0.0000000), wk =   0.0138889
        k(    8) = (   0.0158437  -0.0056203   0.0000000), wk =   0.0277778
        k(    9) = (   0.0158437   0.0111908   0.0000000), wk =   0.0277778
        k(   10) = (   0.0158437   0.0280018   0.0000000), wk =   0.0277778
        k(   11) = (   0.0158437   0.0448128   0.0000000), wk =   0.0277778
        k(   12) = (   0.0158437   0.0616239   0.0000000), wk =   0.0277778
        k(   13) = (   0.0158437   0.0784349   0.0000000), wk =   0.0277778
        k(   14) = (   0.0158437  -0.1064865   0.0000000), wk =   0.0277778
        k(   15) = (   0.0158437  -0.0896755   0.0000000), wk =   0.0277778
        k(   16) = (   0.0158437  -0.0728645   0.0000000), wk =   0.0277778
        k(   17) = (   0.0158437  -0.0560534   0.0000000), wk =   0.0277778
        k(   18) = (   0.0158437  -0.0392424   0.0000000), wk =   0.0277778
        k(   19) = (   0.0158437  -0.0224313   0.0000000), wk =   0.0277778
        k(   20) = (   0.0316874  -0.0112406   0.0000000), wk =   0.0277778
        k(   21) = (   0.0316874   0.0055705   0.0000000), wk =   0.0277778
        k(   22) = (   0.0316874   0.0223815   0.0000000), wk =   0.0277778
        k(   23) = (   0.0316874   0.0391926   0.0000000), wk =   0.0277778
        k(   24) = (   0.0316874   0.0560036   0.0000000), wk =   0.0277778
        k(   25) = (   0.0316874   0.0728146   0.0000000), wk =   0.0277778
        k(   26) = (   0.0316874  -0.1121068   0.0000000), wk =   0.0277778
        k(   27) = (   0.0316874  -0.0952958   0.0000000), wk =   0.0277778
        k(   28) = (   0.0316874  -0.0784847   0.0000000), wk =   0.0277778
        k(   29) = (   0.0316874  -0.0616737   0.0000000), wk =   0.0277778
        k(   30) = (   0.0316874  -0.0448627   0.0000000), wk =   0.0277778
        k(   31) = (   0.0316874  -0.0280516   0.0000000), wk =   0.0277778
        k(   32) = (   0.0475312  -0.0168609   0.0000000), wk =   0.0277778
        k(   33) = (   0.0475312  -0.0000498   0.0000000), wk =   0.0277778
        k(   34) = (   0.0475312   0.0167612   0.0000000), wk =   0.0277778
        k(   35) = (   0.0475312   0.0335723   0.0000000), wk =   0.0277778
        k(   36) = (   0.0475312   0.0503833   0.0000000), wk =   0.0277778
        k(   37) = (   0.0475312   0.0671944   0.0000000), wk =   0.0277778
        k(   38) = (   0.0475312  -0.1177271   0.0000000), wk =   0.0277778
        k(   39) = (   0.0475312  -0.1009161   0.0000000), wk =   0.0277778
        k(   40) = (   0.0475312  -0.0841050   0.0000000), wk =   0.0277778
        k(   41) = (   0.0475312  -0.0672940   0.0000000), wk =   0.0277778
        k(   42) = (   0.0475312  -0.0504829   0.0000000), wk =   0.0277778
        k(   43) = (   0.0475312  -0.0336719   0.0000000), wk =   0.0277778
        k(   44) = (   0.0633749  -0.0224811   0.0000000), wk =   0.0277778
        k(   45) = (   0.0633749  -0.0056701   0.0000000), wk =   0.0277778
        k(   46) = (   0.0633749   0.0111409   0.0000000), wk =   0.0277778
        k(   47) = (   0.0633749   0.0279520   0.0000000), wk =   0.0277778
        k(   48) = (   0.0633749   0.0447630   0.0000000), wk =   0.0277778
        k(   49) = (   0.0633749   0.0615741   0.0000000), wk =   0.0277778
        k(   50) = (   0.0633749  -0.1233474   0.0000000), wk =   0.0277778
        k(   51) = (   0.0633749  -0.1065364   0.0000000), wk =   0.0277778
        k(   52) = (   0.0633749  -0.0897253   0.0000000), wk =   0.0277778
        k(   53) = (   0.0633749  -0.0729143   0.0000000), wk =   0.0277778
        k(   54) = (   0.0633749  -0.0561032   0.0000000), wk =   0.0277778
        k(   55) = (   0.0633749  -0.0392922   0.0000000), wk =   0.0277778
        k(   56) = (   0.0792186  -0.0281014   0.0000000), wk =   0.0277778
        k(   57) = (   0.0792186  -0.0112904   0.0000000), wk =   0.0277778
        k(   58) = (   0.0792186   0.0055207   0.0000000), wk =   0.0277778
        k(   59) = (   0.0792186   0.0223317   0.0000000), wk =   0.0277778
        k(   60) = (   0.0792186   0.0391427   0.0000000), wk =   0.0277778
        k(   61) = (   0.0792186   0.0559538   0.0000000), wk =   0.0277778
        k(   62) = (   0.0792186  -0.1289677   0.0000000), wk =   0.0277778
        k(   63) = (   0.0792186  -0.1121566   0.0000000), wk =   0.0277778
        k(   64) = (   0.0792186  -0.0953456   0.0000000), wk =   0.0277778
        k(   65) = (   0.0792186  -0.0785346   0.0000000), wk =   0.0277778
        k(   66) = (   0.0792186  -0.0617235   0.0000000), wk =   0.0277778
        k(   67) = (   0.0792186  -0.0449125   0.0000000), wk =   0.0277778
        k(   68) = (  -0.0950623   0.0337217   0.0000000), wk =   0.0138889
        k(   69) = (  -0.0950623   0.0505328   0.0000000), wk =   0.0277778
        k(   70) = (  -0.0950623   0.0673438   0.0000000), wk =   0.0277778
        k(   71) = (  -0.0950623   0.0841548   0.0000000), wk =   0.0277778
        k(   72) = (  -0.0950623   0.1009659   0.0000000), wk =   0.0277778
        k(   73) = (  -0.0950623   0.1177769   0.0000000), wk =   0.0277778
        k(   74) = (  -0.0950623  -0.0671445   0.0000000), wk =   0.0138889

     Initial potential from superposition of free atoms

     starting charge  167.99275, renormalised to  168.00000

     negative rho (up, down):  1.108E-03 0.000E+00

     %%%%%%%%%%%%%%%%%%%%%%%%%%%%%%%%%%%%%%%%%%%%%%%%%%%%%%%%%%%%%%%%%%%%%%%%
     %                                                                      %
     % You are using vdW-DF, which was implemented by the Thonhauser group. %
     % Please cite the following two papers that made this development      %
     % possible and the two reviews that describe the various versions:     %
     %                                                                      %
     %   T. Thonhauser et al., PRL 115, 136402 (2015).                      %
     %   T. Thonhauser et al., PRB 76, 125112 (2007).                       %
     %   K. Berland et al., Rep. Prog. Phys. 78, 066501 (2015).             %
     %   D.C. Langreth et al., J. Phys.: Condens. Matter 21, 084203 (2009). %
     %                                                                      %
     %                                                                      %
     % If you are calculating the stress with vdW-DF, please also cite:     %
     %                                                                      %
     %   R. Sabatini et al., J. Phys.: Condens. Matter 24, 424209 (2012).   %
     %                                                                      %
     %%%%%%%%%%%%%%%%%%%%%%%%%%%%%%%%%%%%%%%%%%%%%%%%%%%%%%%%%%%%%%%%%%%%%%%%

     Adding external electric field

     Computed dipole along edir(3) :
        Dipole                0.0001 Ry au,          0.0002 Debye
        Dipole field          0.0000 Ry au,

        Potential amp.       -0.0000 Ry
        Total length         44.7652 bohr

     Starting wfcs are  120 randomized atomic wfcs

     Self-consistent Calculation

     iteration #  1     ecut=    55.12 Ry     beta= 0.10
     Davidson diagonalization with overlap
     ethr =  1.00E-02,  avg # of iterations =  2.4

[...]

     total energy              =   -1953.01844648 Ry
     estimated scf accuracy    <       3.97579110 Ry

[...]

     iteration #  7     ecut=    55.12 Ry     beta= 0.10
     Davidson diagonalization with overlap
     c_bands:  1 eigenvalues not converged
     c_bands:  4 eigenvalues not converged
     c_bands:  1 eigenvalues not converged
     c_bands:  2 eigenvalues not converged
     c_bands:  1 eigenvalues not converged
     c_bands:  1 eigenvalues not converged
     c_bands:  3 eigenvalues not converged
     c_bands:  3 eigenvalues not converged
     c_bands:  1 eigenvalues not converged
     c_bands:  1 eigenvalues not converged
     c_bands:  1 eigenvalues not converged
     c_bands:  1 eigenvalues not converged
     ethr =  6.04E-05,  avg # of iterations = 12.6

[...]

     iteration # 20     ecut=    55.12 Ry     beta= 0.10
     Davidson diagonalization with overlap
     c_bands:  1 eigenvalues not converged
     c_bands:  1 eigenvalues not converged
     ethr =  7.92E-08,  avg # of iterations =  4.7

[...]

     total energy              =   -1953.34999934 Ry
     estimated scf accuracy    <       0.00001039 Ry

     iteration # 22     ecut=    55.12 Ry     beta= 0.10
     Davidson diagonalization with overlap
     ethr =  6.18E-09,  avg # of iterations =  2.7

[...]

     Adding external electric field

     Computed dipole along edir(3) :
        Dipole                0.0310 Ry au,          0.0789 Debye
        Dipole field          0.0001 Ry au,

        Potential amp.       -0.0082 Ry
        Total length         44.7652 bohr

     End of self-consistent calculation

          k = 0.0000 0.0000 0.0000 ( 29615 PWs)   bands (ev):

   -78.5901 -78.5795 -78.2613 -78.2513 -78.2182 -78.2082 -62.7192 -62.7059
   -62.5749 -62.5629 -62.5587 -62.5467 -40.4879 -40.4379 -40.4236 -40.3617
   -40.3415 -40.2192 -40.1045 -40.0794 -40.0537 -40.0268 -40.0176 -39.9992
   -39.9805 -39.9641 -39.9639 -39.9128 -39.8381 -39.8188 -36.5446 -36.5060
   -36.4902 -36.4864 -36.4742 -36.4707 -36.4515 -36.4356 -36.4271 -36.4041
   -36.2988 -36.2720 -36.2653 -36.2584 -36.2520 -36.2437 -36.1934 -36.1765
    -5.9796  -3.9842  -3.3625  -3.0661  -3.0621  -3.0335  -2.8745  -2.7097
    -2.7085  -2.6174  -1.8625  -1.8442  -1.4961  -1.0189  -0.8858  -0.8588
    -0.8584  -0.7822  -0.7515  -0.6484  -0.4325  -0.3301   0.0841   0.1091
     0.4507   0.7164   0.8727   1.1397   1.3553   1.4029   1.7760   1.7786
     2.1143   2.1215   2.5790   2.7756   2.9840   3.0435   3.2117   3.2286
     3.3073   3.3589   3.3798   3.4052   3.4808   3.5034   3.5446   3.5712
     3.5784   3.6408   3.6673   3.8199   3.8332

[...]

          k = 0.0792-0.0449 0.0000 ( 29521 PWs)   bands (ev):

[...]

          k =-0.0951 0.0337 0.0000 ( 29570 PWs)   bands (ev):

[...]

          k =-0.0951-0.0671 0.0000 ( 29502 PWs)   bands (ev):

   -78.5897 -78.5798 -78.2612 -78.2513 -78.2181 -78.2081 -62.7197 -62.7069
   -62.5762 -62.5628 -62.5600 -62.5466 -40.4591 -40.4013 -40.3689 -40.3561
   -40.3242 -40.2103 -40.0744 -40.0699 -40.0487 -40.0440 -40.0007 -39.9870
   -39.9559 -39.9352 -39.9171 -39.9031 -39.8323 -39.8131 -36.5868 -36.5836
   -36.5460 -36.5021 -36.4627 -36.4581 -36.4522 -36.4502 -36.4469 -36.3960
   -36.3429 -36.3188 -36.3144 -36.3079 -36.2904 -36.2898 -36.2050 -36.1881
    -4.0999  -3.6142  -2.9973  -2.9663  -1.9516  -1.8595  -1.8591  -1.8545
    -1.6134  -1.3770  -1.3486  -1.2736  -1.0627  -1.0492  -0.8123  -0.6531
    -0.4198  -0.1429  -0.1287  -0.0680   0.2307   0.2732   0.2987   0.4118
     0.5458   0.6434   0.7628   0.9446   1.0361   1.0792   1.0873   1.1338
     1.1987   1.2857   1.3676   1.4604   1.4615   1.4679   1.6402   2.0331
     2.3118   2.3547   2.3911   2.4881   2.5825   2.6035   2.6638   2.7104
     2.7952   2.8711   2.8966   2.9462   2.9693

     the Fermi energy is     1.8962 ev

!    total energy              =   -1953.35018519 Ry
     estimated scf accuracy    <       0.00000641 Ry
     smearing contrib. (-TS)   =      -0.05889242 Ry
     internal energy E=F+TS    =   -1953.29129277 Ry

     The total energy is F=E-TS. E is the sum of the following terms:
     one-electron contribution =  -16677.83900806 Ry
     hartree contribution      =    8323.52360847 Ry
     xc contribution           =    -372.19911179 Ry
     ewald contribution        =    6773.22321578 Ry
     electric field correction =       0.00000283 Ry

     convergence has been achieved in  22 iterations

     negative rho (up, down):  1.127E-03 0.000E+00

     Forces acting on atoms (cartesian axes, Ry/au):

     atom    1 type  1   force =    -0.00037986   -0.00026738    0.00481617
     atom    2 type  1   force =    -0.00038497   -0.00027132    0.00482725
     atom    3 type  2   force =    -0.00029922   -0.00020813    0.02860497
     atom    4 type  2   force =    -0.00030010   -0.00021378    0.02860728
     atom    5 type  1   force =     0.00012607    0.00008944   -0.01573617
     atom    6 type  1   force =     0.00012037    0.00008478   -0.01573466
     atom    7 type  2   force =     0.00013442    0.00006948   -0.01677933
     atom    8 type  2   force =     0.00010979    0.00010236   -0.01677632
     atom    9 type  1   force =     0.00023845    0.00016675   -0.00026794
     atom   10 type  1   force =     0.00023321    0.00016687   -0.00026641
     atom   11 type  2   force =     0.00020584    0.00013314   -0.00064642
     atom   12 type  2   force =     0.00019600    0.00014779   -0.00064842

     Total force =     0.052377     Total SCF correction =     0.010230
     SCF correction compared to forces is large: reduce conv_thr to get better values

     Writing output data file ./V2Re2/V2Re2_beef.save/

     General routines

     Parallel routines

   This run was terminated on:  18:55:24  25Jun2022

   JOB DONE.