     Program PWSCF v.6.6 starts on 25Jun2022 at 20:32: 1

     R & G space division:  proc/nbgrp/npool/nimage =      37
     Fft bands division:     nmany     =       1
     Reading input from V2Ru2.in
Warning: card &CELL ignored
Warning: card / ignored

     Current dimensions of program PWSCF are:
     Max number of different atomic species (ntypx) = 10
     Max number of k-points (npk) =  40000
     Max angular momentum in pseudopotentials (lmaxx) =  3
     Presently stress not available with electric field and gates

     Message from routine cell_base_init:
     DEPRECATED: use true lattice parameter, not A to a.u. conversion factor
     file V.pbe-spnl-rrkjus_psl.1.0.0.UPF: wavefunction(s)  3P 3D renormalized

     IMPORTANT: XC functional enforced from input :
     Exchange-correlation= BEEF-VDW
                           (   1   4  43  14   2   0   0)
     Any further DFT definition will be discarded
     Please, verify this is what you really want

     Subspace diagonalization in iterative solution of the eigenvalue problem:
     a serial algorithm will be used

     Found symmetry operation: I + ( -0.5000 -0.5000  0.0000)
     This is a supercell, fractional translations are disabled

     bravais-lattice index     =            0
     lattice parameter (alat)  =       1.8897  a.u.
     unit-cell volume          =    4190.9869 (a.u.)^3
     number of atoms/cell      =           12
     number of atomic types    =            2
     number of electrons       =       174.00
     number of Kohn-Sham states=          104
     kinetic-energy cutoff     =      55.1240  Ry
     charge density cutoff     =     551.2396  Ry
     convergence threshold     =      1.0E-05
     mixing beta               =       0.1000
     number of iterations used =           10  plain     mixing
     Exchange-correlation= BEEF-VDW
                           (   1   4  43  14   2   0   0)

     celldm(1)=   1.889726  celldm(2)=   0.000000  celldm(3)=   0.000000
     celldm(4)=   0.000000  celldm(5)=   0.000000  celldm(6)=   0.000000

     crystal axes: (cart. coord. in units of alat)
               a(1) = (   5.213578   0.000000   0.000000 )
               a(2) = (   1.753616   4.909809   0.000000 )
               a(3) = (   0.000000   0.000000  24.261593 )

     reciprocal axes: (cart. coord. in units 2 pi/alat)
               b(1) = (  0.191807 -0.068507  0.000000 )
               b(2) = (  0.000000  0.203674  0.000000 )
               b(3) = (  0.000000  0.000000  0.041217 )

     PseudoPot. # 1 for V  read from file:
     ../pseudo/V.pbe-spnl-rrkjus_psl.1.0.0.UPF
     MD5 check sum: 79b3eb63147daf0b665d9f1bcc691206
     Pseudo is Ultrasoft + core correction, Zval = 13.0
     Generated using "atomic" code by A. Dal Corso v.6.2.2
     Using radial grid of 1181 points,  6 beta functions with:
                l(1) =   0
                l(2) =   0
                l(3) =   1
                l(4) =   1
                l(5) =   2
                l(6) =   2
     Q(r) pseudized with 0 coefficients

     PseudoPot. # 2 for Ru read from file:
     ../pseudo/Ru.pbe-spn-rrkjus_psl.1.0.0.UPF
     MD5 check sum: fbaca725316a1a65f98761fd4ac95971
     Pseudo is Ultrasoft + core correction, Zval = 16.0
     Generated using "atomic" code by A. Dal Corso v.6.2.2
     Using radial grid of 1233 points,  6 beta functions with:
                l(1) =   0
                l(2) =   0
                l(3) =   1
                l(4) =   1
                l(5) =   2
                l(6) =   2
     Q(r) pseudized with 0 coefficients

     atomic species   valence    mass     pseudopotential
        V             13.00    50.94150     V ( 1.00)
        Ru            16.00   101.07000     Ru( 1.00)

     No symmetry found

   Cartesian axes

     site n.     atom                  positions (alat units)
         1           V   tau(   1) = (   0.0000000   0.0000000  10.0000000  )
         2           V   tau(   2) = (   3.4835973   2.4549047  10.0000000  )
         3           Ru  tau(   3) = (   2.6067891   0.0000000  10.0000000  )
         4           Ru  tau(   4) = (   0.8768082   2.4549047  10.0000000  )
         5           V   tau(   5) = (   5.2135783   3.6740291  12.1307963  )
         6           V   tau(   6) = (   1.7299810   1.2191244  12.1307963  )
         7           Ru  tau(   7) = (   2.6067891   3.6740291  12.1307963  )
         8           Ru  tau(   8) = (   4.3367701   1.2191244  12.1307963  )
         9           V   tau(   9) = (   3.4642554   2.4412744  14.2990175  )
        10           V   tau(  10) = (   6.9478552   4.8961807  14.2990199  )
        11           Ru  tau(  11) = (   6.0711216   2.4413043  14.1246019  )
        12           Ru  tau(  12) = (   4.3411184   4.8962421  14.1246012  )

     number of k points=    74  Fermi-Dirac smearing, width (Ry)=  0.0100
                       cart. coord. in units 2pi/alat
        k(    1) = (   0.0000000   0.0000000   0.0000000), wk =   0.0138889
        k(    2) = (   0.0000000   0.0169728   0.0000000), wk =   0.0277778
        k(    3) = (   0.0000000   0.0339457   0.0000000), wk =   0.0277778
        k(    4) = (   0.0000000   0.0509185   0.0000000), wk =   0.0277778
        k(    5) = (   0.0000000   0.0678913   0.0000000), wk =   0.0277778
        k(    6) = (   0.0000000   0.0848641   0.0000000), wk =   0.0277778
        k(    7) = (   0.0000000  -0.1018370   0.0000000), wk =   0.0138889
        k(    8) = (   0.0159839  -0.0057089   0.0000000), wk =   0.0277778
        k(    9) = (   0.0159839   0.0112639   0.0000000), wk =   0.0277778
        k(   10) = (   0.0159839   0.0282367   0.0000000), wk =   0.0277778
        k(   11) = (   0.0159839   0.0452096   0.0000000), wk =   0.0277778
        k(   12) = (   0.0159839   0.0621824   0.0000000), wk =   0.0277778
        k(   13) = (   0.0159839   0.0791552   0.0000000), wk =   0.0277778
        k(   14) = (   0.0159839  -0.1075459   0.0000000), wk =   0.0277778
        k(   15) = (   0.0159839  -0.0905730   0.0000000), wk =   0.0277778
        k(   16) = (   0.0159839  -0.0736002   0.0000000), wk =   0.0277778
        k(   17) = (   0.0159839  -0.0566274   0.0000000), wk =   0.0277778
        k(   18) = (   0.0159839  -0.0396546   0.0000000), wk =   0.0277778
        k(   19) = (   0.0159839  -0.0226817   0.0000000), wk =   0.0277778
        k(   20) = (   0.0319678  -0.0114178   0.0000000), wk =   0.0277778
        k(   21) = (   0.0319678   0.0055550   0.0000000), wk =   0.0277778
        k(   22) = (   0.0319678   0.0225278   0.0000000), wk =   0.0277778
        k(   23) = (   0.0319678   0.0395007   0.0000000), wk =   0.0277778
        k(   24) = (   0.0319678   0.0564735   0.0000000), wk =   0.0277778
        k(   25) = (   0.0319678   0.0734463   0.0000000), wk =   0.0277778
        k(   26) = (   0.0319678  -0.1132548   0.0000000), wk =   0.0277778
        k(   27) = (   0.0319678  -0.0962819   0.0000000), wk =   0.0277778
        k(   28) = (   0.0319678  -0.0793091   0.0000000), wk =   0.0277778
        k(   29) = (   0.0319678  -0.0623363   0.0000000), wk =   0.0277778
        k(   30) = (   0.0319678  -0.0453635   0.0000000), wk =   0.0277778
        k(   31) = (   0.0319678  -0.0283906   0.0000000), wk =   0.0277778
        k(   32) = (   0.0479517  -0.0171267   0.0000000), wk =   0.0277778
        k(   33) = (   0.0479517  -0.0001539   0.0000000), wk =   0.0277778
        k(   34) = (   0.0479517   0.0168189   0.0000000), wk =   0.0277778
        k(   35) = (   0.0479517   0.0337918   0.0000000), wk =   0.0277778
        k(   36) = (   0.0479517   0.0507646   0.0000000), wk =   0.0277778
        k(   37) = (   0.0479517   0.0677374   0.0000000), wk =   0.0277778
        k(   38) = (   0.0479517  -0.1189637   0.0000000), wk =   0.0277778
        k(   39) = (   0.0479517  -0.1019908   0.0000000), wk =   0.0277778
        k(   40) = (   0.0479517  -0.0850180   0.0000000), wk =   0.0277778
        k(   41) = (   0.0479517  -0.0680452   0.0000000), wk =   0.0277778
        k(   42) = (   0.0479517  -0.0510724   0.0000000), wk =   0.0277778
        k(   43) = (   0.0479517  -0.0340995   0.0000000), wk =   0.0277778
        k(   44) = (   0.0639356  -0.0228356   0.0000000), wk =   0.0277778
        k(   45) = (   0.0639356  -0.0058628   0.0000000), wk =   0.0277778
        k(   46) = (   0.0639356   0.0111100   0.0000000), wk =   0.0277778
        k(   47) = (   0.0639356   0.0280829   0.0000000), wk =   0.0277778
        k(   48) = (   0.0639356   0.0450557   0.0000000), wk =   0.0277778
        k(   49) = (   0.0639356   0.0620285   0.0000000), wk =   0.0277778
        k(   50) = (   0.0639356  -0.1246726   0.0000000), wk =   0.0277778
        k(   51) = (   0.0639356  -0.1076997   0.0000000), wk =   0.0277778
        k(   52) = (   0.0639356  -0.0907269   0.0000000), wk =   0.0277778
        k(   53) = (   0.0639356  -0.0737541   0.0000000), wk =   0.0277778
        k(   54) = (   0.0639356  -0.0567813   0.0000000), wk =   0.0277778
        k(   55) = (   0.0639356  -0.0398084   0.0000000), wk =   0.0277778
        k(   56) = (   0.0799195  -0.0285445   0.0000000), wk =   0.0277778
        k(   57) = (   0.0799195  -0.0115717   0.0000000), wk =   0.0277778
        k(   58) = (   0.0799195   0.0054011   0.0000000), wk =   0.0277778
        k(   59) = (   0.0799195   0.0223740   0.0000000), wk =   0.0277778
        k(   60) = (   0.0799195   0.0393468   0.0000000), wk =   0.0277778
        k(   61) = (   0.0799195   0.0563196   0.0000000), wk =   0.0277778
        k(   62) = (   0.0799195  -0.1303815   0.0000000), wk =   0.0277778
        k(   63) = (   0.0799195  -0.1134087   0.0000000), wk =   0.0277778
        k(   64) = (   0.0799195  -0.0964358   0.0000000), wk =   0.0277778
        k(   65) = (   0.0799195  -0.0794630   0.0000000), wk =   0.0277778
        k(   66) = (   0.0799195  -0.0624902   0.0000000), wk =   0.0277778
        k(   67) = (   0.0799195  -0.0455173   0.0000000), wk =   0.0277778
        k(   68) = (  -0.0959034   0.0342534   0.0000000), wk =   0.0138889
        k(   69) = (  -0.0959034   0.0512263   0.0000000), wk =   0.0277778
        k(   70) = (  -0.0959034   0.0681991   0.0000000), wk =   0.0277778
        k(   71) = (  -0.0959034   0.0851719   0.0000000), wk =   0.0277778
        k(   72) = (  -0.0959034   0.1021447   0.0000000), wk =   0.0277778
        k(   73) = (  -0.0959034   0.1191176   0.0000000), wk =   0.0277778
        k(   74) = (  -0.0959034  -0.0675835   0.0000000), wk =   0.0138889

     Check: negative core charge=   -0.000001

     Initial potential from superposition of free atoms

     starting charge  173.99072, renormalised to  174.00000

     negative rho (up, down):  1.720E-03 0.000E+00

     %%%%%%%%%%%%%%%%%%%%%%%%%%%%%%%%%%%%%%%%%%%%%%%%%%%%%%%%%%%%%%%%%%%%%%%%
     %                                                                      %
     % You are using vdW-DF, which was implemented by the Thonhauser group. %
     % Please cite the following two papers that made this development      %
     % possible and the two reviews that describe the various versions:     %
     %                                                                      %
     %   T. Thonhauser et al., PRL 115, 136402 (2015).                      %
     %   T. Thonhauser et al., PRB 76, 125112 (2007).                       %
     %   K. Berland et al., Rep. Prog. Phys. 78, 066501 (2015).             %
     %   D.C. Langreth et al., J. Phys.: Condens. Matter 21, 084203 (2009). %
     %                                                                      %
     %                                                                      %
     % If you are calculating the stress with vdW-DF, please also cite:     %
     %                                                                      %
     %   R. Sabatini et al., J. Phys.: Condens. Matter 24, 424209 (2012).   %
     %                                                                      %
     %%%%%%%%%%%%%%%%%%%%%%%%%%%%%%%%%%%%%%%%%%%%%%%%%%%%%%%%%%%%%%%%%%%%%%%%

     Adding external electric field

     Computed dipole along edir(3) :
        Dipole                0.0001 Ry au,          0.0004 Debye
        Dipole field          0.0000 Ry au,

        Potential amp.       -0.0000 Ry
        Total length         44.7016 bohr

     Starting wfcs are  120 randomized atomic wfcs

     Self-consistent Calculation

     iteration #  1     ecut=    55.12 Ry     beta= 0.10
     Davidson diagonalization with overlap
     ethr =  1.00E-02,  avg # of iterations =  2.3

[...]

     total energy              =   -2064.69066180 Ry
     estimated scf accuracy    <      11.43509467 Ry

[...]

     iteration # 10     ecut=    55.12 Ry     beta= 0.10
     Davidson diagonalization with overlap
     c_bands:  1 eigenvalues not converged
     c_bands:  1 eigenvalues not converged
     ethr =  1.90E-05,  avg # of iterations =  9.8

[...]

     iteration # 15     ecut=    55.12 Ry     beta= 0.10
     Davidson diagonalization with overlap
     c_bands:  1 eigenvalues not converged
     c_bands:  1 eigenvalues not converged
     ethr =  6.96E-07,  avg # of iterations =  8.9

[...]

     total energy              =   -2065.95098082 Ry
     estimated scf accuracy    <       0.00001227 Ry

     iteration # 21     ecut=    55.12 Ry     beta= 0.10
     Davidson diagonalization with overlap
     ethr =  7.05E-09,  avg # of iterations =  7.2

[...]

     Adding external electric field

     Computed dipole along edir(3) :
        Dipole                0.0525 Ry au,          0.1335 Debye
        Dipole field          0.0002 Ry au,

        Potential amp.       -0.0141 Ry
        Total length         44.7016 bohr

     End of self-consistent calculation

          k = 0.0000 0.0000 0.0000 ( 29019 PWs)   bands (ev):

   -71.4906 -71.4755 -70.9873 -70.9726 -70.9086 -70.8942 -63.3106 -63.2972
   -63.0954 -63.0893 -63.0823 -63.0764 -41.6215 -41.4930 -41.4731 -41.4457
   -41.4329 -41.4211 -41.1124 -41.0011 -40.9987 -40.9710 -40.9555 -40.9353
   -40.9258 -40.9100 -40.9086 -40.8274 -40.8062 -40.8036 -37.1569 -37.0622
   -37.0550 -37.0448 -37.0231 -37.0087 -36.9695 -36.9585 -36.9240 -36.9212
   -36.8484 -36.8324 -36.7953 -36.7948 -36.7887 -36.7879 -36.7246 -36.7123
    -5.0527  -3.3737  -3.2581  -3.2578  -3.1701  -3.1574  -2.9532  -2.8036
    -2.7394  -2.5740  -2.1874  -2.1736  -1.5981  -1.4693  -1.4576  -1.4433
    -1.4000  -1.1977  -1.1552  -1.1541  -1.0597  -0.7862  -0.5717  -0.2192
    -0.1195  -0.0288   0.1031   0.3908   0.8572   0.9215   1.1100   1.1871
     1.2102   1.7540   1.8899   2.0833   2.1595   2.3240   2.3435   2.4208
     2.4288   2.4869   2.5599   2.5800   2.5825   2.6063   2.6654   2.7339
     2.7671   2.8447   3.0396   3.0451   3.0923   3.0934   3.2492   3.3722

[...]

          k = 0.0799-0.0455 0.0000 ( 28972 PWs)   bands (ev):

[...]

          k =-0.0959 0.0343 0.0000 ( 28960 PWs)   bands (ev):

[...]

          k =-0.0959-0.0676 0.0000 ( 28958 PWs)   bands (ev):

   -71.4898 -71.4759 -70.9870 -70.9725 -70.9082 -70.8942 -63.3118 -63.2979
   -63.0969 -63.0910 -63.0824 -63.0765 -41.6017 -41.4621 -41.4486 -41.4446
   -41.4219 -41.4159 -41.0921 -40.9792 -40.9692 -40.9541 -40.9355 -40.9233
   -40.9206 -40.9094 -40.9049 -40.8241 -40.8079 -40.7991 -37.1871 -37.1152
   -37.0905 -37.0529 -37.0310 -37.0255 -36.9601 -36.9470 -36.9314 -36.9173
   -36.8801 -36.8620 -36.8382 -36.8254 -36.8216 -36.8173 -36.7331 -36.7203
    -3.3593  -2.9820  -2.4427  -2.4111  -2.3569  -2.2037  -2.1504  -2.0999
    -2.0768  -1.8284  -1.6186  -1.5258  -1.4874  -1.3503  -1.2189  -1.1047
    -0.8574  -0.6788  -0.5833  -0.5599  -0.4473  -0.3555  -0.3394  -0.3054
    -0.2861   0.0067   0.2556   0.2780   0.3750   0.4898   0.5369   0.5674
     0.7492   0.8764   0.9150   0.9202   0.9924   1.0473   1.1036   1.2499
     1.2817   1.5815   1.6966   1.8402   1.8722   1.9009   1.9786   2.0274
     2.0376   2.1662   2.2463   2.3509   2.4630   2.4975   2.5804   2.6578

     the Fermi energy is     1.7617 ev

!    total energy              =   -2065.95117904 Ry
     estimated scf accuracy    <       0.00000907 Ry
     smearing contrib. (-TS)   =      -0.07280919 Ry
     internal energy E=F+TS    =   -2065.87836984 Ry

     The total energy is F=E-TS. E is the sum of the following terms:
     one-electron contribution =  -18349.77631308 Ry
     hartree contribution      =    9167.01789737 Ry
     xc contribution           =    -306.46745376 Ry
     ewald contribution        =    7423.34749135 Ry
     electric field correction =       0.00000827 Ry

     convergence has been achieved in  21 iterations

     negative rho (up, down):  1.663E-03 0.000E+00

     Forces acting on atoms (cartesian axes, Ry/au):

     atom    1 type  1   force =    -0.00064772   -0.00045235   -0.01529249
     atom    2 type  1   force =    -0.00065512   -0.00046184   -0.01532468
     atom    3 type  2   force =    -0.00024729   -0.00015568    0.03671118
     atom    4 type  2   force =    -0.00023133   -0.00017991    0.03671619
     atom    5 type  1   force =     0.00014653    0.00009993   -0.01814205
     atom    6 type  1   force =     0.00010495    0.00007466   -0.01813950
     atom    7 type  2   force =    -0.00027231   -0.00016857   -0.00695678
     atom    8 type  2   force =    -0.00024892   -0.00019861   -0.00695643
     atom    9 type  1   force =     0.00049814    0.00035041    0.00212337
     atom   10 type  1   force =     0.00048111    0.00033562    0.00212105
     atom   11 type  2   force =     0.00054512    0.00036387    0.00157163
     atom   12 type  2   force =     0.00052683    0.00039247    0.00156852

     Total force =     0.062743     Total SCF correction =     0.011443
     SCF correction compared to forces is large: reduce conv_thr to get better values

     Writing output data file ./V2Ru2/V2Ru2_beef.save/

     General routines

     Parallel routines

   This run was terminated on:  23:46:25  25Jun2022

   JOB DONE.