     Program PWSCF v.6.6 starts on 27Jun2022 at 14:40:11

     R & G space division:  proc/nbgrp/npool/nimage =      37
     Fft bands division:     nmany     =       1
     Reading input from V2Ta2.in
Warning: card &CELL ignored
Warning: card / ignored

     Current dimensions of program PWSCF are:
     Max number of different atomic species (ntypx) = 10
     Max number of k-points (npk) =  40000
     Max angular momentum in pseudopotentials (lmaxx) =  3
     Presently stress not available with electric field and gates

     Message from routine cell_base_init:
     DEPRECATED: use true lattice parameter, not A to a.u. conversion factor
     file V.pbe-spnl-rrkjus_psl.1.0.0.UPF: wavefunction(s)  3P 3D renormalized
     file Ta.pbe-spfn-rrkjus_psl.1.0.0.UPF: wavefunction(s)  5S 5P renormalized

     IMPORTANT: XC functional enforced from input :
     Exchange-correlation= BEEF-VDW
                           (   1   4  43  14   2   0   0)
     Any further DFT definition will be discarded
     Please, verify this is what you really want

     Subspace diagonalization in iterative solution of the eigenvalue problem:
     a serial algorithm will be used

     Found symmetry operation: I + (  0.5000 -0.5000  0.0000)
     This is a supercell, fractional translations are disabled

     bravais-lattice index     =            0
     lattice parameter (alat)  =       1.8897  a.u.
     unit-cell volume          =    4690.4642 (a.u.)^3
     number of atoms/cell      =           12
     number of atomic types    =            2
     number of electrons       =       240.00
     number of Kohn-Sham states=          144
     kinetic-energy cutoff     =      55.1240  Ry
     charge density cutoff     =     551.2396  Ry
     convergence threshold     =      1.0E-05
     mixing beta               =       0.1000
     number of iterations used =           10  plain     mixing
     Exchange-correlation= BEEF-VDW
                           (   1   4  43  14   2   0   0)

     celldm(1)=   1.889726  celldm(2)=   0.000000  celldm(3)=   0.000000
     celldm(4)=   0.000000  celldm(5)=   0.000000  celldm(6)=   0.000000

     crystal axes: (cart. coord. in units of alat)
               a(1) = (   5.485450   0.000000   0.000000 )
               a(2) = (   1.812639   5.177306   0.000000 )
               a(3) = (   0.000000   0.000000  24.473902 )

     reciprocal axes: (cart. coord. in units 2 pi/alat)
               b(1) = (  0.182300 -0.063826  0.000000 )
               b(2) = (  0.000000  0.193151  0.000000 )
               b(3) = (  0.000000  0.000000  0.040860 )

     PseudoPot. # 1 for V  read from file:
     ../pseudo/V.pbe-spnl-rrkjus_psl.1.0.0.UPF
     MD5 check sum: 79b3eb63147daf0b665d9f1bcc691206
     Pseudo is Ultrasoft + core correction, Zval = 13.0
     Generated using "atomic" code by A. Dal Corso v.6.2.2
     Using radial grid of 1181 points,  6 beta functions with:
                l(1) =   0
                l(2) =   0
                l(3) =   1
                l(4) =   1
                l(5) =   2
                l(6) =   2
     Q(r) pseudized with 0 coefficients

     PseudoPot. # 2 for Ta read from file:
     ../pseudo/Ta.pbe-spfn-rrkjus_psl.1.0.0.UPF
     MD5 check sum: 39d7d349fe394e56adf8454eb9315fbb
     Pseudo is Ultrasoft + core correction, Zval = 27.0
     Generated using "atomic" code by A. Dal Corso v.6.3
     Using radial grid of 1273 points,  8 beta functions with:
                l(1) =   0
                l(2) =   0
                l(3) =   1
                l(4) =   1
                l(5) =   2
                l(6) =   2
                l(7) =   3
                l(8) =   3
     Q(r) pseudized with 0 coefficients

     atomic species   valence    mass     pseudopotential
        V             13.00    50.94150     V ( 1.00)
        Ta            27.00   180.94788     Ta( 1.00)

     No symmetry found

   Cartesian axes

     site n.     atom                  positions (alat units)
         1           V   tau(   1) = (   0.0000000   0.0000000  10.0000000  )
         2           V   tau(   2) = (   3.6490445   2.5886531  10.0000000  )
         3           Ta  tau(   3) = (   2.7427249   0.0000000  10.0000000  )
         4           Ta  tau(   4) = (   0.9063195   2.5886531  10.0000000  )
         5           V   tau(   5) = (   5.4854499   3.8914097  12.2369511  )
         6           V   tau(   6) = (   1.8364054   1.3027566  12.2369511  )
         7           Ta  tau(   7) = (   2.7427249   3.8914097  12.2369511  )
         8           Ta  tau(   8) = (   4.5791304   1.3027566  12.2369511  )
         9           V   tau(   9) = (   3.6697125   2.6033153  14.3702485  )
        10           V   tau(  10) = (   0.0206658   0.0146597  14.3703347  )
        11           Ta  tau(  11) = (   0.9237150   2.6009809  14.4097237  )
        12           Ta  tau(  12) = (   2.7600995   0.0123387  14.4097249  )

     number of k points=    74  Fermi-Dirac smearing, width (Ry)=  0.0100
                       cart. coord. in units 2pi/alat
        k(    1) = (   0.0000000   0.0000000   0.0000000), wk =   0.0138889
        k(    2) = (   0.0000000   0.0160959   0.0000000), wk =   0.0277778
        k(    3) = (   0.0000000   0.0321918   0.0000000), wk =   0.0277778
        k(    4) = (   0.0000000   0.0482877   0.0000000), wk =   0.0277778
        k(    5) = (   0.0000000   0.0643835   0.0000000), wk =   0.0277778
        k(    6) = (   0.0000000   0.0804794   0.0000000), wk =   0.0277778
        k(    7) = (   0.0000000  -0.0965753   0.0000000), wk =   0.0138889
        k(    8) = (   0.0151917  -0.0053188   0.0000000), wk =   0.0277778
        k(    9) = (   0.0151917   0.0107771   0.0000000), wk =   0.0277778
        k(   10) = (   0.0151917   0.0268730   0.0000000), wk =   0.0277778
        k(   11) = (   0.0151917   0.0429689   0.0000000), wk =   0.0277778
        k(   12) = (   0.0151917   0.0590647   0.0000000), wk =   0.0277778
        k(   13) = (   0.0151917   0.0751606   0.0000000), wk =   0.0277778
        k(   14) = (   0.0151917  -0.1018941   0.0000000), wk =   0.0277778
        k(   15) = (   0.0151917  -0.0857982   0.0000000), wk =   0.0277778
        k(   16) = (   0.0151917  -0.0697024   0.0000000), wk =   0.0277778
        k(   17) = (   0.0151917  -0.0536065   0.0000000), wk =   0.0277778
        k(   18) = (   0.0151917  -0.0375106   0.0000000), wk =   0.0277778
        k(   19) = (   0.0151917  -0.0214147   0.0000000), wk =   0.0277778
        k(   20) = (   0.0303834  -0.0106376   0.0000000), wk =   0.0277778
        k(   21) = (   0.0303834   0.0054583   0.0000000), wk =   0.0277778
        k(   22) = (   0.0303834   0.0215542   0.0000000), wk =   0.0277778
        k(   23) = (   0.0303834   0.0376501   0.0000000), wk =   0.0277778
        k(   24) = (   0.0303834   0.0537459   0.0000000), wk =   0.0277778
        k(   25) = (   0.0303834   0.0698418   0.0000000), wk =   0.0277778
        k(   26) = (   0.0303834  -0.1072129   0.0000000), wk =   0.0277778
        k(   27) = (   0.0303834  -0.0911170   0.0000000), wk =   0.0277778
        k(   28) = (   0.0303834  -0.0750212   0.0000000), wk =   0.0277778
        k(   29) = (   0.0303834  -0.0589253   0.0000000), wk =   0.0277778
        k(   30) = (   0.0303834  -0.0428294   0.0000000), wk =   0.0277778
        k(   31) = (   0.0303834  -0.0267335   0.0000000), wk =   0.0277778
        k(   32) = (   0.0455751  -0.0159564   0.0000000), wk =   0.0277778
        k(   33) = (   0.0455751   0.0001395   0.0000000), wk =   0.0277778
        k(   34) = (   0.0455751   0.0162354   0.0000000), wk =   0.0277778
        k(   35) = (   0.0455751   0.0323312   0.0000000), wk =   0.0277778
        k(   36) = (   0.0455751   0.0484271   0.0000000), wk =   0.0277778
        k(   37) = (   0.0455751   0.0645230   0.0000000), wk =   0.0277778
        k(   38) = (   0.0455751  -0.1125317   0.0000000), wk =   0.0277778
        k(   39) = (   0.0455751  -0.0964358   0.0000000), wk =   0.0277778
        k(   40) = (   0.0455751  -0.0803400   0.0000000), wk =   0.0277778
        k(   41) = (   0.0455751  -0.0642441   0.0000000), wk =   0.0277778
        k(   42) = (   0.0455751  -0.0481482   0.0000000), wk =   0.0277778
        k(   43) = (   0.0455751  -0.0320523   0.0000000), wk =   0.0277778
        k(   44) = (   0.0607668  -0.0212752   0.0000000), wk =   0.0277778
        k(   45) = (   0.0607668  -0.0051793   0.0000000), wk =   0.0277778
        k(   46) = (   0.0607668   0.0109166   0.0000000), wk =   0.0277778
        k(   47) = (   0.0607668   0.0270124   0.0000000), wk =   0.0277778
        k(   48) = (   0.0607668   0.0431083   0.0000000), wk =   0.0277778
        k(   49) = (   0.0607668   0.0592042   0.0000000), wk =   0.0277778
        k(   50) = (   0.0607668  -0.1178505   0.0000000), wk =   0.0277778
        k(   51) = (   0.0607668  -0.1017547   0.0000000), wk =   0.0277778
        k(   52) = (   0.0607668  -0.0856588   0.0000000), wk =   0.0277778
        k(   53) = (   0.0607668  -0.0695629   0.0000000), wk =   0.0277778
        k(   54) = (   0.0607668  -0.0534670   0.0000000), wk =   0.0277778
        k(   55) = (   0.0607668  -0.0373711   0.0000000), wk =   0.0277778
        k(   56) = (   0.0759585  -0.0265940   0.0000000), wk =   0.0277778
        k(   57) = (   0.0759585  -0.0104981   0.0000000), wk =   0.0277778
        k(   58) = (   0.0759585   0.0055978   0.0000000), wk =   0.0277778
        k(   59) = (   0.0759585   0.0216936   0.0000000), wk =   0.0277778
        k(   60) = (   0.0759585   0.0377895   0.0000000), wk =   0.0277778
        k(   61) = (   0.0759585   0.0538854   0.0000000), wk =   0.0277778
        k(   62) = (   0.0759585  -0.1231693   0.0000000), wk =   0.0277778
        k(   63) = (   0.0759585  -0.1070735   0.0000000), wk =   0.0277778
        k(   64) = (   0.0759585  -0.0909776   0.0000000), wk =   0.0277778
        k(   65) = (   0.0759585  -0.0748817   0.0000000), wk =   0.0277778
        k(   66) = (   0.0759585  -0.0587858   0.0000000), wk =   0.0277778
        k(   67) = (   0.0759585  -0.0426899   0.0000000), wk =   0.0277778
        k(   68) = (  -0.0911502   0.0319128   0.0000000), wk =   0.0138889
        k(   69) = (  -0.0911502   0.0480087   0.0000000), wk =   0.0277778
        k(   70) = (  -0.0911502   0.0641046   0.0000000), wk =   0.0277778
        k(   71) = (  -0.0911502   0.0802005   0.0000000), wk =   0.0277778
        k(   72) = (  -0.0911502   0.0962964   0.0000000), wk =   0.0277778
        k(   73) = (  -0.0911502   0.1123923   0.0000000), wk =   0.0277778
        k(   74) = (  -0.0911502  -0.0646625   0.0000000), wk =   0.0138889

     Check: negative core charge=   -0.000001

     Initial potential from superposition of free atoms

     starting charge  239.98948, renormalised to  240.00000

     negative rho (up, down):  1.079E-03 0.000E+00

     %%%%%%%%%%%%%%%%%%%%%%%%%%%%%%%%%%%%%%%%%%%%%%%%%%%%%%%%%%%%%%%%%%%%%%%%
     %                                                                      %
     % You are using vdW-DF, which was implemented by the Thonhauser group. %
     % Please cite the following two papers that made this development      %
     % possible and the two reviews that describe the various versions:     %
     %                                                                      %
     %   T. Thonhauser et al., PRL 115, 136402 (2015).                      %
     %   T. Thonhauser et al., PRB 76, 125112 (2007).                       %
     %   K. Berland et al., Rep. Prog. Phys. 78, 066501 (2015).             %
     %   D.C. Langreth et al., J. Phys.: Condens. Matter 21, 084203 (2009). %
     %                                                                      %
     %                                                                      %
     % If you are calculating the stress with vdW-DF, please also cite:     %
     %                                                                      %
     %   R. Sabatini et al., J. Phys.: Condens. Matter 24, 424209 (2012).   %
     %                                                                      %
     %%%%%%%%%%%%%%%%%%%%%%%%%%%%%%%%%%%%%%%%%%%%%%%%%%%%%%%%%%%%%%%%%%%%%%%%

     Adding external electric field

     Computed dipole along edir(3) :
        Dipole               -0.0001 Ry au,         -0.0001 Debye
        Dipole field         -0.0000 Ry au,

        Potential amp.        0.0000 Ry
        Total length         45.0927 bohr

     Starting wfcs are  162 randomized atomic wfcs

     Self-consistent Calculation

     iteration #  1     ecut=    55.12 Ry     beta= 0.10
     Davidson diagonalization with overlap
     ethr =  1.00E-02,  avg # of iterations =  2.4

[...]

     total energy              =   -4968.32694270 Ry
     estimated scf accuracy    <      10.74206641 Ry

[...]

     iteration # 15     ecut=    55.12 Ry     beta= 0.10
     Davidson diagonalization with overlap
     c_bands:  1 eigenvalues not converged
     c_bands:  1 eigenvalues not converged
     ethr =  1.52E-06,  avg # of iterations =  8.3

[...]

     iteration # 16     ecut=    55.12 Ry     beta= 0.10
     Davidson diagonalization with overlap
     c_bands:  1 eigenvalues not converged
     ethr =  1.52E-06,  avg # of iterations =  2.3

[...]

     total energy              =   -4969.33165293 Ry
     estimated scf accuracy    <       0.00004977 Ry

     iteration # 21     ecut=    55.12 Ry     beta= 0.10
     Davidson diagonalization with overlap
     ethr =  2.07E-08,  avg # of iterations =  2.2

[...]

     Adding external electric field

     Computed dipole along edir(3) :
        Dipole                0.0222 Ry au,          0.0564 Debye
        Dipole field          0.0001 Ry au,

        Potential amp.       -0.0054 Ry
        Total length         45.0927 bohr

     End of self-consistent calculation

          k = 0.0000 0.0000 0.0000 ( 32417 PWs)   bands (ev):

   -66.1817 -66.1683 -66.1501 -66.1365 -65.8417 -65.8280 -62.0914 -62.0853
   -62.0507 -62.0446 -61.9797 -61.9742 -36.0016 -35.9960 -35.9647 -35.9498
   -35.9447 -35.9346 -35.8993 -35.8892 -35.8594 -35.8493 -35.8405 -35.8340
   -35.8196 -35.8148 -35.8016 -35.8010 -35.7588 -35.7064 -32.5533 -32.5300
   -32.5238 -32.5157 -32.5066 -32.4795 -32.4221 -32.4176 -32.3933 -32.3849
   -32.2634 -32.2352 -32.2243 -32.1355 -32.1130 -32.1088 -32.1028 -31.9739
   -17.8851 -17.8816 -17.8810 -17.8807 -17.8807 -17.8704 -17.8663 -17.8577
   -17.8576 -17.8545 -17.8507 -17.8486 -17.8484 -17.8482 -17.8432 -17.8332
   -17.8313 -17.8311 -17.8301 -17.8229 -17.8214 -17.8198 -17.8198 -17.8196
   -17.7979 -17.7966 -17.7860 -17.7859 -17.4918 -17.4916 -17.4915 -17.4912
   -17.4831 -17.4791 -17.4772 -17.4756 -17.4745 -17.4738 -17.4732 -17.4677
   -17.4629 -17.4626  -4.8144  -3.1618  -2.0623  -1.6009  -1.5166  -1.4645
    -1.4267  -1.3113  -1.2474  -1.1020  -0.6773  -0.6624  -0.4634   0.4438
     0.4470   0.5868   0.6267   0.6512   0.6533   0.7236   0.8173   1.0060
     1.2695   1.4472   1.4860   1.6667   1.8514   2.0074   2.2264   2.3672
     2.4795   2.6018   2.6757   2.8643   2.9847   3.5329   3.5774   3.6003
     3.6222   4.0101   4.0913   4.1660   4.1785   4.2226   4.2761   4.3777
     4.4129   4.5704   4.6255   4.6269   4.6633   4.6793   4.7939   4.8629

[...]

          k = 0.0760-0.0427 0.0000 ( 32422 PWs)   bands (ev):

[...]

          k =-0.0912 0.0319 0.0000 ( 32444 PWs)   bands (ev):

[...]

          k =-0.0912-0.0647 0.0000 ( 32350 PWs)   bands (ev):

   -66.1809 -66.1685 -66.1492 -66.1368 -65.8414 -65.8278 -62.0925 -62.0856
   -62.0516 -62.0451 -61.9812 -61.9737 -35.9950 -35.9836 -35.9529 -35.9407
   -35.9390 -35.9093 -35.8650 -35.8436 -35.8428 -35.8235 -35.8140 -35.8124
   -35.8078 -35.8042 -35.7994 -35.7783 -35.7681 -35.7033 -32.5883 -32.5562
   -32.5451 -32.5183 -32.5124 -32.4978 -32.4936 -32.4581 -32.4508 -32.4210
   -32.2731 -32.2586 -32.2450 -32.1572 -32.1301 -32.1119 -32.1096 -31.9838
   -17.8853 -17.8821 -17.8818 -17.8809 -17.8807 -17.8705 -17.8662 -17.8580
   -17.8578 -17.8546 -17.8509 -17.8496 -17.8485 -17.8483 -17.8434 -17.8333
   -17.8327 -17.8316 -17.8310 -17.8233 -17.8215 -17.8211 -17.8198 -17.8189
   -17.7992 -17.7980 -17.7873 -17.7852 -17.4924 -17.4917 -17.4916 -17.4916
   -17.4837 -17.4806 -17.4775 -17.4755 -17.4754 -17.4744 -17.4739 -17.4671
   -17.4629 -17.4628  -2.8213  -2.6199  -1.8922  -1.7394  -0.7789  -0.5258
    -0.4831  -0.4748  -0.3881  -0.2290   0.0476   0.3390   0.5078   0.5186
     0.6075   0.6736   0.8291   0.8806   0.9585   1.0586   1.1479   1.1945
     1.3264   1.4384   1.6821   1.7073   1.7294   1.8120   1.8543   1.9472
     1.9615   2.0491   2.0621   2.0845   2.2059   2.4858   2.4896   2.4919
     2.5567   2.9183   2.9798   3.1508   3.2561   3.3444   3.4251   3.6416
     3.7086   3.7585   3.9146   3.9348   4.1386   4.1610   4.2668   4.3158

     the Fermi energy is     1.9342 ev

!    total energy              =   -4969.33169485 Ry
     estimated scf accuracy    <       0.00000772 Ry
     smearing contrib. (-TS)   =      -0.08563157 Ry
     internal energy E=F+TS    =   -4969.24606328 Ry

     The total energy is F=E-TS. E is the sum of the following terms:
     one-electron contribution =  -33373.69361609 Ry
     hartree contribution      =   16782.57402722 Ry
     xc contribution           =    -540.39349464 Ry
     ewald contribution        =   12162.26701891 Ry
     electric field correction =       0.00000132 Ry

     convergence has been achieved in  21 iterations

     negative rho (up, down):  9.256E-04 0.000E+00

     Forces acting on atoms (cartesian axes, Ry/au):

     atom    1 type  1   force =     0.00050390    0.00035642    0.01525582
     atom    2 type  1   force =     0.00050290    0.00035718    0.01525993
     atom    3 type  2   force =     0.00110796    0.00078229    0.00383296
     atom    4 type  2   force =     0.00110612    0.00079397    0.00384367
     atom    5 type  1   force =    -0.00029756   -0.00021087   -0.00819205
     atom    6 type  1   force =    -0.00033032   -0.00023447   -0.00819136
     atom    7 type  2   force =    -0.00016133   -0.00045038   -0.01859536
     atom    8 type  2   force =    -0.00048050   -0.00000694   -0.01858722
     atom    9 type  1   force =    -0.00065427   -0.00046665    0.00140025
     atom   10 type  1   force =    -0.00065722   -0.00046491    0.00137740
     atom   11 type  2   force =    -0.00031679   -0.00022422    0.00629635
     atom   12 type  2   force =    -0.00032287   -0.00023142    0.00629961

     Total force =     0.037557     Total SCF correction =     0.019042
     SCF correction compared to forces is large: reduce conv_thr to get better values

     Writing output data file ./V2Ta2/V2Ta2_beef.save/

     General routines

     Parallel routines

   This run was terminated on:  17:29:28  27Jun2022

   JOB DONE.