     Program PWSCF v.6.6 starts on 25Jun2022 at 23:46:32

     R & G space division:  proc/nbgrp/npool/nimage =      37
     Fft bands division:     nmany     =       1
     Reading input from V2Tc2.in
Warning: card &CELL ignored
Warning: card / ignored

     Current dimensions of program PWSCF are:
     Max number of different atomic species (ntypx) = 10
     Max number of k-points (npk) =  40000
     Max angular momentum in pseudopotentials (lmaxx) =  3
     Presently stress not available with electric field and gates

     Message from routine cell_base_init:
     DEPRECATED: use true lattice parameter, not A to a.u. conversion factor
     file V.pbe-spnl-rrkjus_psl.1.0.0.UPF: wavefunction(s)  3P 3D renormalized
     file Tc.pbe-spn-rrkjus_psl.0.3.0.UPF: wavefunction(s)  4S 4P renormalized

     IMPORTANT: XC functional enforced from input :
     Exchange-correlation= BEEF-VDW
                           (   1   4  43  14   2   0   0)
     Any further DFT definition will be discarded
     Please, verify this is what you really want

     Subspace diagonalization in iterative solution of the eigenvalue problem:
     a serial algorithm will be used

     Found symmetry operation: I + ( -0.5000 -0.5000  0.0000)
     This is a supercell, fractional translations are disabled

     bravais-lattice index     =            0
     lattice parameter (alat)  =       1.8897  a.u.
     unit-cell volume          =    4234.6391 (a.u.)^3
     number of atoms/cell      =           12
     number of atomic types    =            2
     number of electrons       =       168.00
     number of Kohn-Sham states=          101
     kinetic-energy cutoff     =      55.1240  Ry
     charge density cutoff     =     551.2396  Ry
     convergence threshold     =      1.0E-05
     mixing beta               =       0.1000
     number of iterations used =           10  plain     mixing
     Exchange-correlation= BEEF-VDW
                           (   1   4  43  14   2   0   0)

     celldm(1)=   1.889726  celldm(2)=   0.000000  celldm(3)=   0.000000
     celldm(4)=   0.000000  celldm(5)=   0.000000  celldm(6)=   0.000000

     crystal axes: (cart. coord. in units of alat)
               a(1) = (   5.236695   0.000000   0.000000 )
               a(2) = (   1.749105   4.935950   0.000000 )
               a(3) = (   0.000000   0.000000  24.276823 )

     reciprocal axes: (cart. coord. in units 2 pi/alat)
               b(1) = (  0.190960 -0.067669  0.000000 )
               b(2) = (  0.000000  0.202595  0.000000 )
               b(3) = (  0.000000  0.000000  0.041192 )

     PseudoPot. # 1 for V  read from file:
     ../pseudo/V.pbe-spnl-rrkjus_psl.1.0.0.UPF
     MD5 check sum: 79b3eb63147daf0b665d9f1bcc691206
     Pseudo is Ultrasoft + core correction, Zval = 13.0
     Generated using "atomic" code by A. Dal Corso v.6.2.2
     Using radial grid of 1181 points,  6 beta functions with:
                l(1) =   0
                l(2) =   0
                l(3) =   1
                l(4) =   1
                l(5) =   2
                l(6) =   2
     Q(r) pseudized with 0 coefficients

     PseudoPot. # 2 for Tc read from file:
     ../pseudo/Tc.pbe-spn-rrkjus_psl.0.3.0.UPF
     MD5 check sum: 5f147c0bf103030af994b79b1f5562e4
     Pseudo is Ultrasoft + core correction, Zval = 15.0
     Generated using "atomic" code by A. Dal Corso v.6.2.2
     Using radial grid of 1231 points,  6 beta functions with:
                l(1) =   0
                l(2) =   0
                l(3) =   1
                l(4) =   1
                l(5) =   2
                l(6) =   2
     Q(r) pseudized with 0 coefficients

     atomic species   valence    mass     pseudopotential
        V             13.00    50.94150     V ( 1.00)
        Tc            15.00    97.90721     Tc( 1.00)

     No symmetry found

   Cartesian axes

     site n.     atom                  positions (alat units)
         1           V   tau(   1) = (   0.0000000   0.0000000  10.0000000  )
         2           V   tau(   2) = (   3.4929002   2.4679752  10.0000000  )
         3           Tc  tau(   3) = (   2.6183476   0.0000000  10.0000000  )
         4           Tc  tau(   4) = (   0.8745526   2.4679752  10.0000000  )
         5           V   tau(   5) = (   5.2366951   3.7000867  12.1384113  )
         6           V   tau(   6) = (   1.7437949   1.2321115  12.1384113  )
         7           Tc  tau(   7) = (   2.6183476   3.7000867  12.1384113  )
         8           Tc  tau(   8) = (   4.3621425   1.2321115  12.1384113  )
         9           V   tau(   9) = (   3.4892762   2.4654135  14.2096401  )
        10           V   tau(  10) = (   6.9821744   4.9333889  14.2096191  )
        11           Tc  tau(  11) = (   6.1075554   2.4653702  14.1932823  )
        12           Tc  tau(  12) = (   4.3637714   4.9333441  14.1932828  )

     number of k points=    74  Fermi-Dirac smearing, width (Ry)=  0.0100
                       cart. coord. in units 2pi/alat
        k(    1) = (   0.0000000   0.0000000   0.0000000), wk =   0.0138889
        k(    2) = (   0.0000000   0.0168829   0.0000000), wk =   0.0277778
        k(    3) = (   0.0000000   0.0337659   0.0000000), wk =   0.0277778
        k(    4) = (   0.0000000   0.0506488   0.0000000), wk =   0.0277778
        k(    5) = (   0.0000000   0.0675317   0.0000000), wk =   0.0277778
        k(    6) = (   0.0000000   0.0844147   0.0000000), wk =   0.0277778
        k(    7) = (   0.0000000  -0.1012976   0.0000000), wk =   0.0138889
        k(    8) = (   0.0159133  -0.0056391   0.0000000), wk =   0.0277778
        k(    9) = (   0.0159133   0.0112439   0.0000000), wk =   0.0277778
        k(   10) = (   0.0159133   0.0281268   0.0000000), wk =   0.0277778
        k(   11) = (   0.0159133   0.0450098   0.0000000), wk =   0.0277778
        k(   12) = (   0.0159133   0.0618927   0.0000000), wk =   0.0277778
        k(   13) = (   0.0159133   0.0787756   0.0000000), wk =   0.0277778
        k(   14) = (   0.0159133  -0.1069367   0.0000000), wk =   0.0277778
        k(   15) = (   0.0159133  -0.0900537   0.0000000), wk =   0.0277778
        k(   16) = (   0.0159133  -0.0731708   0.0000000), wk =   0.0277778
        k(   17) = (   0.0159133  -0.0562879   0.0000000), wk =   0.0277778
        k(   18) = (   0.0159133  -0.0394049   0.0000000), wk =   0.0277778
        k(   19) = (   0.0159133  -0.0225220   0.0000000), wk =   0.0277778
        k(   20) = (   0.0318267  -0.0112781   0.0000000), wk =   0.0277778
        k(   21) = (   0.0318267   0.0056048   0.0000000), wk =   0.0277778
        k(   22) = (   0.0318267   0.0224878   0.0000000), wk =   0.0277778
        k(   23) = (   0.0318267   0.0393707   0.0000000), wk =   0.0277778
        k(   24) = (   0.0318267   0.0562536   0.0000000), wk =   0.0277778
        k(   25) = (   0.0318267   0.0731366   0.0000000), wk =   0.0277778
        k(   26) = (   0.0318267  -0.1125757   0.0000000), wk =   0.0277778
        k(   27) = (   0.0318267  -0.0956928   0.0000000), wk =   0.0277778
        k(   28) = (   0.0318267  -0.0788099   0.0000000), wk =   0.0277778
        k(   29) = (   0.0318267  -0.0619269   0.0000000), wk =   0.0277778
        k(   30) = (   0.0318267  -0.0450440   0.0000000), wk =   0.0277778
        k(   31) = (   0.0318267  -0.0281611   0.0000000), wk =   0.0277778
        k(   32) = (   0.0477400  -0.0169172   0.0000000), wk =   0.0277778
        k(   33) = (   0.0477400  -0.0000342   0.0000000), wk =   0.0277778
        k(   34) = (   0.0477400   0.0168487   0.0000000), wk =   0.0277778
        k(   35) = (   0.0477400   0.0337316   0.0000000), wk =   0.0277778
        k(   36) = (   0.0477400   0.0506146   0.0000000), wk =   0.0277778
        k(   37) = (   0.0477400   0.0674975   0.0000000), wk =   0.0277778
        k(   38) = (   0.0477400  -0.1182148   0.0000000), wk =   0.0277778
        k(   39) = (   0.0477400  -0.1013319   0.0000000), wk =   0.0277778
        k(   40) = (   0.0477400  -0.0844489   0.0000000), wk =   0.0277778
        k(   41) = (   0.0477400  -0.0675660   0.0000000), wk =   0.0277778
        k(   42) = (   0.0477400  -0.0506830   0.0000000), wk =   0.0277778
        k(   43) = (   0.0477400  -0.0338001   0.0000000), wk =   0.0277778
        k(   44) = (   0.0636534  -0.0225562   0.0000000), wk =   0.0277778
        k(   45) = (   0.0636534  -0.0056733   0.0000000), wk =   0.0277778
        k(   46) = (   0.0636534   0.0112096   0.0000000), wk =   0.0277778
        k(   47) = (   0.0636534   0.0280926   0.0000000), wk =   0.0277778
        k(   48) = (   0.0636534   0.0449755   0.0000000), wk =   0.0277778
        k(   49) = (   0.0636534   0.0618585   0.0000000), wk =   0.0277778
        k(   50) = (   0.0636534  -0.1238539   0.0000000), wk =   0.0277778
        k(   51) = (   0.0636534  -0.1069709   0.0000000), wk =   0.0277778
        k(   52) = (   0.0636534  -0.0900880   0.0000000), wk =   0.0277778
        k(   53) = (   0.0636534  -0.0732050   0.0000000), wk =   0.0277778
        k(   54) = (   0.0636534  -0.0563221   0.0000000), wk =   0.0277778
        k(   55) = (   0.0636534  -0.0394392   0.0000000), wk =   0.0277778
        k(   56) = (   0.0795667  -0.0281953   0.0000000), wk =   0.0277778
        k(   57) = (   0.0795667  -0.0113124   0.0000000), wk =   0.0277778
        k(   58) = (   0.0795667   0.0055706   0.0000000), wk =   0.0277778
        k(   59) = (   0.0795667   0.0224535   0.0000000), wk =   0.0277778
        k(   60) = (   0.0795667   0.0393365   0.0000000), wk =   0.0277778
        k(   61) = (   0.0795667   0.0562194   0.0000000), wk =   0.0277778
        k(   62) = (   0.0795667  -0.1294929   0.0000000), wk =   0.0277778
        k(   63) = (   0.0795667  -0.1126100   0.0000000), wk =   0.0277778
        k(   64) = (   0.0795667  -0.0957270   0.0000000), wk =   0.0277778
        k(   65) = (   0.0795667  -0.0788441   0.0000000), wk =   0.0277778
        k(   66) = (   0.0795667  -0.0619612   0.0000000), wk =   0.0277778
        k(   67) = (   0.0795667  -0.0450782   0.0000000), wk =   0.0277778
        k(   68) = (  -0.0954801   0.0338344   0.0000000), wk =   0.0138889
        k(   69) = (  -0.0954801   0.0507173   0.0000000), wk =   0.0277778
        k(   70) = (  -0.0954801   0.0676002   0.0000000), wk =   0.0277778
        k(   71) = (  -0.0954801   0.0844832   0.0000000), wk =   0.0277778
        k(   72) = (  -0.0954801   0.1013661   0.0000000), wk =   0.0277778
        k(   73) = (  -0.0954801   0.1182490   0.0000000), wk =   0.0277778
        k(   74) = (  -0.0954801  -0.0674633   0.0000000), wk =   0.0138889

     Check: negative core charge=   -0.000001

     Initial potential from superposition of free atoms

     starting charge  167.99076, renormalised to  168.00000

     negative rho (up, down):  5.939E-03 0.000E+00

     %%%%%%%%%%%%%%%%%%%%%%%%%%%%%%%%%%%%%%%%%%%%%%%%%%%%%%%%%%%%%%%%%%%%%%%%
     %                                                                      %
     % You are using vdW-DF, which was implemented by the Thonhauser group. %
     % Please cite the following two papers that made this development      %
     % possible and the two reviews that describe the various versions:     %
     %                                                                      %
     %   T. Thonhauser et al., PRL 115, 136402 (2015).                      %
     %   T. Thonhauser et al., PRB 76, 125112 (2007).                       %
     %   K. Berland et al., Rep. Prog. Phys. 78, 066501 (2015).             %
     %   D.C. Langreth et al., J. Phys.: Condens. Matter 21, 084203 (2009). %
     %                                                                      %
     %                                                                      %
     % If you are calculating the stress with vdW-DF, please also cite:     %
     %                                                                      %
     %   R. Sabatini et al., J. Phys.: Condens. Matter 24, 424209 (2012).   %
     %                                                                      %
     %%%%%%%%%%%%%%%%%%%%%%%%%%%%%%%%%%%%%%%%%%%%%%%%%%%%%%%%%%%%%%%%%%%%%%%%

     Adding external electric field

     Computed dipole along edir(3) :
        Dipole                0.0000 Ry au,          0.0000 Debye
        Dipole field          0.0000 Ry au,

        Potential amp.       -0.0000 Ry
        Total length         44.7296 bohr

     Starting wfcs are  138 randomized atomic wfcs

     Self-consistent Calculation

     iteration #  1     ecut=    55.12 Ry     beta= 0.10
     Davidson diagonalization with overlap
     ethr =  1.00E-02,  avg # of iterations =  2.0

[...]

     total energy              =   -1964.74552859 Ry
     estimated scf accuracy    <       7.46552386 Ry

[...]

     iteration # 10     ecut=    55.12 Ry     beta= 0.10
     Davidson diagonalization with overlap
     c_bands:  2 eigenvalues not converged
     c_bands:  4 eigenvalues not converged
     c_bands:  1 eigenvalues not converged
     c_bands:  1 eigenvalues not converged
     c_bands:  2 eigenvalues not converged
     c_bands:  1 eigenvalues not converged
     c_bands:  2 eigenvalues not converged
     c_bands:  2 eigenvalues not converged
     c_bands:  2 eigenvalues not converged
     c_bands:  1 eigenvalues not converged
     c_bands:  1 eigenvalues not converged
     c_bands:  3 eigenvalues not converged
     c_bands:  4 eigenvalues not converged
     c_bands:  1 eigenvalues not converged
     c_bands:  2 eigenvalues not converged
     c_bands:  1 eigenvalues not converged
     c_bands:  2 eigenvalues not converged
     c_bands:  1 eigenvalues not converged
     c_bands:  1 eigenvalues not converged
     c_bands:  1 eigenvalues not converged
     c_bands:  1 eigenvalues not converged
     c_bands:  2 eigenvalues not converged
     c_bands:  1 eigenvalues not converged
     c_bands:  2 eigenvalues not converged
     c_bands:  1 eigenvalues not converged
     c_bands:  1 eigenvalues not converged
     c_bands:  1 eigenvalues not converged
     c_bands:  1 eigenvalues not converged
     c_bands:  1 eigenvalues not converged
     c_bands:  2 eigenvalues not converged
     c_bands:  1 eigenvalues not converged
     c_bands:  1 eigenvalues not converged
     ethr =  5.07E-06,  avg # of iterations = 16.0

[...]

     iteration # 17     ecut=    55.12 Ry     beta= 0.10
     Davidson diagonalization with overlap
     c_bands:  1 eigenvalues not converged
     ethr =  1.04E-08,  avg # of iterations =  6.9

[...]

     total energy              =   -1965.36847735 Ry
     estimated scf accuracy    <       0.00009035 Ry

     iteration # 18     ecut=    55.12 Ry     beta= 0.10
     Davidson diagonalization with overlap
     ethr =  1.04E-08,  avg # of iterations =  5.8

[...]

     Adding external electric field

     Computed dipole along edir(3) :
        Dipole                0.0178 Ry au,          0.0453 Debye
        Dipole field          0.0001 Ry au,

        Potential amp.       -0.0047 Ry
        Total length         44.7296 bohr

     End of self-consistent calculation

          k = 0.0000 0.0000 0.0000 ( 29359 PWs)   bands (ev):

   -65.4078 -65.3803 -65.0067 -65.0054 -64.9812 -64.9811 -62.9988 -62.9917
   -62.8647 -62.8564 -62.8421 -62.8344 -37.6948 -37.6295 -37.6092 -37.5202
   -37.4873 -37.3600 -37.2953 -37.2308 -37.2261 -37.1827 -37.1592 -37.1385
   -36.9728 -36.9688 -36.9578 -36.9179 -36.8825 -36.8555 -36.7481 -36.7283
   -36.7076 -36.6415 -36.6289 -36.5802 -36.5667 -36.5496 -36.5243 -36.4689
   -36.4035 -36.3734 -36.3689 -36.3548 -36.3341 -36.3261 -36.2879 -36.2790
    -4.7696  -3.0669  -2.9652  -2.9628  -2.8845  -2.7820  -2.6234  -2.4107
    -2.4081  -2.2378  -1.8334  -1.8285  -1.1241  -1.1157  -1.0033  -0.9936
    -0.9688  -0.8142  -0.7930  -0.7527  -0.6038  -0.4091  -0.1111   0.2767
     0.3907   0.4367   0.6020   1.0611   1.1659   1.4334   1.4398   1.6343
     1.8129   2.1284   2.4818   2.6339   2.7224   2.7761   2.8519   2.9062
     2.9264   2.9536   3.0012   3.0541   3.0646   3.1081   3.1410   3.2072
     3.2362   3.3275   3.3895   3.5138   3.6508

[...]

          k = 0.0796-0.0451 0.0000 ( 29255 PWs)   bands (ev):

[...]

          k =-0.0955 0.0338 0.0000 ( 29218 PWs)   bands (ev):

[...]

          k =-0.0955-0.0675 0.0000 ( 29246 PWs)   bands (ev):

   -65.4036 -65.3813 -65.0047 -65.0020 -64.9813 -64.9807 -63.0029 -62.9928
   -62.8694 -62.8563 -62.8468 -62.8341 -37.5457 -37.4712 -37.3944 -37.3643
   -37.3251 -37.2165 -37.2079 -37.2064 -37.2047 -37.0126 -36.9626 -36.9156
   -36.9113 -36.9076 -36.9074 -36.8993 -36.8796 -36.8238 -36.8233 -36.7653
   -36.7529 -36.7187 -36.6416 -36.6296 -36.6235 -36.6026 -36.6022 -36.5977
   -36.5937 -36.5826 -36.5732 -36.5271 -36.5126 -36.4999 -36.4613 -36.4554
    -3.0198  -2.6634  -2.0399  -2.0009  -1.8951  -1.8713  -1.7363  -1.7266
    -1.5841  -1.3044  -1.2683  -1.0609  -1.0088  -0.8571  -0.7394  -0.6805
    -0.4079  -0.2440  -0.1544  -0.0859  -0.0552   0.1136   0.2082   0.2515
     0.2702   0.4982   0.7426   0.7841   0.9348   0.9356   0.9561   1.0608
     1.1220   1.2097   1.2161   1.2229   1.2367   1.2675   1.3031   1.7643
     1.8538   2.1163   2.1519   2.1685   2.2525   2.2940   2.3534   2.3602
     2.3938   2.4754   2.5957   2.6686   2.7175

     the Fermi energy is     1.7208 ev

!    total energy              =   -1965.36884548 Ry
     estimated scf accuracy    <       0.00000673 Ry
     smearing contrib. (-TS)   =      -0.06100909 Ry
     internal energy E=F+TS    =   -1965.30783639 Ry

     The total energy is F=E-TS. E is the sum of the following terms:
     one-electron contribution =  -16913.77916053 Ry
     hartree contribution      =    8451.21960607 Ry
     xc contribution           =    -363.65694966 Ry
     ewald contribution        =    6860.90866677 Ry
     electric field correction =       0.00000094 Ry

     convergence has been achieved in  18 iterations

     negative rho (up, down):  5.932E-03 0.000E+00

     Forces acting on atoms (cartesian axes, Ry/au):

     atom    1 type  1   force =    -0.00022239   -0.00015573    0.00954532
     atom    2 type  1   force =    -0.00021791   -0.00015864    0.00951507
     atom    3 type  2   force =    -0.00024589   -0.00016869    0.01801929
     atom    4 type  2   force =    -0.00024282   -0.00017671    0.01801943
     atom    5 type  1   force =     0.00009677    0.00007137   -0.01159834
     atom    6 type  1   force =     0.00009072    0.00005771   -0.01158704
     atom    7 type  2   force =     0.00011269    0.00011632   -0.01689325
     atom    8 type  2   force =     0.00014518    0.00006759   -0.01689596
     atom    9 type  1   force =     0.00009972    0.00006937    0.00042061
     atom   10 type  1   force =     0.00009631    0.00007223    0.00040284
     atom   11 type  2   force =     0.00013498    0.00011537    0.00052587
     atom   12 type  2   force =     0.00015263    0.00008982    0.00052615

     Total force =     0.040891     Total SCF correction =     0.007714
     SCF correction compared to forces is large: reduce conv_thr to get better values

     Writing output data file ./V2Tc2/V2Tc2_beef.save/

     General routines

     Parallel routines

   This run was terminated on:   2:12:34  26Jun2022

   JOB DONE.