     Program PWSCF v.6.6 starts on 26Jun2022 at  4:14:24

     R & G space division:  proc/nbgrp/npool/nimage =      37
     Fft bands division:     nmany     =       1
     Reading input from V2Y2.in
Warning: card &CELL ignored
Warning: card / ignored

     Current dimensions of program PWSCF are:
     Max number of different atomic species (ntypx) = 10
     Max number of k-points (npk) =  40000
     Max angular momentum in pseudopotentials (lmaxx) =  3
     Presently stress not available with electric field and gates

     Message from routine cell_base_init:
     DEPRECATED: use true lattice parameter, not A to a.u. conversion factor
     file V.pbe-spnl-rrkjus_psl.1.0.0.UPF: wavefunction(s)  3P 3D renormalized
     file Y.pbe-spn-rrkjus_psl.1.0.0.UPF: wavefunction(s)  4S renormalized

     IMPORTANT: XC functional enforced from input :
     Exchange-correlation= BEEF-VDW
                           (   1   4  43  14   2   0   0)
     Any further DFT definition will be discarded
     Please, verify this is what you really want

     Subspace diagonalization in iterative solution of the eigenvalue problem:
     a serial algorithm will be used

     bravais-lattice index     =            0
     lattice parameter (alat)  =       1.8897  a.u.
     unit-cell volume          =    5774.1435 (a.u.)^3
     number of atoms/cell      =           12
     number of atomic types    =            2
     number of electrons       =       144.00
     number of Kohn-Sham states=           86
     kinetic-energy cutoff     =      55.1240  Ry
     charge density cutoff     =     551.2396  Ry
     convergence threshold     =      1.0E-05
     mixing beta               =       0.1000
     number of iterations used =           10  plain     mixing
     Exchange-correlation= BEEF-VDW
                           (   1   4  43  14   2   0   0)

     celldm(1)=   1.889726  celldm(2)=   0.000000  celldm(3)=   0.000000
     celldm(4)=   0.000000  celldm(5)=   0.000000  celldm(6)=   0.000000

     crystal axes: (cart. coord. in units of alat)
               a(1) = (   6.198750   0.000000   0.000000 )
               a(2) = (   2.865181   5.496839   0.000000 )
               a(3) = (   0.000000   0.000000  25.111573 )

     reciprocal axes: (cart. coord. in units 2 pi/alat)
               b(1) = (  0.161323 -0.084088  0.000000 )
               b(2) = (  0.000000  0.181923  0.000000 )
               b(3) = (  0.000000  0.000000  0.039822 )

     PseudoPot. # 1 for V  read from file:
     ../pseudo/V.pbe-spnl-rrkjus_psl.1.0.0.UPF
     MD5 check sum: 79b3eb63147daf0b665d9f1bcc691206
     Pseudo is Ultrasoft + core correction, Zval = 13.0
     Generated using "atomic" code by A. Dal Corso v.6.2.2
     Using radial grid of 1181 points,  6 beta functions with:
                l(1) =   0
                l(2) =   0
                l(3) =   1
                l(4) =   1
                l(5) =   2
                l(6) =   2
     Q(r) pseudized with 0 coefficients

     PseudoPot. # 2 for Y  read from file:
     ../pseudo/Y.pbe-spn-rrkjus_psl.1.0.0.UPF
     MD5 check sum: 5fe32e6a006803c2ec2edff47948a3c8
     Pseudo is Ultrasoft + core correction, Zval = 11.0
     Generated using "atomic" code by A. Dal Corso v.6.2.2
     Using radial grid of 1223 points,  6 beta functions with:
                l(1) =   0
                l(2) =   0
                l(3) =   1
                l(4) =   1
                l(5) =   2
                l(6) =   2
     Q(r) pseudized with 0 coefficients

     atomic species   valence    mass     pseudopotential
        V             13.00    50.94150     V ( 1.00)
        Y             11.00    88.90584     Y ( 1.00)

     No symmetry found

   Cartesian axes

     site n.     atom                  positions (alat units)
         1           V   tau(   1) = (   0.0000000   0.0000000  10.0000000  )
         2           V   tau(   2) = (   4.5319658   2.7484195  10.0000000  )
         3           Y   tau(   3) = (   3.0993751   0.0000000  10.0000000  )
         4           Y   tau(   4) = (   1.4325907   2.7484195  10.0000000  )
         5           V   tau(   5) = (   6.1987502   3.7592442  12.5557863  )
         6           V   tau(   6) = (   1.6667844   1.0108247  12.5557863  )
         7           Y   tau(   7) = (   3.0993751   3.7592442  12.5557863  )
         8           Y   tau(   8) = (   4.7661595   1.0108247  12.5557863  )
         9           V   tau(   9) = (   1.3386319   0.8118599  14.3715858  )
        10           V   tau(  10) = (   5.8705153   3.5601402  14.3714347  )
        11           Y   tau(  11) = (   4.4738467   0.8336940  15.7346566  )
        12           Y   tau(  12) = (   2.8080728   3.5824328  15.7348307  )

     number of k points=    74  Fermi-Dirac smearing, width (Ry)=  0.0100
                       cart. coord. in units 2pi/alat
        k(    1) = (   0.0000000   0.0000000   0.0000000), wk =   0.0138889
        k(    2) = (   0.0000000   0.0151602   0.0000000), wk =   0.0277778
        k(    3) = (   0.0000000   0.0303205   0.0000000), wk =   0.0277778
        k(    4) = (   0.0000000   0.0454807   0.0000000), wk =   0.0277778
        k(    5) = (   0.0000000   0.0606409   0.0000000), wk =   0.0277778
        k(    6) = (   0.0000000   0.0758011   0.0000000), wk =   0.0277778
        k(    7) = (   0.0000000  -0.0909614   0.0000000), wk =   0.0138889
        k(    8) = (   0.0134436  -0.0070073   0.0000000), wk =   0.0277778
        k(    9) = (   0.0134436   0.0081529   0.0000000), wk =   0.0277778
        k(   10) = (   0.0134436   0.0233131   0.0000000), wk =   0.0277778
        k(   11) = (   0.0134436   0.0384733   0.0000000), wk =   0.0277778
        k(   12) = (   0.0134436   0.0536336   0.0000000), wk =   0.0277778
        k(   13) = (   0.0134436   0.0687938   0.0000000), wk =   0.0277778
        k(   14) = (   0.0134436  -0.0979687   0.0000000), wk =   0.0277778
        k(   15) = (   0.0134436  -0.0828085   0.0000000), wk =   0.0277778
        k(   16) = (   0.0134436  -0.0676483   0.0000000), wk =   0.0277778
        k(   17) = (   0.0134436  -0.0524880   0.0000000), wk =   0.0277778
        k(   18) = (   0.0134436  -0.0373278   0.0000000), wk =   0.0277778
        k(   19) = (   0.0134436  -0.0221676   0.0000000), wk =   0.0277778
        k(   20) = (   0.0268871  -0.0140147   0.0000000), wk =   0.0277778
        k(   21) = (   0.0268871   0.0011455   0.0000000), wk =   0.0277778
        k(   22) = (   0.0268871   0.0163058   0.0000000), wk =   0.0277778
        k(   23) = (   0.0268871   0.0314660   0.0000000), wk =   0.0277778
        k(   24) = (   0.0268871   0.0466262   0.0000000), wk =   0.0277778
        k(   25) = (   0.0268871   0.0617864   0.0000000), wk =   0.0277778
        k(   26) = (   0.0268871  -0.1049761   0.0000000), wk =   0.0277778
        k(   27) = (   0.0268871  -0.0898158   0.0000000), wk =   0.0277778
        k(   28) = (   0.0268871  -0.0746556   0.0000000), wk =   0.0277778
        k(   29) = (   0.0268871  -0.0594954   0.0000000), wk =   0.0277778
        k(   30) = (   0.0268871  -0.0443352   0.0000000), wk =   0.0277778
        k(   31) = (   0.0268871  -0.0291749   0.0000000), wk =   0.0277778
        k(   32) = (   0.0403307  -0.0210220   0.0000000), wk =   0.0277778
        k(   33) = (   0.0403307  -0.0058618   0.0000000), wk =   0.0277778
        k(   34) = (   0.0403307   0.0092984   0.0000000), wk =   0.0277778
        k(   35) = (   0.0403307   0.0244586   0.0000000), wk =   0.0277778
        k(   36) = (   0.0403307   0.0396189   0.0000000), wk =   0.0277778
        k(   37) = (   0.0403307   0.0547791   0.0000000), wk =   0.0277778
        k(   38) = (   0.0403307  -0.1119834   0.0000000), wk =   0.0277778
        k(   39) = (   0.0403307  -0.0968232   0.0000000), wk =   0.0277778
        k(   40) = (   0.0403307  -0.0816630   0.0000000), wk =   0.0277778
        k(   41) = (   0.0403307  -0.0665027   0.0000000), wk =   0.0277778
        k(   42) = (   0.0403307  -0.0513425   0.0000000), wk =   0.0277778
        k(   43) = (   0.0403307  -0.0361823   0.0000000), wk =   0.0277778
        k(   44) = (   0.0537743  -0.0280294   0.0000000), wk =   0.0277778
        k(   45) = (   0.0537743  -0.0128692   0.0000000), wk =   0.0277778
        k(   46) = (   0.0537743   0.0022911   0.0000000), wk =   0.0277778
        k(   47) = (   0.0537743   0.0174513   0.0000000), wk =   0.0277778
        k(   48) = (   0.0537743   0.0326115   0.0000000), wk =   0.0277778
        k(   49) = (   0.0537743   0.0477717   0.0000000), wk =   0.0277778
        k(   50) = (   0.0537743  -0.1189908   0.0000000), wk =   0.0277778
        k(   51) = (   0.0537743  -0.1038305   0.0000000), wk =   0.0277778
        k(   52) = (   0.0537743  -0.0886703   0.0000000), wk =   0.0277778
        k(   53) = (   0.0537743  -0.0735101   0.0000000), wk =   0.0277778
        k(   54) = (   0.0537743  -0.0583498   0.0000000), wk =   0.0277778
        k(   55) = (   0.0537743  -0.0431896   0.0000000), wk =   0.0277778
        k(   56) = (   0.0672179  -0.0350367   0.0000000), wk =   0.0277778
        k(   57) = (   0.0672179  -0.0198765   0.0000000), wk =   0.0277778
        k(   58) = (   0.0672179  -0.0047163   0.0000000), wk =   0.0277778
        k(   59) = (   0.0672179   0.0104439   0.0000000), wk =   0.0277778
        k(   60) = (   0.0672179   0.0256042   0.0000000), wk =   0.0277778
        k(   61) = (   0.0672179   0.0407644   0.0000000), wk =   0.0277778
        k(   62) = (   0.0672179  -0.1259981   0.0000000), wk =   0.0277778
        k(   63) = (   0.0672179  -0.1108379   0.0000000), wk =   0.0277778
        k(   64) = (   0.0672179  -0.0956777   0.0000000), wk =   0.0277778
        k(   65) = (   0.0672179  -0.0805174   0.0000000), wk =   0.0277778
        k(   66) = (   0.0672179  -0.0653572   0.0000000), wk =   0.0277778
        k(   67) = (   0.0672179  -0.0501970   0.0000000), wk =   0.0277778
        k(   68) = (  -0.0806614   0.0420441   0.0000000), wk =   0.0138889
        k(   69) = (  -0.0806614   0.0572043   0.0000000), wk =   0.0277778
        k(   70) = (  -0.0806614   0.0723645   0.0000000), wk =   0.0277778
        k(   71) = (  -0.0806614   0.0875248   0.0000000), wk =   0.0277778
        k(   72) = (  -0.0806614   0.1026850   0.0000000), wk =   0.0277778
        k(   73) = (  -0.0806614   0.1178452   0.0000000), wk =   0.0277778
        k(   74) = (  -0.0806614  -0.0489173   0.0000000), wk =   0.0138889

     Initial potential from superposition of free atoms

     starting charge  143.97004, renormalised to  144.00000

     negative rho (up, down):  1.085E-03 0.000E+00

     %%%%%%%%%%%%%%%%%%%%%%%%%%%%%%%%%%%%%%%%%%%%%%%%%%%%%%%%%%%%%%%%%%%%%%%%
     %                                                                      %
     % You are using vdW-DF, which was implemented by the Thonhauser group. %
     % Please cite the following two papers that made this development      %
     % possible and the two reviews that describe the various versions:     %
     %                                                                      %
     %   T. Thonhauser et al., PRL 115, 136402 (2015).                      %
     %   T. Thonhauser et al., PRB 76, 125112 (2007).                       %
     %   K. Berland et al., Rep. Prog. Phys. 78, 066501 (2015).             %
     %   D.C. Langreth et al., J. Phys.: Condens. Matter 21, 084203 (2009). %
     %                                                                      %
     %                                                                      %
     % If you are calculating the stress with vdW-DF, please also cite:     %
     %                                                                      %
     %   R. Sabatini et al., J. Phys.: Condens. Matter 24, 424209 (2012).   %
     %                                                                      %
     %%%%%%%%%%%%%%%%%%%%%%%%%%%%%%%%%%%%%%%%%%%%%%%%%%%%%%%%%%%%%%%%%%%%%%%%

     Adding external electric field

     Computed dipole along edir(3) :
        Dipole                0.0093 Ry au,          0.0235 Debye
        Dipole field          0.0000 Ry au,

        Potential amp.       -0.0019 Ry
        Total length         46.2676 bohr

     Starting wfcs are  138 randomized atomic wfcs

     Self-consistent Calculation

     iteration #  1     ecut=    55.12 Ry     beta= 0.10
     Davidson diagonalization with overlap
     ethr =  1.00E-02,  avg # of iterations =  2.0

[...]

     total energy              =   -1378.97616606 Ry
     estimated scf accuracy    <      23.42175657 Ry

[...]

     iteration # 16     ecut=    55.12 Ry     beta= 0.10
     Davidson diagonalization with overlap
     c_bands:  2 eigenvalues not converged
     c_bands:  1 eigenvalues not converged
     c_bands:  2 eigenvalues not converged
     c_bands:  1 eigenvalues not converged
     c_bands:  1 eigenvalues not converged
     c_bands:  1 eigenvalues not converged
     c_bands:  1 eigenvalues not converged
     c_bands:  2 eigenvalues not converged
     c_bands:  2 eigenvalues not converged
     c_bands:  1 eigenvalues not converged
     c_bands:  1 eigenvalues not converged
     c_bands:  1 eigenvalues not converged
     c_bands:  1 eigenvalues not converged
     c_bands:  1 eigenvalues not converged
     c_bands:  1 eigenvalues not converged
     c_bands:  3 eigenvalues not converged
     c_bands:  2 eigenvalues not converged
     c_bands:  3 eigenvalues not converged
     c_bands:  1 eigenvalues not converged
     c_bands:  1 eigenvalues not converged
     c_bands:  1 eigenvalues not converged
     c_bands:  1 eigenvalues not converged
     c_bands:  3 eigenvalues not converged
     c_bands:  3 eigenvalues not converged
     c_bands:  2 eigenvalues not converged
     c_bands:  2 eigenvalues not converged
     c_bands:  1 eigenvalues not converged
     c_bands:  1 eigenvalues not converged
     c_bands:  1 eigenvalues not converged
     c_bands:  3 eigenvalues not converged
     c_bands:  2 eigenvalues not converged
     c_bands:  2 eigenvalues not converged
     c_bands:  1 eigenvalues not converged
     c_bands:  1 eigenvalues not converged
     c_bands:  1 eigenvalues not converged
     c_bands:  1 eigenvalues not converged
     c_bands:  1 eigenvalues not converged
     c_bands:  2 eigenvalues not converged
     c_bands:  2 eigenvalues not converged
     c_bands:  1 eigenvalues not converged
     c_bands:  1 eigenvalues not converged
     c_bands:  1 eigenvalues not converged
     ethr =  3.65E-06,  avg # of iterations = 18.9

[...]

     iteration # 30     ecut=    55.12 Ry     beta= 0.10
     Davidson diagonalization with overlap
     c_bands:  1 eigenvalues not converged
     ethr =  2.00E-08,  avg # of iterations =  6.3

[...]

     total energy              =   -1381.67164705 Ry
     estimated scf accuracy    <       0.00003250 Ry

     iteration # 31     ecut=    55.12 Ry     beta= 0.10
     Davidson diagonalization with overlap
     ethr =  2.00E-08,  avg # of iterations =  5.1

[...]

     Adding external electric field

     Computed dipole along edir(3) :
        Dipole                0.3476 Ry au,          0.8835 Debye
        Dipole field          0.0008 Ry au,

        Potential amp.       -0.0700 Ry
        Total length         46.2676 bohr

     End of self-consistent calculation

          k = 0.0000 0.0000 0.0000 ( 39937 PWs)   bands (ev):

   -62.9112 -62.9055 -62.9054 -62.8992 -61.8822 -61.8768 -42.2051 -42.1309
   -41.3574 -41.2791 -40.9472 -40.8687 -37.8061 -37.7981 -36.7535 -36.7497
   -36.7432 -36.6803 -36.6629 -36.6552 -36.5816 -36.5745 -36.5660 -36.4981
   -35.9841 -35.9777 -35.9739 -35.9081 -34.3615 -34.3565 -22.3961 -22.3121
   -22.2226 -22.0445 -21.9600 -21.7204 -21.6658 -21.4433 -21.3465 -21.3272
   -21.2753 -21.1871 -20.9563 -20.9291 -20.8506 -20.8335 -20.7622 -20.5590
    -3.4047  -2.2482  -1.1728  -0.9807  -0.8286  -0.7630  -0.6967  -0.5297
    -0.4751  -0.2703  -0.1115   0.0372   0.1539   0.3801   0.4037   0.6287
     0.6667   0.7916   0.8450   0.8793   1.2748   1.2784   1.3837   1.4283
     1.6090   1.6357   1.7660   1.7886   1.8395   1.8556   1.8759   2.2104
     2.2190   2.3652   2.3860   2.6555   2.7470   2.8510

[...]

          k = 0.0672-0.0502 0.0000 ( 39896 PWs)   bands (ev):

[...]

          k =-0.0807 0.0420 0.0000 ( 39920 PWs)   bands (ev):

[...]

          k =-0.0807-0.0489 0.0000 ( 39946 PWs)   bands (ev):

   -62.9112 -62.9055 -62.9054 -62.8992 -61.8822 -61.8768 -42.2051 -42.1310
   -41.3588 -41.2798 -40.9489 -40.8691 -37.8060 -37.7980 -36.7522 -36.7494
   -36.7431 -36.6802 -36.6597 -36.6549 -36.5807 -36.5722 -36.5657 -36.4980
   -35.9828 -35.9775 -35.9733 -35.9080 -34.3616 -34.3566 -22.3969 -22.3112
   -22.2224 -22.0490 -21.9581 -21.7278 -21.6658 -21.4498 -21.3475 -21.3337
   -21.2938 -21.1876 -20.9575 -20.9300 -20.8589 -20.8391 -20.7659 -20.5605
    -1.9692  -1.8114  -1.2165  -0.8821  -0.6891  -0.5414  -0.4975  -0.2067
    -0.0904  -0.0715   0.1706   0.2831   0.2922   0.5125   0.5390   0.6160
     0.6852   0.8138   0.9001   0.9831   1.0904   1.1206   1.1949   1.2869
     1.3889   1.4341   1.4678   1.5977   1.6642   1.7859   1.8328   1.8512
     1.9504   2.0130   2.1562   2.1765   2.2844   2.3411

     the Fermi energy is     1.3555 ev

!    total energy              =   -1381.67201462 Ry
     estimated scf accuracy    <       0.00000477 Ry
     smearing contrib. (-TS)   =      -0.10563988 Ry
     internal energy E=F+TS    =   -1381.56637475 Ry

     The total energy is F=E-TS. E is the sum of the following terms:
     one-electron contribution =   -9063.02909083 Ry
     hartree contribution      =    4524.54691205 Ry
     xc contribution           =    -237.99943300 Ry
     ewald contribution        =    3394.91497410 Ry
     electric field correction =       0.00026293 Ry

     convergence has been achieved in  31 iterations

     negative rho (up, down):  1.478E-03 0.000E+00

     Forces acting on atoms (cartesian axes, Ry/au):

     atom    1 type  1   force =     0.00665111    0.00403373    0.02870828
     atom    2 type  1   force =     0.00665583    0.00403378    0.02870211
     atom    3 type  2   force =    -0.01180492   -0.00716462   -0.01752755
     atom    4 type  2   force =    -0.01181159   -0.00716000   -0.01753114
     atom    5 type  1   force =    -0.01523683   -0.00923997   -0.02167005
     atom    6 type  1   force =    -0.01524640   -0.00923747   -0.02160552
     atom    7 type  2   force =     0.02203852    0.01335540    0.00103159
     atom    8 type  2   force =     0.02204133    0.01337522    0.00101648
     atom    9 type  1   force =    -0.00172865   -0.00104911    0.01032661
     atom   10 type  1   force =    -0.00170856   -0.00103479    0.01038447
     atom   11 type  2   force =     0.00008710   -0.00000218   -0.00091705
     atom   12 type  2   force =     0.00006304    0.00009000   -0.00091823

     Total force =     0.076759     Total SCF correction =     0.006013

     Writing output data file ./V2Y2/V2Y2_beef.save/

     General routines

     Parallel routines

   This run was terminated on:   7:18:23  26Jun2022

   JOB DONE.