     Program PWSCF v.6.6 starts on 26Jun2022 at  8:41:10

     R & G space division:  proc/nbgrp/npool/nimage =      37
     Fft bands division:     nmany     =       1
     Reading input from V2Zr2.in
Warning: card &CELL ignored
Warning: card / ignored

     Current dimensions of program PWSCF are:
     Max number of different atomic species (ntypx) = 10
     Max number of k-points (npk) =  40000
     Max angular momentum in pseudopotentials (lmaxx) =  3
     Presently stress not available with electric field and gates

     Message from routine cell_base_init:
     DEPRECATED: use true lattice parameter, not A to a.u. conversion factor
     file V.pbe-spnl-rrkjus_psl.1.0.0.UPF: wavefunction(s)  3P 3D renormalized
     file Zr.pbe-spn-rrkjus_psl.1.0.0.UPF: wavefunction(s)  4S renormalized

     IMPORTANT: XC functional enforced from input :
     Exchange-correlation= BEEF-VDW
                           (   1   4  43  14   2   0   0)
     Any further DFT definition will be discarded
     Please, verify this is what you really want

     Subspace diagonalization in iterative solution of the eigenvalue problem:
     a serial algorithm will be used

     bravais-lattice index     =            0
     lattice parameter (alat)  =       1.8897  a.u.
     unit-cell volume          =    5173.7498 (a.u.)^3
     number of atoms/cell      =           12
     number of atomic types    =            2
     number of electrons       =       150.00
     number of Kohn-Sham states=           90
     kinetic-energy cutoff     =      55.1240  Ry
     charge density cutoff     =     551.2396  Ry
     convergence threshold     =      1.0E-05
     mixing beta               =       0.1000
     number of iterations used =           10  plain     mixing
     Exchange-correlation= BEEF-VDW
                           (   1   4  43  14   2   0   0)

     celldm(1)=   1.889726  celldm(2)=   0.000000  celldm(3)=   0.000000
     celldm(4)=   0.000000  celldm(5)=   0.000000  celldm(6)=   0.000000

     crystal axes: (cart. coord. in units of alat)
               a(1) = (   5.739384   0.000000   0.000000 )
               a(2) = (   1.913103   5.411152   0.000000 )
               a(3) = (   0.000000   0.000000  24.686180 )

     reciprocal axes: (cart. coord. in units 2 pi/alat)
               b(1) = (  0.174235 -0.061600  0.000000 )
               b(2) = (  0.000000  0.184804  0.000000 )
               b(3) = (  0.000000  0.000000  0.040508 )

     PseudoPot. # 1 for V  read from file:
     ../pseudo/V.pbe-spnl-rrkjus_psl.1.0.0.UPF
     MD5 check sum: 79b3eb63147daf0b665d9f1bcc691206
     Pseudo is Ultrasoft + core correction, Zval = 13.0
     Generated using "atomic" code by A. Dal Corso v.6.2.2
     Using radial grid of 1181 points,  6 beta functions with:
                l(1) =   0
                l(2) =   0
                l(3) =   1
                l(4) =   1
                l(5) =   2
                l(6) =   2
     Q(r) pseudized with 0 coefficients

     PseudoPot. # 2 for Zr read from file:
     ../pseudo/Zr.pbe-spn-rrkjus_psl.1.0.0.UPF
     MD5 check sum: 3d17ee99aa1707c2ccb6b09ed65e51a1
     Pseudo is Ultrasoft + core correction, Zval = 12.0
     Generated using "atomic" code by A. Dal Corso v.6.2.2
     Using radial grid of 1225 points,  6 beta functions with:
                l(1) =   0
                l(2) =   0
                l(3) =   1
                l(4) =   1
                l(5) =   2
                l(6) =   2
     Q(r) pseudized with 0 coefficients

     atomic species   valence    mass     pseudopotential
        V             13.00    50.94150     V ( 1.00)
        Zr            12.00    91.22400     Zr( 1.00)

     No symmetry found

   Cartesian axes

     site n.     atom                  positions (alat units)
         1           V   tau(   1) = (   0.0000000   0.0000000  10.0000000  )
         2           V   tau(   2) = (   3.8262437   2.7055759  10.0000000  )
         3           Zr  tau(   3) = (   2.8696920   0.0000000  10.0000000  )
         4           Zr  tau(   4) = (   0.9565517   2.7055759  10.0000000  )
         5           V   tau(   5) = (   5.7393840   4.0583768  12.3430899  )
         6           V   tau(   6) = (   1.9131402   1.3528009  12.3430899  )
         7           Zr  tau(   7) = (   2.8696920   4.0583768  12.3430899  )
         8           Zr  tau(   8) = (   4.7828322   1.3528009  12.3430899  )
         9           V   tau(   9) = (   3.8262576   2.7055814  14.4615955  )
        10           V   tau(  10) = (   0.0000543   0.0000429  14.4616414  )
        11           Zr  tau(  11) = (   0.9566114   2.7055496  14.6654180  )
        12           Zr  tau(  12) = (   2.8696854   0.0000636  14.6654174  )

     number of k points=    74  Fermi-Dirac smearing, width (Ry)=  0.0100
                       cart. coord. in units 2pi/alat
        k(    1) = (   0.0000000   0.0000000   0.0000000), wk =   0.0138889
        k(    2) = (   0.0000000   0.0154003   0.0000000), wk =   0.0277778
        k(    3) = (   0.0000000   0.0308006   0.0000000), wk =   0.0277778
        k(    4) = (   0.0000000   0.0462009   0.0000000), wk =   0.0277778
        k(    5) = (   0.0000000   0.0616012   0.0000000), wk =   0.0277778
        k(    6) = (   0.0000000   0.0770015   0.0000000), wk =   0.0277778
        k(    7) = (   0.0000000  -0.0924018   0.0000000), wk =   0.0138889
        k(    8) = (   0.0145196  -0.0051334   0.0000000), wk =   0.0277778
        k(    9) = (   0.0145196   0.0102669   0.0000000), wk =   0.0277778
        k(   10) = (   0.0145196   0.0256672   0.0000000), wk =   0.0277778
        k(   11) = (   0.0145196   0.0410675   0.0000000), wk =   0.0277778
        k(   12) = (   0.0145196   0.0564678   0.0000000), wk =   0.0277778
        k(   13) = (   0.0145196   0.0718681   0.0000000), wk =   0.0277778
        k(   14) = (   0.0145196  -0.0975351   0.0000000), wk =   0.0277778
        k(   15) = (   0.0145196  -0.0821348   0.0000000), wk =   0.0277778
        k(   16) = (   0.0145196  -0.0667345   0.0000000), wk =   0.0277778
        k(   17) = (   0.0145196  -0.0513342   0.0000000), wk =   0.0277778
        k(   18) = (   0.0145196  -0.0359340   0.0000000), wk =   0.0277778
        k(   19) = (   0.0145196  -0.0205337   0.0000000), wk =   0.0277778
        k(   20) = (   0.0290391  -0.0102667   0.0000000), wk =   0.0277778
        k(   21) = (   0.0290391   0.0051336   0.0000000), wk =   0.0277778
        k(   22) = (   0.0290391   0.0205339   0.0000000), wk =   0.0277778
        k(   23) = (   0.0290391   0.0359342   0.0000000), wk =   0.0277778
        k(   24) = (   0.0290391   0.0513344   0.0000000), wk =   0.0277778
        k(   25) = (   0.0290391   0.0667347   0.0000000), wk =   0.0277778
        k(   26) = (   0.0290391  -0.1026685   0.0000000), wk =   0.0277778
        k(   27) = (   0.0290391  -0.0872682   0.0000000), wk =   0.0277778
        k(   28) = (   0.0290391  -0.0718679   0.0000000), wk =   0.0277778
        k(   29) = (   0.0290391  -0.0564676   0.0000000), wk =   0.0277778
        k(   30) = (   0.0290391  -0.0410673   0.0000000), wk =   0.0277778
        k(   31) = (   0.0290391  -0.0256670   0.0000000), wk =   0.0277778
        k(   32) = (   0.0435587  -0.0154001   0.0000000), wk =   0.0277778
        k(   33) = (   0.0435587   0.0000002   0.0000000), wk =   0.0277778
        k(   34) = (   0.0435587   0.0154005   0.0000000), wk =   0.0277778
        k(   35) = (   0.0435587   0.0308008   0.0000000), wk =   0.0277778
        k(   36) = (   0.0435587   0.0462011   0.0000000), wk =   0.0277778
        k(   37) = (   0.0435587   0.0616014   0.0000000), wk =   0.0277778
        k(   38) = (   0.0435587  -0.1078019   0.0000000), wk =   0.0277778
        k(   39) = (   0.0435587  -0.0924016   0.0000000), wk =   0.0277778
        k(   40) = (   0.0435587  -0.0770013   0.0000000), wk =   0.0277778
        k(   41) = (   0.0435587  -0.0616010   0.0000000), wk =   0.0277778
        k(   42) = (   0.0435587  -0.0462007   0.0000000), wk =   0.0277778
        k(   43) = (   0.0435587  -0.0308004   0.0000000), wk =   0.0277778
        k(   44) = (   0.0580782  -0.0205335   0.0000000), wk =   0.0277778
        k(   45) = (   0.0580782  -0.0051332   0.0000000), wk =   0.0277778
        k(   46) = (   0.0580782   0.0102671   0.0000000), wk =   0.0277778
        k(   47) = (   0.0580782   0.0256674   0.0000000), wk =   0.0277778
        k(   48) = (   0.0580782   0.0410677   0.0000000), wk =   0.0277778
        k(   49) = (   0.0580782   0.0564680   0.0000000), wk =   0.0277778
        k(   50) = (   0.0580782  -0.1129352   0.0000000), wk =   0.0277778
        k(   51) = (   0.0580782  -0.0975349   0.0000000), wk =   0.0277778
        k(   52) = (   0.0580782  -0.0821346   0.0000000), wk =   0.0277778
        k(   53) = (   0.0580782  -0.0667343   0.0000000), wk =   0.0277778
        k(   54) = (   0.0580782  -0.0513340   0.0000000), wk =   0.0277778
        k(   55) = (   0.0580782  -0.0359338   0.0000000), wk =   0.0277778
        k(   56) = (   0.0725978  -0.0256668   0.0000000), wk =   0.0277778
        k(   57) = (   0.0725978  -0.0102665   0.0000000), wk =   0.0277778
        k(   58) = (   0.0725978   0.0051338   0.0000000), wk =   0.0277778
        k(   59) = (   0.0725978   0.0205341   0.0000000), wk =   0.0277778
        k(   60) = (   0.0725978   0.0359344   0.0000000), wk =   0.0277778
        k(   61) = (   0.0725978   0.0513346   0.0000000), wk =   0.0277778
        k(   62) = (   0.0725978  -0.1180686   0.0000000), wk =   0.0277778
        k(   63) = (   0.0725978  -0.1026683   0.0000000), wk =   0.0277778
        k(   64) = (   0.0725978  -0.0872680   0.0000000), wk =   0.0277778
        k(   65) = (   0.0725978  -0.0718677   0.0000000), wk =   0.0277778
        k(   66) = (   0.0725978  -0.0564674   0.0000000), wk =   0.0277778
        k(   67) = (   0.0725978  -0.0410671   0.0000000), wk =   0.0277778
        k(   68) = (  -0.0871174   0.0308002   0.0000000), wk =   0.0138889
        k(   69) = (  -0.0871174   0.0462005   0.0000000), wk =   0.0277778
        k(   70) = (  -0.0871174   0.0616008   0.0000000), wk =   0.0277778
        k(   71) = (  -0.0871174   0.0770011   0.0000000), wk =   0.0277778
        k(   72) = (  -0.0871174   0.0924014   0.0000000), wk =   0.0277778
        k(   73) = (  -0.0871174   0.1078017   0.0000000), wk =   0.0277778
        k(   74) = (  -0.0871174  -0.0616016   0.0000000), wk =   0.0138889

     Initial potential from superposition of free atoms

     starting charge  149.98164, renormalised to  150.00000

     negative rho (up, down):  1.179E-03 0.000E+00

     %%%%%%%%%%%%%%%%%%%%%%%%%%%%%%%%%%%%%%%%%%%%%%%%%%%%%%%%%%%%%%%%%%%%%%%%
     %                                                                      %
     % You are using vdW-DF, which was implemented by the Thonhauser group. %
     % Please cite the following two papers that made this development      %
     % possible and the two reviews that describe the various versions:     %
     %                                                                      %
     %   T. Thonhauser et al., PRL 115, 136402 (2015).                      %
     %   T. Thonhauser et al., PRB 76, 125112 (2007).                       %
     %   K. Berland et al., Rep. Prog. Phys. 78, 066501 (2015).             %
     %   D.C. Langreth et al., J. Phys.: Condens. Matter 21, 084203 (2009). %
     %                                                                      %
     %                                                                      %
     % If you are calculating the stress with vdW-DF, please also cite:     %
     %                                                                      %
     %   R. Sabatini et al., J. Phys.: Condens. Matter 24, 424209 (2012).   %
     %                                                                      %
     %%%%%%%%%%%%%%%%%%%%%%%%%%%%%%%%%%%%%%%%%%%%%%%%%%%%%%%%%%%%%%%%%%%%%%%%

     Adding external electric field

     Computed dipole along edir(3) :
        Dipole                0.0005 Ry au,          0.0013 Debye
        Dipole field          0.0000 Ry au,

        Potential amp.       -0.0001 Ry
        Total length         45.4839 bohr

     Starting wfcs are  138 randomized atomic wfcs

     Self-consistent Calculation

     iteration #  1     ecut=    55.12 Ry     beta= 0.10
     Davidson diagonalization with overlap
     ethr =  1.00E-02,  avg # of iterations =  2.0

[...]

     total energy              =   -1475.89895786 Ry
     estimated scf accuracy    <      13.23653450 Ry

[...]

     iteration #  8     ecut=    55.12 Ry     beta= 0.10
     Davidson diagonalization with overlap
     c_bands:  1 eigenvalues not converged
     ethr =  1.39E-04,  avg # of iterations = 10.0

[...]

     iteration # 16     ecut=    55.12 Ry     beta= 0.10
     Davidson diagonalization with overlap
     c_bands:  1 eigenvalues not converged
     c_bands:  1 eigenvalues not converged
     c_bands:  1 eigenvalues not converged
     c_bands:  1 eigenvalues not converged
     c_bands:  1 eigenvalues not converged
     c_bands:  1 eigenvalues not converged
     c_bands:  1 eigenvalues not converged
     c_bands:  1 eigenvalues not converged
     c_bands:  2 eigenvalues not converged
     ethr =  1.60E-06,  avg # of iterations =  4.5

[...]

     total energy              =   -1477.29326766 Ry
     estimated scf accuracy    <       0.00001055 Ry

     iteration # 25     ecut=    55.12 Ry     beta= 0.10
     Davidson diagonalization with overlap
     ethr =  7.04E-09,  avg # of iterations =  4.9

[...]

     Adding external electric field

     Computed dipole along edir(3) :
        Dipole                0.0418 Ry au,          0.1062 Debye
        Dipole field          0.0001 Ry au,

        Potential amp.       -0.0092 Ry
        Total length         45.4839 bohr

     End of self-consistent calculation

          k = 0.0000 0.0000 0.0000 ( 35761 PWs)   bands (ev):

   -62.8994 -62.8952 -62.8286 -62.8219 -62.8199 -62.8181 -47.6174 -47.5866
   -47.5814 -47.5506 -46.9642 -46.9332 -36.7791 -36.7765 -36.7303 -36.7019
   -36.6980 -36.6782 -36.6761 -36.6724 -36.6555 -36.6503 -36.6449 -36.6264
   -36.6172 -36.6058 -36.6037 -36.6027 -36.5752 -36.5460 -25.7446 -25.7164
   -25.6921 -25.6606 -25.6462 -25.6094 -25.6033 -25.5806 -25.5577 -25.5314
   -25.3860 -25.3592 -25.1730 -25.0080 -24.9837 -24.9589 -24.9476 -24.8009
    -4.0158  -2.6861  -1.8898  -1.7345  -1.5953  -1.2461  -1.2322  -1.0958
    -1.0070  -0.9506  -0.9270  -0.7793  -0.2571   0.1118   0.2034   0.3354
     0.3915   0.4114   0.4177   0.4836   0.5840   0.6711   0.8770   0.9867
     1.0910   1.3128   1.3571   1.5417   1.6897   1.8479   1.8652   1.8898
     1.9844   2.1365   2.4565   2.5646   2.8981   2.9278   3.0005   3.0769
     3.1592   3.2307

[...]

          k = 0.0726-0.0411 0.0000 ( 35788 PWs)   bands (ev):

[...]

          k =-0.0871 0.0308 0.0000 ( 35824 PWs)   bands (ev):

[...]

          k =-0.0871-0.0616 0.0000 ( 35718 PWs)   bands (ev):

   -62.8992 -62.8953 -62.8260 -62.8243 -62.8224 -62.8157 -47.6184 -47.5877
   -47.5824 -47.5516 -46.9666 -46.9330 -36.7794 -36.7741 -36.7252 -36.6974
   -36.6870 -36.6755 -36.6717 -36.6712 -36.6518 -36.6518 -36.6406 -36.6264
   -36.6161 -36.6006 -36.5992 -36.5945 -36.5808 -36.5459 -25.7612 -25.7331
   -25.7097 -25.6583 -25.6446 -25.6429 -25.6056 -25.5896 -25.5859 -25.5398
   -25.3901 -25.3636 -25.1871 -25.0015 -24.9897 -24.9703 -24.9630 -24.8065
    -2.2010  -2.1170  -1.2723  -1.0315  -1.0162  -0.8260  -0.6737  -0.5783
    -0.5472  -0.1154   0.0435   0.1839   0.2714   0.2723   0.2906   0.3167
     0.5318   0.5443   0.5500   0.6352   0.6731   0.7848   0.8958   1.0679
     1.1318   1.1725   1.1841   1.2098   1.2516   1.4313   1.4319   1.4906
     1.5043   1.5841   1.7188   1.8011   1.8107   1.8463   2.1116   2.2574
     2.3158   2.3513

     the Fermi energy is     1.1894 ev

!    total energy              =   -1477.29321915 Ry
     estimated scf accuracy    <       0.00000768 Ry
     smearing contrib. (-TS)   =      -0.11415233 Ry
     internal energy E=F+TS    =   -1477.17906682 Ry

     The total energy is F=E-TS. E is the sum of the following terms:
     one-electron contribution =  -11064.37553618 Ry
     hartree contribution      =    5523.02160248 Ry
     xc contribution           =    -238.30425871 Ry
     ewald contribution        =    4302.47912134 Ry
     electric field correction =       0.00000424 Ry

     convergence has been achieved in  25 iterations

     negative rho (up, down):  9.186E-04 0.000E+00

     Forces acting on atoms (cartesian axes, Ry/au):

     atom    1 type  1   force =    -0.00001413   -0.00000649    0.02572163
     atom    2 type  1   force =     0.00001135    0.00000680    0.02572254
     atom    3 type  2   force =     0.00002004   -0.00002232   -0.00512099
     atom    4 type  2   force =    -0.00001840    0.00002392   -0.00511960
     atom    5 type  1   force =    -0.00003893   -0.00001981    0.00719868
     atom    6 type  1   force =     0.00003789    0.00001991    0.00717633
     atom    7 type  2   force =     0.00004074   -0.00005645   -0.02774758
     atom    8 type  2   force =    -0.00004167    0.00005403   -0.02774484
     atom    9 type  1   force =     0.00001771    0.00000908   -0.00003104
     atom   10 type  1   force =    -0.00001617   -0.00000884    0.00000732
     atom   11 type  2   force =    -0.00002988    0.00003717   -0.00003161
     atom   12 type  2   force =     0.00003143   -0.00003700   -0.00003086

     Total force =     0.054943     Total SCF correction =     0.002349

     Writing output data file ./V2Zr2/V2Zr2_beef.save/

     General routines

     Parallel routines

   This run was terminated on:  10:54:56  26Jun2022

   JOB DONE.