     Program PWSCF v.6.6 starts on 26Jun2022 at 10:55: 7

     R & G space division:  proc/nbgrp/npool/nimage =      37
     Fft bands division:     nmany     =       1
     Reading input from W2Au2.in
Warning: card &CELL ignored
Warning: card / ignored

     Current dimensions of program PWSCF are:
     Max number of different atomic species (ntypx) = 10
     Max number of k-points (npk) =  40000
     Max angular momentum in pseudopotentials (lmaxx) =  3
     Presently stress not available with electric field and gates

     Message from routine cell_base_init:
     DEPRECATED: use true lattice parameter, not A to a.u. conversion factor
     Message from routine emend_upf/check:
     BEWARE !!! Possible out of bounds while fixing pseudo
     Message from routine emend_upf/check:
     BEWARE !!! Possible out of bounds while fixing pseudo
     Message from routine read_upf:
     Pseudo file W.pbe-spn-rrkjus_psl.0.2.3.UPF has been fixed on the fly.
     To avoid this message in the future, permanently fix
     your pseudo files following these instructions:

     IMPORTANT: XC functional enforced from input :
     Exchange-correlation= BEEF-VDW
                           (   1   4  43  14   2   0   0)
     Any further DFT definition will be discarded
     Please, verify this is what you really want

     Subspace diagonalization in iterative solution of the eigenvalue problem:
     a serial algorithm will be used

     Found symmetry operation: I + (  0.5000  0.0000  0.0000)
     This is a supercell, fractional translations are disabled

     bravais-lattice index     =            0
     lattice parameter (alat)  =       1.8897  a.u.
     unit-cell volume          =    4781.5743 (a.u.)^3
     number of atoms/cell      =           12
     number of atomic types    =            2
     number of electrons       =       150.00
     number of Kohn-Sham states=           90
     kinetic-energy cutoff     =      55.1240  Ry
     charge density cutoff     =     551.2396  Ry
     convergence threshold     =      1.0E-05
     mixing beta               =       0.1000
     number of iterations used =           10  plain     mixing
     Exchange-correlation= BEEF-VDW
                           (   1   4  43  14   2   0   0)

     celldm(1)=   1.889726  celldm(2)=   0.000000  celldm(3)=   0.000000
     celldm(4)=   0.000000  celldm(5)=   0.000000  celldm(6)=   0.000000

     crystal axes: (cart. coord. in units of alat)
               a(1) = (   5.534213   0.000000   0.000000 )
               a(2) = (  -2.767106   5.187450   0.000000 )
               a(3) = (   0.000000   0.000000  24.681105 )

     reciprocal axes: (cart. coord. in units 2 pi/alat)
               b(1) = (  0.180694  0.096386 -0.000000 )
               b(2) = (  0.000000  0.192773  0.000000 )
               b(3) = (  0.000000 -0.000000  0.040517 )

     PseudoPot. # 1 for W  read from file:
     ../pseudo/W.pbe-spn-rrkjus_psl.0.2.3.UPF
     MD5 check sum: 25b665cf2bbae626ad8d9f1bc024df95
     Pseudo is Ultrasoft + core correction, Zval = 14.0
     Generated using "atomic" code by A. Dal Corso v.5.0.2 svn rev. 10551
     Using radial grid of 1273 points,  6 beta functions with:
                l(1) =   0
                l(2) =   0
                l(3) =   1
                l(4) =   1
                l(5) =   2
                l(6) =   2
     Q(r) pseudized with 0 coefficients

     PseudoPot. # 2 for Au read from file:
     ../pseudo/Au.pbe-n-rrkjus_psl.1.0.0.UPF
     MD5 check sum: d7e77ba19504afed2c9b41c931dde4f0
     Pseudo is Ultrasoft + core correction, Zval = 11.0
     Generated using "atomic" code by A. Dal Corso v.6.3
     Using radial grid of 1279 points,  6 beta functions with:
                l(1) =   0
                l(2) =   0
                l(3) =   1
                l(4) =   1
                l(5) =   2
                l(6) =   2
     Q(r) pseudized with 0 coefficients

     atomic species   valence    mass     pseudopotential
        W             14.00   183.84000     W ( 1.00)
        Au            11.00   196.96657     Au( 1.00)

     No symmetry found

   Cartesian axes

     site n.     atom                  positions (alat units)
         1           W   tau(   1) = (   0.0000000   0.0000000  10.0000000  )
         2           W   tau(   2) = (   2.7671064   0.0000000  10.0000000  )
         3           Au  tau(   3) = (   1.3835532   2.5937249  10.0000000  )
         4           Au  tau(   4) = (  -1.3835532   2.5937249  10.0000000  )
         5           W   tau(   5) = (   2.7671064   1.4760389  12.3405527  )
         6           W   tau(   6) = (  -0.0000000   1.4760389  12.3405527  )
         7           Au  tau(   7) = (  -1.3835532   4.0697638  12.3405527  )
         8           Au  tau(   8) = (   1.3835532   4.0697638  12.3405527  )
         9           W   tau(   9) = (   0.0000436   2.9126263  14.5472193  )
        10           W   tau(  10) = (   2.7671428   2.9126251  14.5472163  )
        11           Au  tau(  11) = (   4.1506172   0.3940833  14.8170369  )
        12           Au  tau(  12) = (   1.3835047   0.3940835  14.8170297  )

     number of k points=    74  Fermi-Dirac smearing, width (Ry)=  0.0100
                       cart. coord. in units 2pi/alat
        k(    1) = (   0.0000000   0.0000000   0.0000000), wk =   0.0138889
        k(    2) = (   0.0000000   0.0160644   0.0000000), wk =   0.0277778
        k(    3) = (   0.0000000   0.0321288   0.0000000), wk =   0.0277778
        k(    4) = (   0.0000000   0.0481932   0.0000000), wk =   0.0277778
        k(    5) = (   0.0000000   0.0642576   0.0000000), wk =   0.0277778
        k(    6) = (   0.0000000   0.0803221   0.0000000), wk =   0.0277778
        k(    7) = (   0.0000000  -0.0963865   0.0000000), wk =   0.0138889
        k(    8) = (   0.0150578   0.0080322   0.0000000), wk =   0.0277778
        k(    9) = (   0.0150578   0.0240966   0.0000000), wk =   0.0277778
        k(   10) = (   0.0150578   0.0401610   0.0000000), wk =   0.0277778
        k(   11) = (   0.0150578   0.0562254   0.0000000), wk =   0.0277778
        k(   12) = (   0.0150578   0.0722899   0.0000000), wk =   0.0277778
        k(   13) = (   0.0150578   0.0883543   0.0000000), wk =   0.0277778
        k(   14) = (   0.0150578  -0.0883543   0.0000000), wk =   0.0277778
        k(   15) = (   0.0150578  -0.0722899   0.0000000), wk =   0.0277778
        k(   16) = (   0.0150578  -0.0562254   0.0000000), wk =   0.0277778
        k(   17) = (   0.0150578  -0.0401610   0.0000000), wk =   0.0277778
        k(   18) = (   0.0150578  -0.0240966   0.0000000), wk =   0.0277778
        k(   19) = (   0.0150578  -0.0080322   0.0000000), wk =   0.0277778
        k(   20) = (   0.0301157   0.0160644   0.0000000), wk =   0.0277778
        k(   21) = (   0.0301157   0.0321288   0.0000000), wk =   0.0277778
        k(   22) = (   0.0301157   0.0481932   0.0000000), wk =   0.0277778
        k(   23) = (   0.0301157   0.0642576   0.0000000), wk =   0.0277778
        k(   24) = (   0.0301157   0.0803221   0.0000000), wk =   0.0277778
        k(   25) = (   0.0301157   0.0963865   0.0000000), wk =   0.0277778
        k(   26) = (   0.0301157  -0.0803221   0.0000000), wk =   0.0277778
        k(   27) = (   0.0301157  -0.0642577   0.0000000), wk =   0.0277778
        k(   28) = (   0.0301157  -0.0481932   0.0000000), wk =   0.0277778
        k(   29) = (   0.0301157  -0.0321288   0.0000000), wk =   0.0277778
        k(   30) = (   0.0301157  -0.0160644   0.0000000), wk =   0.0277778
        k(   31) = (   0.0301157  -0.0000000   0.0000000), wk =   0.0277778
        k(   32) = (   0.0451735   0.0240966   0.0000000), wk =   0.0277778
        k(   33) = (   0.0451735   0.0401610   0.0000000), wk =   0.0277778
        k(   34) = (   0.0451735   0.0562254   0.0000000), wk =   0.0277778
        k(   35) = (   0.0451735   0.0722898   0.0000000), wk =   0.0277778
        k(   36) = (   0.0451735   0.0883543   0.0000000), wk =   0.0277778
        k(   37) = (   0.0451735   0.1044187   0.0000000), wk =   0.0277778
        k(   38) = (   0.0451735  -0.0722899   0.0000000), wk =   0.0277778
        k(   39) = (   0.0451735  -0.0562254   0.0000000), wk =   0.0277778
        k(   40) = (   0.0451735  -0.0401610   0.0000000), wk =   0.0277778
        k(   41) = (   0.0451735  -0.0240966   0.0000000), wk =   0.0277778
        k(   42) = (   0.0451735  -0.0080322   0.0000000), wk =   0.0277778
        k(   43) = (   0.0451735   0.0080322   0.0000000), wk =   0.0277778
        k(   44) = (   0.0602314   0.0321288   0.0000000), wk =   0.0277778
        k(   45) = (   0.0602314   0.0481932   0.0000000), wk =   0.0277778
        k(   46) = (   0.0602314   0.0642576   0.0000000), wk =   0.0277778
        k(   47) = (   0.0602314   0.0803221   0.0000000), wk =   0.0277778
        k(   48) = (   0.0602314   0.0963865   0.0000000), wk =   0.0277778
        k(   49) = (   0.0602314   0.1124509   0.0000000), wk =   0.0277778
        k(   50) = (   0.0602314  -0.0642577   0.0000000), wk =   0.0277778
        k(   51) = (   0.0602314  -0.0481932   0.0000000), wk =   0.0277778
        k(   52) = (   0.0602314  -0.0321288   0.0000000), wk =   0.0277778
        k(   53) = (   0.0602314  -0.0160644   0.0000000), wk =   0.0277778
        k(   54) = (   0.0602314  -0.0000000   0.0000000), wk =   0.0277778
        k(   55) = (   0.0602314   0.0160644   0.0000000), wk =   0.0277778
        k(   56) = (   0.0752892   0.0401610   0.0000000), wk =   0.0277778
        k(   57) = (   0.0752892   0.0562254   0.0000000), wk =   0.0277778
        k(   58) = (   0.0752892   0.0722898   0.0000000), wk =   0.0277778
        k(   59) = (   0.0752892   0.0883543   0.0000000), wk =   0.0277778
        k(   60) = (   0.0752892   0.1044187   0.0000000), wk =   0.0277778
        k(   61) = (   0.0752892   0.1204831   0.0000000), wk =   0.0277778
        k(   62) = (   0.0752892  -0.0562254   0.0000000), wk =   0.0277778
        k(   63) = (   0.0752892  -0.0401610   0.0000000), wk =   0.0277778
        k(   64) = (   0.0752892  -0.0240966   0.0000000), wk =   0.0277778
        k(   65) = (   0.0752892  -0.0080322   0.0000000), wk =   0.0277778
        k(   66) = (   0.0752892   0.0080322   0.0000000), wk =   0.0277778
        k(   67) = (   0.0752892   0.0240966   0.0000000), wk =   0.0277778
        k(   68) = (  -0.0903471  -0.0481932   0.0000000), wk =   0.0138889
        k(   69) = (  -0.0903471  -0.0321288   0.0000000), wk =   0.0277778
        k(   70) = (  -0.0903471  -0.0160644   0.0000000), wk =   0.0277778
        k(   71) = (  -0.0903471   0.0000000   0.0000000), wk =   0.0277778
        k(   72) = (  -0.0903471   0.0160644   0.0000000), wk =   0.0277778
        k(   73) = (  -0.0903471   0.0321288   0.0000000), wk =   0.0277778
        k(   74) = (  -0.0903471  -0.1445797   0.0000000), wk =   0.0138889

     Initial potential from superposition of free atoms

     starting charge  149.99600, renormalised to  150.00000

     negative rho (up, down):  1.185E-03 0.000E+00

     %%%%%%%%%%%%%%%%%%%%%%%%%%%%%%%%%%%%%%%%%%%%%%%%%%%%%%%%%%%%%%%%%%%%%%%%
     %                                                                      %
     % You are using vdW-DF, which was implemented by the Thonhauser group. %
     % Please cite the following two papers that made this development      %
     % possible and the two reviews that describe the various versions:     %
     %                                                                      %
     %   T. Thonhauser et al., PRL 115, 136402 (2015).                      %
     %   T. Thonhauser et al., PRB 76, 125112 (2007).                       %
     %   K. Berland et al., Rep. Prog. Phys. 78, 066501 (2015).             %
     %   D.C. Langreth et al., J. Phys.: Condens. Matter 21, 084203 (2009). %
     %                                                                      %
     %                                                                      %
     % If you are calculating the stress with vdW-DF, please also cite:     %
     %                                                                      %
     %   R. Sabatini et al., J. Phys.: Condens. Matter 24, 424209 (2012).   %
     %                                                                      %
     %%%%%%%%%%%%%%%%%%%%%%%%%%%%%%%%%%%%%%%%%%%%%%%%%%%%%%%%%%%%%%%%%%%%%%%%

     Adding external electric field

     Computed dipole along edir(3) :
        Dipole               -0.0002 Ry au,         -0.0005 Debye
        Dipole field         -0.0000 Ry au,

        Potential amp.        0.0000 Ry
        Total length         45.4745 bohr

     Starting wfcs are  132 randomized atomic wfcs

     Self-consistent Calculation

     iteration #  1     ecut=    55.12 Ry     beta= 0.10
     Davidson diagonalization with overlap
     ethr =  1.00E-02,  avg # of iterations =  2.0

[...]

     total energy              =   -1473.34632539 Ry
     estimated scf accuracy    <       2.54808243 Ry

[...]

     iteration #  7     ecut=    55.12 Ry     beta= 0.10
     Davidson diagonalization with overlap
     c_bands:  1 eigenvalues not converged
     ethr =  1.80E-05,  avg # of iterations =  6.6

[...]

     iteration # 11     ecut=    55.12 Ry     beta= 0.10
     Davidson diagonalization with overlap
     c_bands:  1 eigenvalues not converged
     ethr =  2.42E-06,  avg # of iterations =  2.6

[...]

     total energy              =   -1473.50000390 Ry
     estimated scf accuracy    <       0.00004218 Ry

     iteration # 16     ecut=    55.12 Ry     beta= 0.10
     Davidson diagonalization with overlap
     ethr =  1.31E-08,  avg # of iterations =  2.4

[...]

     Adding external electric field

     Computed dipole along edir(3) :
        Dipole               -0.0321 Ry au,         -0.0815 Debye
        Dipole field         -0.0001 Ry au,

        Potential amp.        0.0077 Ry
        Total length         45.4745 bohr

     End of self-consistent calculation

          k = 0.0000 0.0000 0.0000 ( 33013 PWs)   bands (ev):

   -73.2495 -73.1999 -73.1567 -73.1082 -73.0775 -73.0288 -37.6277 -37.5927
   -37.4999 -37.4178 -37.3998 -37.3588 -37.3346 -37.3070 -37.2280 -37.2258
   -37.1994 -37.1461 -37.1183 -36.8668 -36.8645 -36.7961 -36.6519 -36.6082
    -7.5199  -5.7957  -5.5934  -5.4411  -5.3025  -5.2518  -5.0351  -4.9346
    -4.7122  -4.6240  -4.6027  -4.4991  -4.4421  -4.4258  -3.8263  -3.6932
    -3.6864  -3.4384  -3.1982  -3.0806  -2.8416  -2.8117  -2.7032  -2.6725
    -2.5712  -2.3385  -2.2466  -2.0497  -1.8813  -1.5664  -1.3974  -1.3444
    -1.2895  -1.0578  -0.7954  -0.7817  -0.4655  -0.3793  -0.2822  -0.1432
     0.0324   0.1958   0.3994   0.8333   0.9736   1.1442   1.3800   1.4088
     1.7183   1.8515   1.9306   2.0495   2.2471   2.4550   2.5274   2.7197
     2.9910   3.1040   3.3533   3.5777   3.7172   3.7829   3.9348   3.9678
     4.2785   4.3305

[...]

          k = 0.0753 0.0241 0.0000 ( 33004 PWs)   bands (ev):

[...]

          k =-0.0903-0.0482 0.0000 ( 33040 PWs)   bands (ev):

[...]

          k =-0.0903-0.1446 0.0000 ( 33040 PWs)   bands (ev):

   -73.2247 -73.2247 -73.1325 -73.1325 -73.0532 -73.0532 -37.5475 -37.5474
   -37.3774 -37.3774 -37.2674 -37.2673 -37.2554 -37.2554 -37.1875 -37.1875
   -37.1597 -37.1597 -37.0350 -37.0350 -36.9929 -36.9929 -36.8316 -36.8316
    -5.7540  -5.7540  -4.6358  -4.6358  -4.4692  -4.4692  -4.4094  -4.4094
    -4.0832  -4.0832  -3.9923  -3.9923  -3.8967  -3.8967  -3.6338  -3.6338
    -3.2888  -3.2888  -3.1532  -3.1532  -2.9910  -2.9909  -2.9442  -2.9442
    -2.7891  -2.7891  -2.7225  -2.7225  -2.5192  -2.5192  -2.4099  -2.4098
    -2.2617  -2.2617  -1.3102  -1.3102  -0.6031  -0.6031  -0.5100  -0.5100
    -0.0395  -0.0395   0.3220   0.3220   0.9517   0.9517   1.0959   1.0959
     1.3240   1.3240   1.4747   1.4748   1.5365   1.5366   1.7633   1.7633
     1.8705   1.8705   2.8052   2.8052   3.2844   3.2844   3.3983   3.3984
     4.0824   4.0825

     the Fermi energy is     1.5992 ev

!    total energy              =   -1473.49997130 Ry
     estimated scf accuracy    <       0.00000198 Ry
     smearing contrib. (-TS)   =      -0.05978034 Ry
     internal energy E=F+TS    =   -1473.44019096 Ry

     The total energy is F=E-TS. E is the sum of the following terms:
     one-electron contribution =  -11353.00184542 Ry
     hartree contribution      =    5708.46728013 Ry
     xc contribution           =    -446.56216488 Ry
     ewald contribution        =    4617.65653652 Ry
     electric field correction =       0.00000270 Ry

     convergence has been achieved in  16 iterations

     negative rho (up, down):  1.256E-03 0.000E+00

     Forces acting on atoms (cartesian axes, Ry/au):

     atom    1 type  1   force =     0.00000222    0.01542456    0.03281230
     atom    2 type  1   force =     0.00000579    0.01542906    0.03281167
     atom    3 type  2   force =    -0.00000345   -0.01897852   -0.03363683
     atom    4 type  2   force =    -0.00000040   -0.01898311   -0.03362919
     atom    5 type  1   force =    -0.00000651   -0.01345237   -0.00519459
     atom    6 type  1   force =    -0.00000718   -0.01344472   -0.00518535
     atom    7 type  2   force =    -0.00000436    0.01986133    0.00307882
     atom    8 type  2   force =     0.00001058    0.01986506    0.00306889
     atom    9 type  1   force =    -0.00000939   -0.00177318    0.00008924
     atom   10 type  1   force =    -0.00000333   -0.00177419    0.00009221
     atom   11 type  2   force =     0.00000770   -0.00108543    0.00283829
     atom   12 type  2   force =     0.00000834   -0.00108848    0.00285454

     Total force =     0.082829     Total SCF correction =     0.003915

     Writing output data file ./W2Au2/W2Au2_beef.save/

     General routines

     Parallel routines

   This run was terminated on:  12:36:24  26Jun2022

   JOB DONE.