     Program PWSCF v.6.6 starts on 26Jun2022 at 12:36:31

     R & G space division:  proc/nbgrp/npool/nimage =      37
     Fft bands division:     nmany     =       1
     Reading input from W2Hg2.in
Warning: card &CELL ignored
Warning: card / ignored

     Current dimensions of program PWSCF are:
     Max number of different atomic species (ntypx) = 10
     Max number of k-points (npk) =  40000
     Max angular momentum in pseudopotentials (lmaxx) =  3
     Presently stress not available with electric field and gates

     Message from routine cell_base_init:
     DEPRECATED: use true lattice parameter, not A to a.u. conversion factor
     Message from routine emend_upf/check:
     BEWARE !!! Possible out of bounds while fixing pseudo
     Message from routine emend_upf/check:
     BEWARE !!! Possible out of bounds while fixing pseudo
     Message from routine read_upf:
     Pseudo file W.pbe-spn-rrkjus_psl.0.2.3.UPF has been fixed on the fly.
     To avoid this message in the future, permanently fix
     your pseudo files following these instructions:
     file Hg.pbe-n-rrkjus_psl.1.0.0.UPF: wavefunction(s)  6S renormalized

     IMPORTANT: XC functional enforced from input :
     Exchange-correlation= BEEF-VDW
                           (   1   4  43  14   2   0   0)
     Any further DFT definition will be discarded
     Please, verify this is what you really want

     Subspace diagonalization in iterative solution of the eigenvalue problem:
     a serial algorithm will be used

     bravais-lattice index     =            0
     lattice parameter (alat)  =       1.8897  a.u.
     unit-cell volume          =    5112.9808 (a.u.)^3
     number of atoms/cell      =           12
     number of atomic types    =            2
     number of electrons       =       156.00
     number of Kohn-Sham states=           94
     kinetic-energy cutoff     =      55.1240  Ry
     charge density cutoff     =     551.2396  Ry
     convergence threshold     =      1.0E-05
     mixing beta               =       0.1000
     number of iterations used =           10  plain     mixing
     Exchange-correlation= BEEF-VDW
                           (   1   4  43  14   2   0   0)

     celldm(1)=   1.889726  celldm(2)=   0.000000  celldm(3)=   0.000000
     celldm(4)=   0.000000  celldm(5)=   0.000000  celldm(6)=   0.000000

     crystal axes: (cart. coord. in units of alat)
               a(1) = (   5.664223   0.000000   0.000000 )
               a(2) = (  -2.832112   5.389526   0.000000 )
               a(3) = (   0.000000   0.000000  24.819140 )

     reciprocal axes: (cart. coord. in units 2 pi/alat)
               b(1) = (  0.176547  0.092773 -0.000000 )
               b(2) = (  0.000000  0.185545  0.000000 )
               b(3) = (  0.000000 -0.000000  0.040291 )

     PseudoPot. # 1 for W  read from file:
     ../pseudo/W.pbe-spn-rrkjus_psl.0.2.3.UPF
     MD5 check sum: 25b665cf2bbae626ad8d9f1bc024df95
     Pseudo is Ultrasoft + core correction, Zval = 14.0
     Generated using "atomic" code by A. Dal Corso v.5.0.2 svn rev. 10551
     Using radial grid of 1273 points,  6 beta functions with:
                l(1) =   0
                l(2) =   0
                l(3) =   1
                l(4) =   1
                l(5) =   2
                l(6) =   2
     Q(r) pseudized with 0 coefficients

     PseudoPot. # 2 for Hg read from file:
     ../pseudo/Hg.pbe-n-rrkjus_psl.1.0.0.UPF
     MD5 check sum: 7519ac2e5b9cac440d3cfd4127d6ea3c
     Pseudo is Ultrasoft + core correction, Zval = 12.0
     Generated using "atomic" code by A. Dal Corso v.6.3
     Using radial grid of 1279 points,  6 beta functions with:
                l(1) =   0
                l(2) =   0
                l(3) =   1
                l(4) =   1
                l(5) =   2
                l(6) =   2
     Q(r) pseudized with 0 coefficients

     atomic species   valence    mass     pseudopotential
        W             14.00   183.84000     W ( 1.00)
        Hg            12.00   200.59200     Hg( 1.00)

     No symmetry found

   Cartesian axes

     site n.     atom                  positions (alat units)
         1           W   tau(   1) = (   0.0000000   0.0000000  10.0000000  )
         2           W   tau(   2) = (   2.8321117   0.0000000  10.0000000  )
         3           Hg  tau(   3) = (   1.4160558   2.6947628  10.0000000  )
         4           Hg  tau(   4) = (  -1.4160558   2.6947628  10.0000000  )
         5           W   tau(   5) = (   2.8321117   1.4882305  12.4095698  )
         6           W   tau(   6) = (   0.0000000   1.4882305  12.4095698  )
         7           Hg  tau(   7) = (  -1.4160558   4.1829933  12.4095698  )
         8           Hg  tau(   8) = (   1.4160558   4.1829933  12.4095698  )
         9           W   tau(   9) = (   0.0000122   2.5684323  14.6514031  )
        10           W   tau(  10) = (   2.8321195   2.5683606  14.6514217  )
        11           Hg  tau(  11) = (   1.4157525   5.3505058  15.3042025  )
        12           Hg  tau(  12) = (  -1.4157564   5.3504967  15.3041795  )

     number of k points=    74  Fermi-Dirac smearing, width (Ry)=  0.0100
                       cart. coord. in units 2pi/alat
        k(    1) = (   0.0000000   0.0000000   0.0000000), wk =   0.0138889
        k(    2) = (   0.0000000   0.0154621   0.0000000), wk =   0.0277778
        k(    3) = (   0.0000000   0.0309242   0.0000000), wk =   0.0277778
        k(    4) = (   0.0000000   0.0463863   0.0000000), wk =   0.0277778
        k(    5) = (   0.0000000   0.0618484   0.0000000), wk =   0.0277778
        k(    6) = (   0.0000000   0.0773104   0.0000000), wk =   0.0277778
        k(    7) = (   0.0000000  -0.0927725   0.0000000), wk =   0.0138889
        k(    8) = (   0.0147122   0.0077310   0.0000000), wk =   0.0277778
        k(    9) = (   0.0147122   0.0231931   0.0000000), wk =   0.0277778
        k(   10) = (   0.0147122   0.0386552   0.0000000), wk =   0.0277778
        k(   11) = (   0.0147122   0.0541173   0.0000000), wk =   0.0277778
        k(   12) = (   0.0147122   0.0695794   0.0000000), wk =   0.0277778
        k(   13) = (   0.0147122   0.0850415   0.0000000), wk =   0.0277778
        k(   14) = (   0.0147122  -0.0850415   0.0000000), wk =   0.0277778
        k(   15) = (   0.0147122  -0.0695794   0.0000000), wk =   0.0277778
        k(   16) = (   0.0147122  -0.0541173   0.0000000), wk =   0.0277778
        k(   17) = (   0.0147122  -0.0386552   0.0000000), wk =   0.0277778
        k(   18) = (   0.0147122  -0.0231931   0.0000000), wk =   0.0277778
        k(   19) = (   0.0147122  -0.0077310   0.0000000), wk =   0.0277778
        k(   20) = (   0.0294245   0.0154621   0.0000000), wk =   0.0277778
        k(   21) = (   0.0294245   0.0309242   0.0000000), wk =   0.0277778
        k(   22) = (   0.0294245   0.0463863   0.0000000), wk =   0.0277778
        k(   23) = (   0.0294245   0.0618484   0.0000000), wk =   0.0277778
        k(   24) = (   0.0294245   0.0773105   0.0000000), wk =   0.0277778
        k(   25) = (   0.0294245   0.0927725   0.0000000), wk =   0.0277778
        k(   26) = (   0.0294245  -0.0773104   0.0000000), wk =   0.0277778
        k(   27) = (   0.0294245  -0.0618484   0.0000000), wk =   0.0277778
        k(   28) = (   0.0294245  -0.0463863   0.0000000), wk =   0.0277778
        k(   29) = (   0.0294245  -0.0309242   0.0000000), wk =   0.0277778
        k(   30) = (   0.0294245  -0.0154621   0.0000000), wk =   0.0277778
        k(   31) = (   0.0294245   0.0000000   0.0000000), wk =   0.0277778
        k(   32) = (   0.0441367   0.0231931   0.0000000), wk =   0.0277778
        k(   33) = (   0.0441367   0.0386552   0.0000000), wk =   0.0277778
        k(   34) = (   0.0441367   0.0541173   0.0000000), wk =   0.0277778
        k(   35) = (   0.0441367   0.0695794   0.0000000), wk =   0.0277778
        k(   36) = (   0.0441367   0.0850415   0.0000000), wk =   0.0277778
        k(   37) = (   0.0441367   0.1005036   0.0000000), wk =   0.0277778
        k(   38) = (   0.0441367  -0.0695794   0.0000000), wk =   0.0277778
        k(   39) = (   0.0441367  -0.0541173   0.0000000), wk =   0.0277778
        k(   40) = (   0.0441367  -0.0386552   0.0000000), wk =   0.0277778
        k(   41) = (   0.0441367  -0.0231931   0.0000000), wk =   0.0277778
        k(   42) = (   0.0441367  -0.0077310   0.0000000), wk =   0.0277778
        k(   43) = (   0.0441367   0.0077310   0.0000000), wk =   0.0277778
        k(   44) = (   0.0588489   0.0309242   0.0000000), wk =   0.0277778
        k(   45) = (   0.0588489   0.0463863   0.0000000), wk =   0.0277778
        k(   46) = (   0.0588489   0.0618484   0.0000000), wk =   0.0277778
        k(   47) = (   0.0588489   0.0773105   0.0000000), wk =   0.0277778
        k(   48) = (   0.0588489   0.0927725   0.0000000), wk =   0.0277778
        k(   49) = (   0.0588489   0.1082346   0.0000000), wk =   0.0277778
        k(   50) = (   0.0588489  -0.0618484   0.0000000), wk =   0.0277778
        k(   51) = (   0.0588489  -0.0463863   0.0000000), wk =   0.0277778
        k(   52) = (   0.0588489  -0.0309242   0.0000000), wk =   0.0277778
        k(   53) = (   0.0588489  -0.0154621   0.0000000), wk =   0.0277778
        k(   54) = (   0.0588489   0.0000000   0.0000000), wk =   0.0277778
        k(   55) = (   0.0588489   0.0154621   0.0000000), wk =   0.0277778
        k(   56) = (   0.0735611   0.0386552   0.0000000), wk =   0.0277778
        k(   57) = (   0.0735611   0.0541173   0.0000000), wk =   0.0277778
        k(   58) = (   0.0735611   0.0695794   0.0000000), wk =   0.0277778
        k(   59) = (   0.0735611   0.0850415   0.0000000), wk =   0.0277778
        k(   60) = (   0.0735611   0.1005036   0.0000000), wk =   0.0277778
        k(   61) = (   0.0735611   0.1159657   0.0000000), wk =   0.0277778
        k(   62) = (   0.0735611  -0.0541173   0.0000000), wk =   0.0277778
        k(   63) = (   0.0735611  -0.0386552   0.0000000), wk =   0.0277778
        k(   64) = (   0.0735611  -0.0231931   0.0000000), wk =   0.0277778
        k(   65) = (   0.0735611  -0.0077310   0.0000000), wk =   0.0277778
        k(   66) = (   0.0735611   0.0077311   0.0000000), wk =   0.0277778
        k(   67) = (   0.0735611   0.0231931   0.0000000), wk =   0.0277778
        k(   68) = (  -0.0882734  -0.0463863   0.0000000), wk =   0.0138889
        k(   69) = (  -0.0882734  -0.0309242   0.0000000), wk =   0.0277778
        k(   70) = (  -0.0882734  -0.0154621   0.0000000), wk =   0.0277778
        k(   71) = (  -0.0882734  -0.0000000   0.0000000), wk =   0.0277778
        k(   72) = (  -0.0882734   0.0154621   0.0000000), wk =   0.0277778
        k(   73) = (  -0.0882734   0.0309242   0.0000000), wk =   0.0277778
        k(   74) = (  -0.0882734  -0.1391588   0.0000000), wk =   0.0138889

     Initial potential from superposition of free atoms

     starting charge  155.99616, renormalised to  156.00000

     negative rho (up, down):  1.449E-03 0.000E+00

     %%%%%%%%%%%%%%%%%%%%%%%%%%%%%%%%%%%%%%%%%%%%%%%%%%%%%%%%%%%%%%%%%%%%%%%%
     %                                                                      %
     % You are using vdW-DF, which was implemented by the Thonhauser group. %
     % Please cite the following two papers that made this development      %
     % possible and the two reviews that describe the various versions:     %
     %                                                                      %
     %   T. Thonhauser et al., PRL 115, 136402 (2015).                      %
     %   T. Thonhauser et al., PRB 76, 125112 (2007).                       %
     %   K. Berland et al., Rep. Prog. Phys. 78, 066501 (2015).             %
     %   D.C. Langreth et al., J. Phys.: Condens. Matter 21, 084203 (2009). %
     %                                                                      %
     %                                                                      %
     % If you are calculating the stress with vdW-DF, please also cite:     %
     %                                                                      %
     %   R. Sabatini et al., J. Phys.: Condens. Matter 24, 424209 (2012).   %
     %                                                                      %
     %%%%%%%%%%%%%%%%%%%%%%%%%%%%%%%%%%%%%%%%%%%%%%%%%%%%%%%%%%%%%%%%%%%%%%%%

     Adding external electric field

     Computed dipole along edir(3) :
        Dipole               -0.0005 Ry au,         -0.0013 Debye
        Dipole field         -0.0000 Ry au,

        Potential amp.        0.0001 Ry
        Total length         45.7288 bohr

     Starting wfcs are  132 randomized atomic wfcs

     Self-consistent Calculation

     iteration #  1     ecut=    55.12 Ry     beta= 0.10
     Davidson diagonalization with overlap
     ethr =  1.00E-02,  avg # of iterations =  2.0

[...]

     total energy              =   -1560.78377991 Ry
     estimated scf accuracy    <       2.13065372 Ry

[...]

     iteration #  8     ecut=    55.12 Ry     beta= 0.10
     Davidson diagonalization with overlap
     c_bands:  1 eigenvalues not converged
     c_bands:  2 eigenvalues not converged
     c_bands:  1 eigenvalues not converged
     c_bands:  2 eigenvalues not converged
     c_bands:  1 eigenvalues not converged
     c_bands:  1 eigenvalues not converged
     c_bands:  2 eigenvalues not converged
     c_bands:  1 eigenvalues not converged
     c_bands:  1 eigenvalues not converged
     c_bands:  1 eigenvalues not converged
     c_bands:  1 eigenvalues not converged
     c_bands:  1 eigenvalues not converged
     c_bands:  1 eigenvalues not converged
     c_bands:  1 eigenvalues not converged
     c_bands:  1 eigenvalues not converged
     ethr =  6.42E-06,  avg # of iterations = 13.5

[...]

     iteration # 13     ecut=    55.12 Ry     beta= 0.10
     Davidson diagonalization with overlap
     c_bands:  1 eigenvalues not converged
     ethr =  7.61E-08,  avg # of iterations =  5.3

[...]

     total energy              =   -1560.95797136 Ry
     estimated scf accuracy    <       0.00001254 Ry

     iteration # 16     ecut=    55.12 Ry     beta= 0.10
     Davidson diagonalization with overlap
     ethr =  8.04E-09,  avg # of iterations =  2.0

[...]

     Adding external electric field

     Computed dipole along edir(3) :
        Dipole                0.0563 Ry au,          0.1430 Debye
        Dipole field          0.0001 Ry au,

        Potential amp.       -0.0126 Ry
        Total length         45.7288 bohr

     End of self-consistent calculation

          k = 0.0000 0.0000 0.0000 ( 35355 PWs)   bands (ev):

   -72.9895 -72.9534 -72.9182 -72.8812 -72.8078 -72.7716 -37.4495 -37.3751
   -37.2523 -37.1944 -37.1262 -37.0711 -37.0706 -37.0623 -37.0326 -37.0039
   -36.9692 -36.9421 -36.8791 -36.6323 -36.5943 -36.4751 -36.4244 -36.3700
    -7.8449  -7.2185  -7.1096  -7.0177  -7.0060  -6.7571  -6.7176  -6.6182
    -6.4918  -6.4103  -6.3429  -6.0899  -5.9754  -5.9547  -5.9225  -5.6403
    -5.6092  -5.5400  -5.4432  -5.4407  -5.3819  -5.3060  -5.1558  -5.1547
    -4.9476  -4.9267  -4.8872  -4.7605  -4.6673  -4.5873  -4.4516  -4.1316
    -2.9911  -1.8474  -1.8319  -1.6467  -1.5292  -1.1338  -1.0795  -0.9598
    -0.8052  -0.6031  -0.2691  -0.1523   0.2748   0.4752   0.7422   0.7910
     1.1283   1.3840   1.4030   1.5609   1.7778   1.8099   1.9645   2.2720
     2.5217   2.5456   2.6768   2.7803   2.8532   3.0931   3.3757   3.6359
     3.7394   3.9467   4.0333   4.0935   4.1188   4.1355

[...]

          k = 0.0736 0.0232 0.0000 ( 35302 PWs)   bands (ev):

[...]

          k =-0.0883-0.0464 0.0000 ( 35324 PWs)   bands (ev):

[...]

          k =-0.0883-0.1392 0.0000 ( 35324 PWs)   bands (ev):

   -72.9716 -72.9714 -72.8998 -72.8997 -72.7898 -72.7897 -37.4128 -37.4128
   -37.0948 -37.0946 -37.0377 -37.0377 -37.0017 -37.0016 -36.9485 -36.9484
   -36.9110 -36.9109 -36.9004 -36.9002 -36.7792 -36.7791 -36.3972 -36.3972
    -6.6703  -6.6703  -6.4807  -6.4806  -6.3827  -6.3827  -6.3079  -6.3079
    -6.1714  -6.1714  -5.8975  -5.8974  -5.7767  -5.7766  -5.6759  -5.6758
    -5.4757  -5.4752  -5.4553  -5.4552  -5.3984  -5.3964  -5.3589  -5.3577
    -5.2370  -5.2368  -5.1443  -5.1438  -5.0927  -5.0919  -4.9581  -4.9576
    -3.7874  -3.7864  -2.4702  -2.4699  -1.7690  -1.7688  -0.8238  -0.8237
    -0.1804  -0.1803  -0.0854  -0.0853   0.4335   0.4336   0.6610   0.6610
     0.8493   0.8494   1.2306   1.2306   1.3636   1.3639   1.5043   1.5044
     1.8569   1.8569   2.1746   2.1746   2.7875   2.7876   3.1596   3.1596
     3.6955   3.6955   3.8190   3.8191   4.0230   4.0231

     the Fermi energy is     1.6499 ev

!    total energy              =   -1560.95797074 Ry
     estimated scf accuracy    <       0.00000211 Ry
     smearing contrib. (-TS)   =      -0.05703273 Ry
     internal energy E=F+TS    =   -1560.90093801 Ry

     The total energy is F=E-TS. E is the sum of the following terms:
     one-electron contribution =  -11223.75831615 Ry
     hartree contribution      =    5644.88538978 Ry
     xc contribution           =    -448.16163782 Ry
     ewald contribution        =    4466.13361840 Ry
     electric field correction =       0.00000778 Ry

     convergence has been achieved in  16 iterations

     negative rho (up, down):  1.494E-03 0.000E+00

     Forces acting on atoms (cartesian axes, Ry/au):

     atom    1 type  1   force =     0.00000294    0.01850981    0.04147549
     atom    2 type  1   force =     0.00000351    0.01851873    0.04147469
     atom    3 type  2   force =    -0.00000370   -0.00898980   -0.05426956
     atom    4 type  2   force =     0.00001001   -0.00898829   -0.05427559
     atom    5 type  1   force =    -0.00000103   -0.02711135   -0.01623109
     atom    6 type  1   force =    -0.00000149   -0.02710811   -0.01622022
     atom    7 type  2   force =    -0.00001373    0.01664668    0.03081978
     atom    8 type  2   force =     0.00000438    0.01663965    0.03083544
     atom    9 type  1   force =    -0.00000155    0.00185437   -0.00059182
     atom   10 type  1   force =    -0.00000179    0.00190154   -0.00060081
     atom   11 type  2   force =     0.00019944   -0.00093887   -0.00120784
     atom   12 type  2   force =    -0.00019699   -0.00093435   -0.00120848

     Total force =     0.121005     Total SCF correction =     0.006923

     Writing output data file ./W2Hg2/W2Hg2_beef.save/

     General routines

     Parallel routines

   This run was terminated on:  15: 9:17  26Jun2022

   JOB DONE.