     Program PWSCF v.6.6 starts on 26Jun2022 at 19: 7:23

     R & G space division:  proc/nbgrp/npool/nimage =      37
     Fft bands division:     nmany     =       1
     Reading input from W2Re2.in
Warning: card &CELL ignored
Warning: card / ignored

     Current dimensions of program PWSCF are:
     Max number of different atomic species (ntypx) = 10
     Max number of k-points (npk) =  40000
     Max angular momentum in pseudopotentials (lmaxx) =  3
     Presently stress not available with electric field and gates

     Message from routine cell_base_init:
     DEPRECATED: use true lattice parameter, not A to a.u. conversion factor
     Message from routine emend_upf/check:
     BEWARE !!! Possible out of bounds while fixing pseudo
     Message from routine emend_upf/check:
     BEWARE !!! Possible out of bounds while fixing pseudo
     Message from routine read_upf:
     Pseudo file W.pbe-spn-rrkjus_psl.0.2.3.UPF has been fixed on the fly.
     To avoid this message in the future, permanently fix
     your pseudo files following these instructions:

     IMPORTANT: XC functional enforced from input :
     Exchange-correlation= BEEF-VDW
                           (   1   4  43  14   2   0   0)
     Any further DFT definition will be discarded
     Please, verify this is what you really want

     Subspace diagonalization in iterative solution of the eigenvalue problem:
     a serial algorithm will be used

     Found symmetry operation: I + ( -0.5000 -0.5000  0.0000)
     This is a supercell, fractional translations are disabled

     bravais-lattice index     =            0
     lattice parameter (alat)  =       1.8897  a.u.
     unit-cell volume          =    4533.1742 (a.u.)^3
     number of atoms/cell      =           12
     number of atomic types    =            2
     number of electrons       =       174.00
     number of Kohn-Sham states=          104
     kinetic-energy cutoff     =      55.1240  Ry
     charge density cutoff     =     551.2396  Ry
     convergence threshold     =      1.0E-05
     mixing beta               =       0.1000
     number of iterations used =           10  plain     mixing
     Exchange-correlation= BEEF-VDW
                           (   1   4  43  14   2   0   0)

     celldm(1)=   1.889726  celldm(2)=   0.000000  celldm(3)=   0.000000
     celldm(4)=   0.000000  celldm(5)=   0.000000  celldm(6)=   0.000000

     crystal axes: (cart. coord. in units of alat)
               a(1) = (   5.598665   0.000000   0.000000 )
               a(2) = (   2.743781   4.880237   0.000000 )
               a(3) = (   0.000000   0.000000  24.585582 )

     reciprocal axes: (cart. coord. in units 2 pi/alat)
               b(1) = (  0.178614 -0.100421  0.000000 )
               b(2) = (  0.000000  0.204908  0.000000 )
               b(3) = (  0.000000  0.000000  0.040674 )

     PseudoPot. # 1 for W  read from file:
     ../pseudo/W.pbe-spn-rrkjus_psl.0.2.3.UPF
     MD5 check sum: 25b665cf2bbae626ad8d9f1bc024df95
     Pseudo is Ultrasoft + core correction, Zval = 14.0
     Generated using "atomic" code by A. Dal Corso v.5.0.2 svn rev. 10551
     Using radial grid of 1273 points,  6 beta functions with:
                l(1) =   0
                l(2) =   0
                l(3) =   1
                l(4) =   1
                l(5) =   2
                l(6) =   2
     Q(r) pseudized with 0 coefficients

     PseudoPot. # 2 for Re read from file:
     ../pseudo/Re.pbe-spn-rrkjus_psl.1.0.0.UPF
     MD5 check sum: 1282f1ec51ad523723a04c61ae80a9e6
     Pseudo is Ultrasoft + core correction, Zval = 15.0
     Generated using "atomic" code by A. Dal Corso v.6.2.2
     Using radial grid of 1275 points,  6 beta functions with:
                l(1) =   0
                l(2) =   0
                l(3) =   1
                l(4) =   1
                l(5) =   2
                l(6) =   2
     Q(r) pseudized with 0 coefficients

     atomic species   valence    mass     pseudopotential
        W             14.00   183.84000     W ( 1.00)
        Re            15.00   186.20700     Re( 1.00)

     No symmetry found

   Cartesian axes

     site n.     atom                  positions (alat units)
         1           W   tau(   1) = (   0.0000000   0.0000000  10.0000000  )
         2           W   tau(   2) = (   4.1712234   2.4401186  10.0000000  )
         3           Re  tau(   3) = (   2.7993326   0.0000000  10.0000000  )
         4           Re  tau(   4) = (   1.3718907   2.4401186  10.0000000  )
         5           W   tau(   5) = (   5.5986653   3.2751561  12.2927912  )
         6           W   tau(   6) = (   1.4274419   0.8350374  12.2927912  )
         7           Re  tau(   7) = (   2.7993326   3.2751561  12.2927912  )
         8           Re  tau(   8) = (   4.2267745   0.8350374  12.2927912  )
         9           W   tau(   9) = (   2.8634858   1.6751083  14.5185559  )
        10           W   tau(  10) = (   7.0347032   4.1152238  14.5185548  )
        11           Re  tau(  11) = (   5.6491309   1.6670944  14.5165612  )
        12           Re  tau(  12) = (   4.2216843   4.1072120  14.5165597  )

     number of k points=    74  Fermi-Dirac smearing, width (Ry)=  0.0100
                       cart. coord. in units 2pi/alat
        k(    1) = (   0.0000000   0.0000000   0.0000000), wk =   0.0138889
        k(    2) = (   0.0000000   0.0170757   0.0000000), wk =   0.0277778
        k(    3) = (   0.0000000   0.0341513   0.0000000), wk =   0.0277778
        k(    4) = (   0.0000000   0.0512270   0.0000000), wk =   0.0277778
        k(    5) = (   0.0000000   0.0683027   0.0000000), wk =   0.0277778
        k(    6) = (   0.0000000   0.0853784   0.0000000), wk =   0.0277778
        k(    7) = (   0.0000000  -0.1024540   0.0000000), wk =   0.0138889
        k(    8) = (   0.0148845  -0.0083684   0.0000000), wk =   0.0277778
        k(    9) = (   0.0148845   0.0087073   0.0000000), wk =   0.0277778
        k(   10) = (   0.0148845   0.0257829   0.0000000), wk =   0.0277778
        k(   11) = (   0.0148845   0.0428586   0.0000000), wk =   0.0277778
        k(   12) = (   0.0148845   0.0599343   0.0000000), wk =   0.0277778
        k(   13) = (   0.0148845   0.0770100   0.0000000), wk =   0.0277778
        k(   14) = (   0.0148845  -0.1108224   0.0000000), wk =   0.0277778
        k(   15) = (   0.0148845  -0.0937468   0.0000000), wk =   0.0277778
        k(   16) = (   0.0148845  -0.0766711   0.0000000), wk =   0.0277778
        k(   17) = (   0.0148845  -0.0595954   0.0000000), wk =   0.0277778
        k(   18) = (   0.0148845  -0.0425198   0.0000000), wk =   0.0277778
        k(   19) = (   0.0148845  -0.0254441   0.0000000), wk =   0.0277778
        k(   20) = (   0.0297690  -0.0167368   0.0000000), wk =   0.0277778
        k(   21) = (   0.0297690   0.0003389   0.0000000), wk =   0.0277778
        k(   22) = (   0.0297690   0.0174145   0.0000000), wk =   0.0277778
        k(   23) = (   0.0297690   0.0344902   0.0000000), wk =   0.0277778
        k(   24) = (   0.0297690   0.0515659   0.0000000), wk =   0.0277778
        k(   25) = (   0.0297690   0.0686416   0.0000000), wk =   0.0277778
        k(   26) = (   0.0297690  -0.1191909   0.0000000), wk =   0.0277778
        k(   27) = (   0.0297690  -0.1021152   0.0000000), wk =   0.0277778
        k(   28) = (   0.0297690  -0.0850395   0.0000000), wk =   0.0277778
        k(   29) = (   0.0297690  -0.0679638   0.0000000), wk =   0.0277778
        k(   30) = (   0.0297690  -0.0508882   0.0000000), wk =   0.0277778
        k(   31) = (   0.0297690  -0.0338125   0.0000000), wk =   0.0277778
        k(   32) = (   0.0446535  -0.0251052   0.0000000), wk =   0.0277778
        k(   33) = (   0.0446535  -0.0080295   0.0000000), wk =   0.0277778
        k(   34) = (   0.0446535   0.0090461   0.0000000), wk =   0.0277778
        k(   35) = (   0.0446535   0.0261218   0.0000000), wk =   0.0277778
        k(   36) = (   0.0446535   0.0431975   0.0000000), wk =   0.0277778
        k(   37) = (   0.0446535   0.0602731   0.0000000), wk =   0.0277778
        k(   38) = (   0.0446535  -0.1275593   0.0000000), wk =   0.0277778
        k(   39) = (   0.0446535  -0.1104836   0.0000000), wk =   0.0277778
        k(   40) = (   0.0446535  -0.0934079   0.0000000), wk =   0.0277778
        k(   41) = (   0.0446535  -0.0763322   0.0000000), wk =   0.0277778
        k(   42) = (   0.0446535  -0.0592566   0.0000000), wk =   0.0277778
        k(   43) = (   0.0446535  -0.0421809   0.0000000), wk =   0.0277778
        k(   44) = (   0.0595380  -0.0334736   0.0000000), wk =   0.0277778
        k(   45) = (   0.0595380  -0.0163980   0.0000000), wk =   0.0277778
        k(   46) = (   0.0595380   0.0006777   0.0000000), wk =   0.0277778
        k(   47) = (   0.0595380   0.0177534   0.0000000), wk =   0.0277778
        k(   48) = (   0.0595380   0.0348291   0.0000000), wk =   0.0277778
        k(   49) = (   0.0595380   0.0519047   0.0000000), wk =   0.0277778
        k(   50) = (   0.0595380  -0.1359277   0.0000000), wk =   0.0277778
        k(   51) = (   0.0595380  -0.1188520   0.0000000), wk =   0.0277778
        k(   52) = (   0.0595380  -0.1017763   0.0000000), wk =   0.0277778
        k(   53) = (   0.0595380  -0.0847006   0.0000000), wk =   0.0277778
        k(   54) = (   0.0595380  -0.0676250   0.0000000), wk =   0.0277778
        k(   55) = (   0.0595380  -0.0505493   0.0000000), wk =   0.0277778
        k(   56) = (   0.0744225  -0.0418420   0.0000000), wk =   0.0277778
        k(   57) = (   0.0744225  -0.0247664   0.0000000), wk =   0.0277778
        k(   58) = (   0.0744225  -0.0076907   0.0000000), wk =   0.0277778
        k(   59) = (   0.0744225   0.0093850   0.0000000), wk =   0.0277778
        k(   60) = (   0.0744225   0.0264607   0.0000000), wk =   0.0277778
        k(   61) = (   0.0744225   0.0435363   0.0000000), wk =   0.0277778
        k(   62) = (   0.0744225  -0.1442961   0.0000000), wk =   0.0277778
        k(   63) = (   0.0744225  -0.1272204   0.0000000), wk =   0.0277778
        k(   64) = (   0.0744225  -0.1101447   0.0000000), wk =   0.0277778
        k(   65) = (   0.0744225  -0.0930691   0.0000000), wk =   0.0277778
        k(   66) = (   0.0744225  -0.0759934   0.0000000), wk =   0.0277778
        k(   67) = (   0.0744225  -0.0589177   0.0000000), wk =   0.0277778
        k(   68) = (  -0.0893070   0.0502104   0.0000000), wk =   0.0138889
        k(   69) = (  -0.0893070   0.0672861   0.0000000), wk =   0.0277778
        k(   70) = (  -0.0893070   0.0843618   0.0000000), wk =   0.0277778
        k(   71) = (  -0.0893070   0.1014375   0.0000000), wk =   0.0277778
        k(   72) = (  -0.0893070   0.1185131   0.0000000), wk =   0.0277778
        k(   73) = (  -0.0893070   0.1355888   0.0000000), wk =   0.0277778
        k(   74) = (  -0.0893070  -0.0522436   0.0000000), wk =   0.0138889

     Initial potential from superposition of free atoms

     starting charge  173.99486, renormalised to  174.00000

     negative rho (up, down):  8.195E-04 0.000E+00

     %%%%%%%%%%%%%%%%%%%%%%%%%%%%%%%%%%%%%%%%%%%%%%%%%%%%%%%%%%%%%%%%%%%%%%%%
     %                                                                      %
     % You are using vdW-DF, which was implemented by the Thonhauser group. %
     % Please cite the following two papers that made this development      %
     % possible and the two reviews that describe the various versions:     %
     %                                                                      %
     %   T. Thonhauser et al., PRL 115, 136402 (2015).                      %
     %   T. Thonhauser et al., PRB 76, 125112 (2007).                       %
     %   K. Berland et al., Rep. Prog. Phys. 78, 066501 (2015).             %
     %   D.C. Langreth et al., J. Phys.: Condens. Matter 21, 084203 (2009). %
     %                                                                      %
     %                                                                      %
     % If you are calculating the stress with vdW-DF, please also cite:     %
     %                                                                      %
     %   R. Sabatini et al., J. Phys.: Condens. Matter 24, 424209 (2012).   %
     %                                                                      %
     %%%%%%%%%%%%%%%%%%%%%%%%%%%%%%%%%%%%%%%%%%%%%%%%%%%%%%%%%%%%%%%%%%%%%%%%

     Adding external electric field

     Computed dipole along edir(3) :
        Dipole                0.0000 Ry au,          0.0000 Debye
        Dipole field          0.0000 Ry au,

        Potential amp.       -0.0000 Ry
        Total length         45.2985 bohr

     Starting wfcs are  138 randomized atomic wfcs

     Self-consistent Calculation

     iteration #  1     ecut=    55.12 Ry     beta= 0.10
     Davidson diagonalization with overlap
     ethr =  1.00E-02,  avg # of iterations =  2.1

[...]

     total energy              =   -2030.43475822 Ry
     estimated scf accuracy    <       3.38409383 Ry

[...]

     iteration #  7     ecut=    55.12 Ry     beta= 0.10
     Davidson diagonalization with overlap
     c_bands:  1 eigenvalues not converged
     ethr =  3.98E-05,  avg # of iterations =  3.2

[...]

     iteration # 11     ecut=    55.12 Ry     beta= 0.10
     Davidson diagonalization with overlap
     c_bands:  1 eigenvalues not converged
     ethr =  8.67E-07,  avg # of iterations =  2.7

[...]

     total energy              =   -2030.69556442 Ry
     estimated scf accuracy    <       0.00002628 Ry

     iteration # 15     ecut=    55.12 Ry     beta= 0.10
     Davidson diagonalization with overlap
     ethr =  1.51E-08,  avg # of iterations =  4.9

[...]

     Adding external electric field

     Computed dipole along edir(3) :
        Dipole                0.0127 Ry au,          0.0323 Debye
        Dipole field          0.0000 Ry au,

        Potential amp.       -0.0032 Ry
        Total length         45.2985 bohr

     End of self-consistent calculation

          k = 0.0000 0.0000 0.0000 ( 31397 PWs)   bands (ev):

   -77.6213 -77.5944 -77.5810 -77.5550 -77.4821 -77.4560 -71.7091 -71.6717
   -71.6004 -71.5736 -71.5626 -71.5354 -39.6273 -39.5853 -39.5166 -39.4881
   -39.4111 -39.4030 -39.3661 -39.3360 -39.3156 -39.2919 -39.2329 -39.2143
   -39.1650 -39.1255 -39.1196 -39.0638 -39.0015 -38.9197 -35.9767 -35.9468
   -35.9435 -35.8946 -35.8547 -35.8257 -35.7633 -35.6774 -35.6427 -35.6413
   -35.6069 -35.6025 -35.5663 -35.4298 -35.3819 -35.3747 -35.3479 -35.2584
    -6.0029  -4.1132  -3.4219  -2.9803  -2.9786  -2.9611  -2.7150  -2.6931
    -2.6823  -2.0034  -1.9447  -1.9337  -1.8589  -1.8285  -1.8262  -0.3914
    -0.3668  -0.2606   0.7518   0.7608   0.7752   0.9171   1.2288   1.2526
     1.5174   1.6221   1.6710   1.6714   1.7290   1.9042   1.9191   1.9658
     1.9678   2.0102   2.1915   2.3047   3.1347   3.1628   3.2519   3.2537
     3.5263   3.6326   4.0995   4.1212   4.4165   4.4472   4.4809   4.6199
     4.8685   4.9770   5.0526   5.2100   5.4133   5.8836   6.2797   6.3719

[...]

          k = 0.0744-0.0589 0.0000 ( 31319 PWs)   bands (ev):

[...]

          k =-0.0893 0.0502 0.0000 ( 31304 PWs)   bands (ev):

[...]

          k =-0.0893-0.0522 0.0000 ( 31250 PWs)   bands (ev):

   -77.6209 -77.5945 -77.5808 -77.5550 -77.4820 -77.4560 -71.7094 -71.6717
   -71.6009 -71.5737 -71.5628 -71.5352 -39.6073 -39.5525 -39.4967 -39.4730
   -39.3948 -39.3810 -39.3768 -39.3252 -39.3129 -39.2529 -39.2066 -39.2053
   -39.1549 -39.1162 -39.1078 -39.0605 -38.9998 -38.9179 -36.0192 -35.9943
   -35.9677 -35.9200 -35.8819 -35.8057 -35.7538 -35.7468 -35.6817 -35.6728
   -35.6511 -35.6235 -35.5900 -35.4361 -35.3829 -35.3807 -35.3493 -35.2614
    -4.0369  -3.9626  -2.4570  -2.4163  -1.9215  -1.8454  -1.7992  -1.7708
    -1.6430  -1.6358  -1.0012  -0.8040  -0.7994  -0.5074  -0.5052  -0.4048
    -0.2852  -0.1335   0.0204   0.0955   0.2199   0.5494   0.7476   1.0027
     1.0219   1.0383   1.0869   1.1560   1.1800   1.2849   1.4351   1.5214
     1.5706   1.6786   1.8114   1.8461   1.9677   2.0057   2.0812   2.2763
     2.7333   2.7859   3.2775   3.3401   3.3460   3.3838   3.6412   3.6581
     4.0595   4.0601   4.2117   4.2167   4.2300   4.3253   4.6329   4.9135

     the Fermi energy is     2.5706 ev

!    total energy              =   -2030.69556149 Ry
     estimated scf accuracy    <       0.00000422 Ry
     smearing contrib. (-TS)   =      -0.06127897 Ry
     internal energy E=F+TS    =   -2030.63428251 Ry

     The total energy is F=E-TS. E is the sum of the following terms:
     one-electron contribution =  -16461.65947092 Ry
     hartree contribution      =    8214.78534994 Ry
     xc contribution           =    -493.35987762 Ry
     ewald contribution        =    6709.59971563 Ry
     electric field correction =       0.00000045 Ry

     convergence has been achieved in  15 iterations

     negative rho (up, down):  2.039E-03 0.000E+00

     Forces acting on atoms (cartesian axes, Ry/au):

     atom    1 type  1   force =    -0.00490788   -0.00286990    0.02299692
     atom    2 type  1   force =    -0.00491232   -0.00287464    0.02299505
     atom    3 type  2   force =     0.00513810    0.00300876    0.02121805
     atom    4 type  2   force =     0.00514129    0.00300381    0.02121899
     atom    5 type  1   force =    -0.00045801   -0.00026622   -0.01927946
     atom    6 type  1   force =    -0.00045613   -0.00026788   -0.01928181
     atom    7 type  2   force =     0.00001265    0.00000626   -0.01934266
     atom    8 type  2   force =     0.00000882    0.00000587   -0.01933901
     atom    9 type  1   force =     0.00115941    0.00067715   -0.00317927
     atom   10 type  1   force =     0.00115930    0.00068038   -0.00317453
     atom   11 type  2   force =    -0.00094314   -0.00055297   -0.00241551
     atom   12 type  2   force =    -0.00094207   -0.00055063   -0.00241676

     Total force =     0.060198     Total SCF correction =     0.012716
     SCF correction compared to forces is large: reduce conv_thr to get better values

     Writing output data file ./W2Re2/W2Re2_beef.save/

     General routines

     Parallel routines

   This run was terminated on:  20:25:16  26Jun2022

   JOB DONE.