     Program PWSCF v.6.6 starts on 11Jul2022 at  7:13:15

     R & G space division:  proc/nbgrp/npool/nimage =      37
     Fft bands division:     nmany     =       1
     Reading input from Y2Au2.in
Warning: card &CELL ignored
Warning: card / ignored

     Current dimensions of program PWSCF are:
     Max number of different atomic species (ntypx) = 10
     Max number of k-points (npk) =  40000
     Max angular momentum in pseudopotentials (lmaxx) =  3
     Presently stress not available with electric field and gates

     Message from routine cell_base_init:
     DEPRECATED: use true lattice parameter, not A to a.u. conversion factor
     file Y.pbe-spn-rrkjus_psl.1.0.0.UPF: wavefunction(s)  4S renormalized

     IMPORTANT: XC functional enforced from input :
     Exchange-correlation= BEEF-VDW
                           (   1   4  43  14   2   0   0)
     Any further DFT definition will be discarded
     Please, verify this is what you really want

     Subspace diagonalization in iterative solution of the eigenvalue problem:
     a serial algorithm will be used

     bravais-lattice index     =            0
     lattice parameter (alat)  =       1.8897  a.u.
     unit-cell volume          =    6287.0319 (a.u.)^3
     number of atoms/cell      =           12
     number of atomic types    =            2
     number of electrons       =       132.00
     number of Kohn-Sham states=           79
     kinetic-energy cutoff     =      55.1240  Ry
     charge density cutoff     =     551.2396  Ry
     convergence threshold     =      1.0E-05
     mixing beta               =       0.1000
     number of iterations used =           10  plain     mixing
     Exchange-correlation= BEEF-VDW
                           (   1   4  43  14   2   0   0)

     celldm(1)=   1.889726  celldm(2)=   0.000000  celldm(3)=   0.000000
     celldm(4)=   0.000000  celldm(5)=   0.000000  celldm(6)=   0.000000

     crystal axes: (cart. coord. in units of alat)
               a(1) = (   6.272567   0.000000   0.000000 )
               a(2) = (   2.096224   5.911933   0.000000 )
               a(3) = (   0.000000   0.000000  25.123164 )

     reciprocal axes: (cart. coord. in units 2 pi/alat)
               b(1) = (  0.159424 -0.056528  0.000000 )
               b(2) = (  0.000000  0.169149  0.000000 )
               b(3) = (  0.000000  0.000000  0.039804 )

     PseudoPot. # 1 for Y  read from file:
     ../pseudo/Y.pbe-spn-rrkjus_psl.1.0.0.UPF
     MD5 check sum: 5fe32e6a006803c2ec2edff47948a3c8
     Pseudo is Ultrasoft + core correction, Zval = 11.0
     Generated using "atomic" code by A. Dal Corso v.6.2.2
     Using radial grid of 1223 points,  6 beta functions with:
                l(1) =   0
                l(2) =   0
                l(3) =   1
                l(4) =   1
                l(5) =   2
                l(6) =   2
     Q(r) pseudized with 0 coefficients

     PseudoPot. # 2 for Au read from file:
     ../pseudo/Au.pbe-n-rrkjus_psl.1.0.0.UPF
     MD5 check sum: d7e77ba19504afed2c9b41c931dde4f0
     Pseudo is Ultrasoft + core correction, Zval = 11.0
     Generated using "atomic" code by A. Dal Corso v.6.3
     Using radial grid of 1279 points,  6 beta functions with:
                l(1) =   0
                l(2) =   0
                l(3) =   1
                l(4) =   1
                l(5) =   2
                l(6) =   2
     Q(r) pseudized with 0 coefficients

     atomic species   valence    mass     pseudopotential
        Y             11.00    88.90584     Y ( 1.00)
        Au            11.00   196.96657     Au( 1.00)

     No symmetry found

   Cartesian axes

     site n.     atom                  positions (alat units)
         1           Y   tau(   1) = (   0.0000000   0.0000000  10.0000000  )
         2           Y   tau(   2) = (   4.1843954   2.9559663  10.0000000  )
         3           Au  tau(   3) = (   3.1362837   0.0000000  10.0000000  )
         4           Au  tau(   4) = (   1.0481118   2.9559663  10.0000000  )
         5           Y   tau(   5) = (   6.2725673   4.4311055  12.5615818  )
         6           Y   tau(   6) = (   2.0881719   1.4751392  12.5615818  )
         7           Au  tau(   7) = (   3.1362837   4.4311055  12.5615818  )
         8           Au  tau(   8) = (   5.2244556   1.4751392  12.5615818  )
         9           Y   tau(   9) = (   4.1780400   2.9515120  15.1220066  )
        10           Y   tau(  10) = (   8.3624165   5.9074040  15.1220729  )
        11           Au  tau(  11) = (   7.3138870   2.9509107  14.9432518  )
        12           Au  tau(  12) = (   5.2255161   5.9072380  14.9432540  )

     number of k points=    74  Fermi-Dirac smearing, width (Ry)=  0.0100
                       cart. coord. in units 2pi/alat
        k(    1) = (   0.0000000   0.0000000   0.0000000), wk =   0.0138889
        k(    2) = (   0.0000000   0.0140958   0.0000000), wk =   0.0277778
        k(    3) = (   0.0000000   0.0281916   0.0000000), wk =   0.0277778
        k(    4) = (   0.0000000   0.0422874   0.0000000), wk =   0.0277778
        k(    5) = (   0.0000000   0.0563831   0.0000000), wk =   0.0277778
        k(    6) = (   0.0000000   0.0704789   0.0000000), wk =   0.0277778
        k(    7) = (   0.0000000  -0.0845747   0.0000000), wk =   0.0138889
        k(    8) = (   0.0132854  -0.0047107   0.0000000), wk =   0.0277778
        k(    9) = (   0.0132854   0.0093851   0.0000000), wk =   0.0277778
        k(   10) = (   0.0132854   0.0234809   0.0000000), wk =   0.0277778
        k(   11) = (   0.0132854   0.0375767   0.0000000), wk =   0.0277778
        k(   12) = (   0.0132854   0.0516725   0.0000000), wk =   0.0277778
        k(   13) = (   0.0132854   0.0657683   0.0000000), wk =   0.0277778
        k(   14) = (   0.0132854  -0.0892854   0.0000000), wk =   0.0277778
        k(   15) = (   0.0132854  -0.0751896   0.0000000), wk =   0.0277778
        k(   16) = (   0.0132854  -0.0610938   0.0000000), wk =   0.0277778
        k(   17) = (   0.0132854  -0.0469980   0.0000000), wk =   0.0277778
        k(   18) = (   0.0132854  -0.0329022   0.0000000), wk =   0.0277778
        k(   19) = (   0.0132854  -0.0188064   0.0000000), wk =   0.0277778
        k(   20) = (   0.0265707  -0.0094213   0.0000000), wk =   0.0277778
        k(   21) = (   0.0265707   0.0046745   0.0000000), wk =   0.0277778
        k(   22) = (   0.0265707   0.0187703   0.0000000), wk =   0.0277778
        k(   23) = (   0.0265707   0.0328660   0.0000000), wk =   0.0277778
        k(   24) = (   0.0265707   0.0469618   0.0000000), wk =   0.0277778
        k(   25) = (   0.0265707   0.0610576   0.0000000), wk =   0.0277778
        k(   26) = (   0.0265707  -0.0939960   0.0000000), wk =   0.0277778
        k(   27) = (   0.0265707  -0.0799002   0.0000000), wk =   0.0277778
        k(   28) = (   0.0265707  -0.0658045   0.0000000), wk =   0.0277778
        k(   29) = (   0.0265707  -0.0517087   0.0000000), wk =   0.0277778
        k(   30) = (   0.0265707  -0.0376129   0.0000000), wk =   0.0277778
        k(   31) = (   0.0265707  -0.0235171   0.0000000), wk =   0.0277778
        k(   32) = (   0.0398561  -0.0141320   0.0000000), wk =   0.0277778
        k(   33) = (   0.0398561  -0.0000362   0.0000000), wk =   0.0277778
        k(   34) = (   0.0398561   0.0140596   0.0000000), wk =   0.0277778
        k(   35) = (   0.0398561   0.0281554   0.0000000), wk =   0.0277778
        k(   36) = (   0.0398561   0.0422512   0.0000000), wk =   0.0277778
        k(   37) = (   0.0398561   0.0563469   0.0000000), wk =   0.0277778
        k(   38) = (   0.0398561  -0.0987067   0.0000000), wk =   0.0277778
        k(   39) = (   0.0398561  -0.0846109   0.0000000), wk =   0.0277778
        k(   40) = (   0.0398561  -0.0705151   0.0000000), wk =   0.0277778
        k(   41) = (   0.0398561  -0.0564193   0.0000000), wk =   0.0277778
        k(   42) = (   0.0398561  -0.0423235   0.0000000), wk =   0.0277778
        k(   43) = (   0.0398561  -0.0282278   0.0000000), wk =   0.0277778
        k(   44) = (   0.0531415  -0.0188426   0.0000000), wk =   0.0277778
        k(   45) = (   0.0531415  -0.0047468   0.0000000), wk =   0.0277778
        k(   46) = (   0.0531415   0.0093489   0.0000000), wk =   0.0277778
        k(   47) = (   0.0531415   0.0234447   0.0000000), wk =   0.0277778
        k(   48) = (   0.0531415   0.0375405   0.0000000), wk =   0.0277778
        k(   49) = (   0.0531415   0.0516363   0.0000000), wk =   0.0277778
        k(   50) = (   0.0531415  -0.1034173   0.0000000), wk =   0.0277778
        k(   51) = (   0.0531415  -0.0893216   0.0000000), wk =   0.0277778
        k(   52) = (   0.0531415  -0.0752258   0.0000000), wk =   0.0277778
        k(   53) = (   0.0531415  -0.0611300   0.0000000), wk =   0.0277778
        k(   54) = (   0.0531415  -0.0470342   0.0000000), wk =   0.0277778
        k(   55) = (   0.0531415  -0.0329384   0.0000000), wk =   0.0277778
        k(   56) = (   0.0664268  -0.0235533   0.0000000), wk =   0.0277778
        k(   57) = (   0.0664268  -0.0094575   0.0000000), wk =   0.0277778
        k(   58) = (   0.0664268   0.0046383   0.0000000), wk =   0.0277778
        k(   59) = (   0.0664268   0.0187341   0.0000000), wk =   0.0277778
        k(   60) = (   0.0664268   0.0328298   0.0000000), wk =   0.0277778
        k(   61) = (   0.0664268   0.0469256   0.0000000), wk =   0.0277778
        k(   62) = (   0.0664268  -0.1081280   0.0000000), wk =   0.0277778
        k(   63) = (   0.0664268  -0.0940322   0.0000000), wk =   0.0277778
        k(   64) = (   0.0664268  -0.0799364   0.0000000), wk =   0.0277778
        k(   65) = (   0.0664268  -0.0658406   0.0000000), wk =   0.0277778
        k(   66) = (   0.0664268  -0.0517449   0.0000000), wk =   0.0277778
        k(   67) = (   0.0664268  -0.0376491   0.0000000), wk =   0.0277778
        k(   68) = (  -0.0797122   0.0282640   0.0000000), wk =   0.0138889
        k(   69) = (  -0.0797122   0.0423597   0.0000000), wk =   0.0277778
        k(   70) = (  -0.0797122   0.0564555   0.0000000), wk =   0.0277778
        k(   71) = (  -0.0797122   0.0705513   0.0000000), wk =   0.0277778
        k(   72) = (  -0.0797122   0.0846471   0.0000000), wk =   0.0277778
        k(   73) = (  -0.0797122   0.0987429   0.0000000), wk =   0.0277778
        k(   74) = (  -0.0797122  -0.0563108   0.0000000), wk =   0.0138889

     Initial potential from superposition of free atoms

     starting charge  131.97484, renormalised to  132.00000

     negative rho (up, down):  9.748E-04 0.000E+00

     %%%%%%%%%%%%%%%%%%%%%%%%%%%%%%%%%%%%%%%%%%%%%%%%%%%%%%%%%%%%%%%%%%%%%%%%
     %                                                                      %
     % You are using vdW-DF, which was implemented by the Thonhauser group. %
     % Please cite the following two papers that made this development      %
     % possible and the two reviews that describe the various versions:     %
     %                                                                      %
     %   T. Thonhauser et al., PRL 115, 136402 (2015).                      %
     %   T. Thonhauser et al., PRB 76, 125112 (2007).                       %
     %   K. Berland et al., Rep. Prog. Phys. 78, 066501 (2015).             %
     %   D.C. Langreth et al., J. Phys.: Condens. Matter 21, 084203 (2009). %
     %                                                                      %
     %                                                                      %
     % If you are calculating the stress with vdW-DF, please also cite:     %
     %                                                                      %
     %   R. Sabatini et al., J. Phys.: Condens. Matter 24, 424209 (2012).   %
     %                                                                      %
     %%%%%%%%%%%%%%%%%%%%%%%%%%%%%%%%%%%%%%%%%%%%%%%%%%%%%%%%%%%%%%%%%%%%%%%%

     Adding external electric field

     Computed dipole along edir(3) :
        Dipole                0.0013 Ry au,          0.0034 Debye
        Dipole field          0.0000 Ry au,

        Potential amp.       -0.0002 Ry
        Total length         46.2890 bohr

     Starting wfcs are  132 randomized atomic wfcs

     Self-consistent Calculation

     iteration #  1     ecut=    55.12 Ry     beta= 0.10
     Davidson diagonalization with overlap
     ethr =  1.00E-02,  avg # of iterations =  2.0

     Threshold (ethr) on eigenvalues was too large:
     Diagonalizing with lowered threshold

     Davidson diagonalization with overlap
     ethr =  9.17E-04,  avg # of iterations =  2.5

[...]

     total energy              =   -1024.22809227 Ry
     estimated scf accuracy    <       1.37785259 Ry

[...]

     iteration #  6     ecut=    55.12 Ry     beta= 0.10
     Davidson diagonalization with overlap
     c_bands:  2 eigenvalues not converged
     c_bands:  1 eigenvalues not converged
     c_bands:  2 eigenvalues not converged
     c_bands:  1 eigenvalues not converged
     ethr =  3.78E-05,  avg # of iterations = 10.4

[...]

     iteration # 13     ecut=    55.12 Ry     beta= 0.10
     Davidson diagonalization with overlap
     c_bands:  1 eigenvalues not converged
     ethr =  5.95E-08,  avg # of iterations =  4.7

[...]

     total energy              =   -1024.24321171 Ry
     estimated scf accuracy    <       0.00001457 Ry

     iteration # 14     ecut=    55.12 Ry     beta= 0.10
     Davidson diagonalization with overlap
     ethr =  1.10E-08,  avg # of iterations =  4.7

[...]

     Adding external electric field

     Computed dipole along edir(3) :
        Dipole                0.0523 Ry au,          0.1329 Debye
        Dipole field          0.0001 Ry au,

        Potential amp.       -0.0097 Ry
        Total length         46.2890 bohr

     End of self-consistent calculation

          k = 0.0000 0.0000 0.0000 ( 43311 PWs)   bands (ev):

   -42.5507 -42.5326 -42.5256 -42.5075 -42.1587 -42.1404 -22.5379 -22.5144
   -22.5068 -22.5000 -22.4794 -22.4689 -22.4301 -22.4169 -22.4072 -22.3855
   -22.2474 -22.2254 -22.2167 -22.0969 -22.0530 -22.0414 -22.0148 -21.9574
    -5.3342  -4.2143  -4.0513  -3.9537  -3.9201  -3.9124  -3.9107  -3.9039
    -3.8640  -3.8332  -3.6336  -3.5530  -3.3877  -3.3844  -3.3588  -3.3445
    -3.3201  -3.2516  -3.2251  -3.1453  -3.1335  -3.1277  -3.0546  -2.9630
    -2.8936  -2.8668  -2.7986  -2.7291  -2.6866  -2.4860  -2.4236  -2.3569
    -1.6489  -1.4131  -1.4099  -1.2232   0.6032   0.9136   1.0963   1.4948
     1.5201   1.6347   1.7747   1.9464   2.0136   2.0456   2.2744   2.3234
     2.3504   2.6010   2.7698   2.8144   2.9233   3.0647   3.2391

[...]

          k = 0.0664-0.0376 0.0000 ( 43479 PWs)   bands (ev):

[...]

          k =-0.0797 0.0283 0.0000 ( 43410 PWs)   bands (ev):

[...]

          k =-0.0797-0.0563 0.0000 ( 43566 PWs)   bands (ev):

   -42.5501 -42.5327 -42.5250 -42.5076 -42.1587 -42.1399 -22.5471 -22.5118
   -22.5075 -22.5048 -22.4780 -22.4764 -22.4581 -22.4229 -22.4091 -22.3864
   -22.2491 -22.2298 -22.2185 -22.0800 -22.0671 -22.0514 -22.0199 -21.9608
    -4.0837  -3.9798  -3.7208  -3.6894  -3.5974  -3.5709  -3.5465  -3.5203
    -3.5056  -3.4404  -3.4331  -3.3791  -3.2943  -3.2907  -3.1498  -3.1167
    -3.1078  -3.1071  -3.0635  -3.0477  -3.0379  -2.9897  -2.9438  -2.9340
    -2.9265  -2.9113  -2.8139  -2.8110  -2.6607  -2.4812  -2.4149  -2.3392
    -1.7489  -1.5747  -1.3891  -1.3287  -1.0179  -0.0107  -0.0097   0.2244
     0.2353   0.2725   0.6854   0.9311   1.3121   1.5684   1.6855   1.8402
     1.9314   2.3931   2.5226   2.5416   2.7664   2.7911   3.0312

     the Fermi energy is     1.4119 ev

!    total energy              =   -1024.24321306 Ry
     estimated scf accuracy    <       0.00000459 Ry
     smearing contrib. (-TS)   =      -0.05135421 Ry
     internal energy E=F+TS    =   -1024.19185885 Ry

     The total energy is F=E-TS. E is the sum of the following terms:
     one-electron contribution =   -6664.16324912 Ry
     hartree contribution      =    3371.06695764 Ry
     xc contribution           =    -310.08652809 Ry
     ewald contribution        =    2578.99095525 Ry
     electric field correction =       0.00000547 Ry

     convergence has been achieved in  14 iterations

     negative rho (up, down):  6.871E-04 0.000E+00

     Forces acting on atoms (cartesian axes, Ry/au):

     atom    1 type  1   force =    -0.00015864   -0.00011633   -0.00178754
     atom    2 type  1   force =    -0.00016032   -0.00010862   -0.00178555
     atom    3 type  2   force =    -0.00002176   -0.00000912    0.01328860
     atom    4 type  2   force =    -0.00002795   -0.00001917    0.01328725
     atom    5 type  1   force =     0.00008070    0.00005754   -0.01251052
     atom    6 type  1   force =     0.00008759    0.00006041   -0.01253402
     atom    7 type  2   force =    -0.00000464    0.00001701   -0.00052272
     atom    8 type  2   force =     0.00002352   -0.00000640   -0.00052994
     atom    9 type  1   force =     0.00004414    0.00002833   -0.00119086
     atom   10 type  1   force =     0.00002279    0.00001864   -0.00119706
     atom   11 type  2   force =     0.00004834    0.00005072    0.00274214
     atom   12 type  2   force =     0.00006624    0.00002697    0.00274022

     Total force =     0.026300     Total SCF correction =     0.007783
     SCF correction compared to forces is large: reduce conv_thr to get better values

     Writing output data file ./Y2Au2/Y2Au2_beef.save/

     General routines

     Parallel routines

   This run was terminated on:   8:10:29  11Jul2022

   JOB DONE.