     Program PWSCF v.6.6 starts on 25Jun2022 at 12:33:51

     R & G space division:  proc/nbgrp/npool/nimage =      37
     Fft bands division:     nmany     =       1
     Reading input from Y2Ir2.in
Warning: card &CELL ignored
Warning: card / ignored

     Current dimensions of program PWSCF are:
     Max number of different atomic species (ntypx) = 10
     Max number of k-points (npk) =  40000
     Max angular momentum in pseudopotentials (lmaxx) =  3
     Presently stress not available with electric field and gates

     Message from routine cell_base_init:
     DEPRECATED: use true lattice parameter, not A to a.u. conversion factor
     file Y.pbe-spn-rrkjus_psl.1.0.0.UPF: wavefunction(s)  4S renormalized
     file Ir.pbe-n-rrkjus_psl.0.2.3.UPF: wavefunction(s)  5D renormalized

     IMPORTANT: XC functional enforced from input :
     Exchange-correlation= BEEF-VDW
                           (   1   4  43  14   2   0   0)
     Any further DFT definition will be discarded
     Please, verify this is what you really want

     Subspace diagonalization in iterative solution of the eigenvalue problem:
     a serial algorithm will be used

     Found symmetry operation: I + (  0.5000  0.5000  0.0000)
     This is a supercell, fractional translations are disabled

     bravais-lattice index     =            0
     lattice parameter (alat)  =       1.8897  a.u.
     unit-cell volume          =    5616.4859 (a.u.)^3
     number of atoms/cell      =           12
     number of atomic types    =            2
     number of electrons       =       120.00
     number of Kohn-Sham states=           72
     kinetic-energy cutoff     =      55.1240  Ry
     charge density cutoff     =     551.2396  Ry
     convergence threshold     =      1.0E-05
     mixing beta               =       0.1000
     number of iterations used =           10  plain     mixing
     Exchange-correlation= BEEF-VDW
                           (   1   4  43  14   2   0   0)

     celldm(1)=   1.889726  celldm(2)=   0.000000  celldm(3)=   0.000000
     celldm(4)=   0.000000  celldm(5)=   0.000000  celldm(6)=   0.000000

     crystal axes: (cart. coord. in units of alat)
               a(1) = (   5.958243   0.000000   0.000000 )
               a(2) = (   1.985100   5.617832   0.000000 )
               a(3) = (   0.000000   0.000000  24.864584 )

     reciprocal axes: (cart. coord. in units 2 pi/alat)
               b(1) = (  0.167835 -0.059306  0.000000 )
               b(2) = (  0.000000  0.178005  0.000000 )
               b(3) = (  0.000000  0.000000  0.040218 )

     PseudoPot. # 1 for Y  read from file:
     ../pseudo/Y.pbe-spn-rrkjus_psl.1.0.0.UPF
     MD5 check sum: 5fe32e6a006803c2ec2edff47948a3c8
     Pseudo is Ultrasoft + core correction, Zval = 11.0
     Generated using "atomic" code by A. Dal Corso v.6.2.2
     Using radial grid of 1223 points,  6 beta functions with:
                l(1) =   0
                l(2) =   0
                l(3) =   1
                l(4) =   1
                l(5) =   2
                l(6) =   2
     Q(r) pseudized with 0 coefficients

     PseudoPot. # 2 for Ir read from file:
     ../pseudo/Ir.pbe-n-rrkjus_psl.0.2.3.UPF
     MD5 check sum: a93e608e8ddc29ee62145620b5f41564
     Pseudo is Ultrasoft + core correction, Zval =  9.0
     Generated using "atomic" code by A. Dal Corso v.5.0.2 svn rev. 9415
     Using radial grid of 1277 points,  6 beta functions with:
                l(1) =   0
                l(2) =   0
                l(3) =   1
                l(4) =   1
                l(5) =   2
                l(6) =   2
     Q(r) pseudized with 0 coefficients

     atomic species   valence    mass     pseudopotential
        Y             11.00    88.90584     Y ( 1.00)
        Ir             9.00   192.21700     Ir( 1.00)

     No symmetry found

   Cartesian axes

     site n.     atom                  positions (alat units)
         1           Y   tau(   1) = (   0.0000000   0.0000000  10.0000000  )
         2           Y   tau(   2) = (   3.9716714   2.8089158  10.0000000  )
         3           Ir  tau(   3) = (   2.9791213   0.0000000  10.0000000  )
         4           Ir  tau(   4) = (   0.9925501   2.8089158  10.0000000  )
         5           Y   tau(   5) = (   5.9582427   4.2138940  12.4322921  )
         6           Y   tau(   6) = (   1.9865712   1.4049781  12.4322921  )
         7           Ir  tau(   7) = (   2.9791213   4.2138940  12.4322921  )
         8           Ir  tau(   8) = (   4.9656926   1.4049781  12.4322921  )
         9           Y   tau(   9) = (   3.9726986   2.8096537  14.9195147  )
        10           Y   tau(  10) = (   0.0010394   0.0007328  14.9195223  )
        11           Ir  tau(  11) = (   0.9937916   2.8098038  14.7211718  )
        12           Ir  tau(  12) = (   2.9803655   0.0008768  14.7211672  )

     number of k points=    74  Fermi-Dirac smearing, width (Ry)=  0.0100
                       cart. coord. in units 2pi/alat
        k(    1) = (   0.0000000   0.0000000   0.0000000), wk =   0.0138889
        k(    2) = (   0.0000000   0.0148337   0.0000000), wk =   0.0277778
        k(    3) = (   0.0000000   0.0296674   0.0000000), wk =   0.0277778
        k(    4) = (   0.0000000   0.0445012   0.0000000), wk =   0.0277778
        k(    5) = (   0.0000000   0.0593349   0.0000000), wk =   0.0277778
        k(    6) = (   0.0000000   0.0741686   0.0000000), wk =   0.0277778
        k(    7) = (   0.0000000  -0.0890023   0.0000000), wk =   0.0138889
        k(    8) = (   0.0139862  -0.0049421   0.0000000), wk =   0.0277778
        k(    9) = (   0.0139862   0.0098916   0.0000000), wk =   0.0277778
        k(   10) = (   0.0139862   0.0247253   0.0000000), wk =   0.0277778
        k(   11) = (   0.0139862   0.0395590   0.0000000), wk =   0.0277778
        k(   12) = (   0.0139862   0.0543927   0.0000000), wk =   0.0277778
        k(   13) = (   0.0139862   0.0692265   0.0000000), wk =   0.0277778
        k(   14) = (   0.0139862  -0.0939444   0.0000000), wk =   0.0277778
        k(   15) = (   0.0139862  -0.0791107   0.0000000), wk =   0.0277778
        k(   16) = (   0.0139862  -0.0642770   0.0000000), wk =   0.0277778
        k(   17) = (   0.0139862  -0.0494433   0.0000000), wk =   0.0277778
        k(   18) = (   0.0139862  -0.0346096   0.0000000), wk =   0.0277778
        k(   19) = (   0.0139862  -0.0197758   0.0000000), wk =   0.0277778
        k(   20) = (   0.0279725  -0.0098843   0.0000000), wk =   0.0277778
        k(   21) = (   0.0279725   0.0049495   0.0000000), wk =   0.0277778
        k(   22) = (   0.0279725   0.0197832   0.0000000), wk =   0.0277778
        k(   23) = (   0.0279725   0.0346169   0.0000000), wk =   0.0277778
        k(   24) = (   0.0279725   0.0494506   0.0000000), wk =   0.0277778
        k(   25) = (   0.0279725   0.0642843   0.0000000), wk =   0.0277778
        k(   26) = (   0.0279725  -0.0988866   0.0000000), wk =   0.0277778
        k(   27) = (   0.0279725  -0.0840528   0.0000000), wk =   0.0277778
        k(   28) = (   0.0279725  -0.0692191   0.0000000), wk =   0.0277778
        k(   29) = (   0.0279725  -0.0543854   0.0000000), wk =   0.0277778
        k(   30) = (   0.0279725  -0.0395517   0.0000000), wk =   0.0277778
        k(   31) = (   0.0279725  -0.0247180   0.0000000), wk =   0.0277778
        k(   32) = (   0.0419587  -0.0148264   0.0000000), wk =   0.0277778
        k(   33) = (   0.0419587   0.0000073   0.0000000), wk =   0.0277778
        k(   34) = (   0.0419587   0.0148410   0.0000000), wk =   0.0277778
        k(   35) = (   0.0419587   0.0296748   0.0000000), wk =   0.0277778
        k(   36) = (   0.0419587   0.0445085   0.0000000), wk =   0.0277778
        k(   37) = (   0.0419587   0.0593422   0.0000000), wk =   0.0277778
        k(   38) = (   0.0419587  -0.1038287   0.0000000), wk =   0.0277778
        k(   39) = (   0.0419587  -0.0889950   0.0000000), wk =   0.0277778
        k(   40) = (   0.0419587  -0.0741613   0.0000000), wk =   0.0277778
        k(   41) = (   0.0419587  -0.0593275   0.0000000), wk =   0.0277778
        k(   42) = (   0.0419587  -0.0444938   0.0000000), wk =   0.0277778
        k(   43) = (   0.0419587  -0.0296601   0.0000000), wk =   0.0277778
        k(   44) = (   0.0559449  -0.0197685   0.0000000), wk =   0.0277778
        k(   45) = (   0.0559449  -0.0049348   0.0000000), wk =   0.0277778
        k(   46) = (   0.0559449   0.0098989   0.0000000), wk =   0.0277778
        k(   47) = (   0.0559449   0.0247326   0.0000000), wk =   0.0277778
        k(   48) = (   0.0559449   0.0395663   0.0000000), wk =   0.0277778
        k(   49) = (   0.0559449   0.0544001   0.0000000), wk =   0.0277778
        k(   50) = (   0.0559449  -0.1087708   0.0000000), wk =   0.0277778
        k(   51) = (   0.0559449  -0.0939371   0.0000000), wk =   0.0277778
        k(   52) = (   0.0559449  -0.0791034   0.0000000), wk =   0.0277778
        k(   53) = (   0.0559449  -0.0642697   0.0000000), wk =   0.0277778
        k(   54) = (   0.0559449  -0.0494360   0.0000000), wk =   0.0277778
        k(   55) = (   0.0559449  -0.0346022   0.0000000), wk =   0.0277778
        k(   56) = (   0.0699311  -0.0247107   0.0000000), wk =   0.0277778
        k(   57) = (   0.0699311  -0.0098769   0.0000000), wk =   0.0277778
        k(   58) = (   0.0699311   0.0049568   0.0000000), wk =   0.0277778
        k(   59) = (   0.0699311   0.0197905   0.0000000), wk =   0.0277778
        k(   60) = (   0.0699311   0.0346242   0.0000000), wk =   0.0277778
        k(   61) = (   0.0699311   0.0494579   0.0000000), wk =   0.0277778
        k(   62) = (   0.0699311  -0.1137130   0.0000000), wk =   0.0277778
        k(   63) = (   0.0699311  -0.0988792   0.0000000), wk =   0.0277778
        k(   64) = (   0.0699311  -0.0840455   0.0000000), wk =   0.0277778
        k(   65) = (   0.0699311  -0.0692118   0.0000000), wk =   0.0277778
        k(   66) = (   0.0699311  -0.0543781   0.0000000), wk =   0.0277778
        k(   67) = (   0.0699311  -0.0395444   0.0000000), wk =   0.0277778
        k(   68) = (  -0.0839174   0.0296528   0.0000000), wk =   0.0138889
        k(   69) = (  -0.0839174   0.0444865   0.0000000), wk =   0.0277778
        k(   70) = (  -0.0839174   0.0593202   0.0000000), wk =   0.0277778
        k(   71) = (  -0.0839174   0.0741539   0.0000000), wk =   0.0277778
        k(   72) = (  -0.0839174   0.0889877   0.0000000), wk =   0.0277778
        k(   73) = (  -0.0839174   0.1038214   0.0000000), wk =   0.0277778
        k(   74) = (  -0.0839174  -0.0593495   0.0000000), wk =   0.0138889

     Initial potential from superposition of free atoms

     starting charge  119.97460, renormalised to  120.00000

     negative rho (up, down):  3.996E-04 0.000E+00

     %%%%%%%%%%%%%%%%%%%%%%%%%%%%%%%%%%%%%%%%%%%%%%%%%%%%%%%%%%%%%%%%%%%%%%%%
     %                                                                      %
     % You are using vdW-DF, which was implemented by the Thonhauser group. %
     % Please cite the following two papers that made this development      %
     % possible and the two reviews that describe the various versions:     %
     %                                                                      %
     %   T. Thonhauser et al., PRL 115, 136402 (2015).                      %
     %   T. Thonhauser et al., PRB 76, 125112 (2007).                       %
     %   K. Berland et al., Rep. Prog. Phys. 78, 066501 (2015).             %
     %   D.C. Langreth et al., J. Phys.: Condens. Matter 21, 084203 (2009). %
     %                                                                      %
     %                                                                      %
     % If you are calculating the stress with vdW-DF, please also cite:     %
     %                                                                      %
     %   R. Sabatini et al., J. Phys.: Condens. Matter 24, 424209 (2012).   %
     %                                                                      %
     %%%%%%%%%%%%%%%%%%%%%%%%%%%%%%%%%%%%%%%%%%%%%%%%%%%%%%%%%%%%%%%%%%%%%%%%

     Adding external electric field

     Computed dipole along edir(3) :
        Dipole                0.0013 Ry au,          0.0033 Debye
        Dipole field          0.0000 Ry au,

        Potential amp.       -0.0003 Ry
        Total length         45.8126 bohr

     Starting wfcs are  132 randomized atomic wfcs

     Self-consistent Calculation

     iteration #  1     ecut=    55.12 Ry     beta= 0.10
     Davidson diagonalization with overlap
     ethr =  1.00E-02,  avg # of iterations =  2.0

[...]

     total energy              =    -883.61330775 Ry
     estimated scf accuracy    <       5.01746608 Ry

[...]

     iteration #  6     ecut=    55.12 Ry     beta= 0.10
     Davidson diagonalization with overlap
     c_bands:  1 eigenvalues not converged
     ethr =  9.19E-05,  avg # of iterations =  9.9

[...]

     iteration # 12     ecut=    55.12 Ry     beta= 0.10
     Davidson diagonalization with overlap
     c_bands:  1 eigenvalues not converged
     ethr =  3.87E-07,  avg # of iterations =  4.8

[...]

     total energy              =    -883.74441644 Ry
     estimated scf accuracy    <       0.00017002 Ry

     iteration # 14     ecut=    55.12 Ry     beta= 0.10
     Davidson diagonalization with overlap
     ethr =  1.42E-07,  avg # of iterations =  2.1

[...]

     Adding external electric field

     Computed dipole along edir(3) :
        Dipole                0.1008 Ry au,          0.2562 Debye
        Dipole field          0.0002 Ry au,

        Potential amp.       -0.0207 Ry
        Total length         45.8126 bohr

     End of self-consistent calculation

          k = 0.0000 0.0000 0.0000 ( 38845 PWs)   bands (ev):

   -41.6745 -41.6391 -41.5957 -41.5599 -40.6012 -40.5648 -21.8027 -21.7454
   -21.7261 -21.6814 -21.6397 -21.5947 -21.5310 -21.4973 -21.4673 -21.4317
   -21.3808 -21.3209 -20.8317 -20.6346 -20.6093 -20.5891 -20.5441 -20.3797
    -4.6801  -3.2778  -2.9164  -2.7232  -2.6007  -2.2141  -2.0962  -2.0710
    -2.0548  -2.0543  -1.8146  -1.6734  -1.4567  -1.0785  -1.0325  -1.0109
    -0.8380  -0.7688  -0.7395  -0.7072  -0.6741  -0.5146  -0.4833  -0.1142
    -0.0363   0.0406   0.0577   0.3174   0.5314   0.5596   0.7197   0.7535
     0.9505   1.4356   1.4933   1.6942   1.8436   2.2640   2.3374   2.4534
     2.9118   3.0075   3.2233   3.3657   3.4369   3.5283   3.5862   3.6334

[...]

          k = 0.0699-0.0395 0.0000 ( 38801 PWs)   bands (ev):

[...]

          k =-0.0839 0.0297 0.0000 ( 38830 PWs)   bands (ev):

[...]

          k =-0.0839-0.0593 0.0000 ( 38774 PWs)   bands (ev):

   -41.6729 -41.6388 -41.5940 -41.5597 -40.6003 -40.5637 -21.8199 -21.7635
   -21.7366 -21.6794 -21.6425 -21.5908 -21.5737 -21.5067 -21.5023 -21.4388
   -21.3863 -21.3266 -20.8495 -20.6647 -20.6056 -20.5926 -20.5563 -20.3876
    -3.0747  -2.7305  -2.3064  -2.0988  -1.7384  -1.4499  -1.3366  -1.2586
    -1.2264  -1.2166  -1.1806  -1.0431  -1.0318  -0.8970  -0.8541  -0.6492
    -0.5434  -0.5410  -0.3613  -0.3438  -0.2365  -0.2357  -0.2246  -0.1259
     0.0071   0.0407   0.0790   0.0887   0.1852   0.1998   0.3515   0.5344
     0.5571   0.6624   0.8821   0.9519   0.9833   1.1844   1.2103   1.2703
     1.4120   2.0161   2.1960   2.2111   2.5520   2.6844   2.8350   3.0981

     the Fermi energy is     1.1977 ev

!    total energy              =    -883.74443365 Ry
     estimated scf accuracy    <       0.00000440 Ry
     smearing contrib. (-TS)   =      -0.03234298 Ry
     internal energy E=F+TS    =    -883.71209067 Ry

     The total energy is F=E-TS. E is the sum of the following terms:
     one-electron contribution =   -6095.63048945 Ry
     hartree contribution      =    3081.75371059 Ry
     xc contribution           =    -306.88600436 Ry
     ewald contribution        =    2437.05066982 Ry
     electric field correction =       0.00002273 Ry

     convergence has been achieved in  14 iterations

     negative rho (up, down):  3.096E-04 0.000E+00

     Forces acting on atoms (cartesian axes, Ry/au):

     atom    1 type  1   force =     0.00006343    0.00004458   -0.01313159
     atom    2 type  1   force =     0.00005652    0.00003698   -0.01313215
     atom    3 type  2   force =    -0.00003218    0.00000141    0.02305261
     atom    4 type  2   force =    -0.00001060    0.00000811    0.02302889
     atom    5 type  1   force =    -0.00003681   -0.00002759   -0.01351736
     atom    6 type  1   force =    -0.00003345   -0.00002120   -0.01351779
     atom    7 type  2   force =     0.00000387   -0.00002138    0.00359029
     atom    8 type  2   force =    -0.00001425   -0.00002052    0.00357992
     atom    9 type  1   force =    -0.00000151    0.00000544   -0.00043957
     atom   10 type  1   force =     0.00000691   -0.00001116   -0.00043601
     atom   11 type  2   force =     0.00001699   -0.00000971    0.00046203
     atom   12 type  2   force =    -0.00001892    0.00001506    0.00046072

     Total force =     0.042410     Total SCF correction =     0.004258
     SCF correction compared to forces is large: reduce conv_thr to get better values

     Writing output data file ./Y2Ir2/Y2Ir2_beef.save/

     General routines

     Parallel routines

   This run was terminated on:  13:22:48  25Jun2022

   JOB DONE.