     Program PWSCF v.6.6 starts on 25Jun2022 at 19:29:31

     R & G space division:  proc/nbgrp/npool/nimage =      37
     Fft bands division:     nmany     =       1
     Reading input from Y2Pt2.in
Warning: card &CELL ignored
Warning: card / ignored

     Current dimensions of program PWSCF are:
     Max number of different atomic species (ntypx) = 10
     Max number of k-points (npk) =  40000
     Max angular momentum in pseudopotentials (lmaxx) =  3
     Presently stress not available with electric field and gates

     Message from routine cell_base_init:
     DEPRECATED: use true lattice parameter, not A to a.u. conversion factor
     file Y.pbe-spn-rrkjus_psl.1.0.0.UPF: wavefunction(s)  4S renormalized
     file Pt.pbe-n-rrkjus_psl.1.0.0.UPF: wavefunction(s)  6S renormalized

     IMPORTANT: XC functional enforced from input :
     Exchange-correlation= BEEF-VDW
                           (   1   4  43  14   2   0   0)
     Any further DFT definition will be discarded
     Please, verify this is what you really want

     Subspace diagonalization in iterative solution of the eigenvalue problem:
     a serial algorithm will be used

     Found symmetry operation: I + (  0.5000  0.5000  0.0000)
     This is a supercell, fractional translations are disabled

     bravais-lattice index     =            0
     lattice parameter (alat)  =       1.8897  a.u.
     unit-cell volume          =    5873.9058 (a.u.)^3
     number of atoms/cell      =           12
     number of atomic types    =            2
     number of electrons       =       126.00
     number of Kohn-Sham states=           76
     kinetic-energy cutoff     =      55.1240  Ry
     charge density cutoff     =     551.2396  Ry
     convergence threshold     =      1.0E-05
     mixing beta               =       0.1000
     number of iterations used =           10  plain     mixing
     Exchange-correlation= BEEF-VDW
                           (   1   4  43  14   2   0   0)

     celldm(1)=   1.889726  celldm(2)=   0.000000  celldm(3)=   0.000000
     celldm(4)=   0.000000  celldm(5)=   0.000000  celldm(6)=   0.000000

     crystal axes: (cart. coord. in units of alat)
               a(1) = (   6.081118   0.000000   0.000000 )
               a(2) = (   2.026825   5.733409   0.000000 )
               a(3) = (   0.000000   0.000000  24.965146 )

     reciprocal axes: (cart. coord. in units 2 pi/alat)
               b(1) = (  0.164443 -0.058133  0.000000 )
               b(2) = (  0.000000  0.174416  0.000000 )
               b(3) = (  0.000000  0.000000  0.040056 )

     PseudoPot. # 1 for Y  read from file:
     ../pseudo/Y.pbe-spn-rrkjus_psl.1.0.0.UPF
     MD5 check sum: 5fe32e6a006803c2ec2edff47948a3c8
     Pseudo is Ultrasoft + core correction, Zval = 11.0
     Generated using "atomic" code by A. Dal Corso v.6.2.2
     Using radial grid of 1223 points,  6 beta functions with:
                l(1) =   0
                l(2) =   0
                l(3) =   1
                l(4) =   1
                l(5) =   2
                l(6) =   2
     Q(r) pseudized with 0 coefficients

     PseudoPot. # 2 for Pt read from file:
     ../pseudo/Pt.pbe-n-rrkjus_psl.1.0.0.UPF
     MD5 check sum: 6bc887cfe28d63a5fc1f72d35a7d3ef7
     Pseudo is Ultrasoft + core correction, Zval = 10.0
     Generated using "atomic" code by A. Dal Corso v.6.3
     Using radial grid of 1277 points,  6 beta functions with:
                l(1) =   0
                l(2) =   0
                l(3) =   1
                l(4) =   1
                l(5) =   2
                l(6) =   2
     Q(r) pseudized with 0 coefficients

     atomic species   valence    mass     pseudopotential
        Y             11.00    88.90584     Y ( 1.00)
        Pt            10.00   195.08400     Pt( 1.00)

     No symmetry found

   Cartesian axes

     site n.     atom                  positions (alat units)
         1           Y   tau(   1) = (   0.0000000   0.0000000  10.0000000  )
         2           Y   tau(   2) = (   4.0539713   2.8667044  10.0000000  )
         3           Pt  tau(   3) = (   3.0405589   0.0000000  10.0000000  )
         4           Pt  tau(   4) = (   1.0134123   2.8667044  10.0000000  )
         5           Y   tau(   5) = (   6.0811179   4.3001704  12.4825731  )
         6           Y   tau(   6) = (   2.0271466   1.4334660  12.4825731  )
         7           Pt  tau(   7) = (   3.0405589   4.3001704  12.4825731  )
         8           Pt  tau(   8) = (   5.0677055   1.4334660  12.4825731  )
         9           Y   tau(   9) = (   4.0542000   2.8668872  14.9633652  )
        10           Y   tau(  10) = (   0.0002322   0.0001388  14.9633724  )
        11           Pt  tau(  11) = (   1.0136783   2.8668747  14.7519795  )
        12           Pt  tau(  12) = (   3.0407932   0.0001770  14.7519711  )

     number of k points=    74  Fermi-Dirac smearing, width (Ry)=  0.0100
                       cart. coord. in units 2pi/alat
        k(    1) = (   0.0000000   0.0000000   0.0000000), wk =   0.0138889
        k(    2) = (   0.0000000   0.0145347   0.0000000), wk =   0.0277778
        k(    3) = (   0.0000000   0.0290694   0.0000000), wk =   0.0277778
        k(    4) = (   0.0000000   0.0436041   0.0000000), wk =   0.0277778
        k(    5) = (   0.0000000   0.0581388   0.0000000), wk =   0.0277778
        k(    6) = (   0.0000000   0.0726735   0.0000000), wk =   0.0277778
        k(    7) = (   0.0000000  -0.0872082   0.0000000), wk =   0.0138889
        k(    8) = (   0.0137036  -0.0048444   0.0000000), wk =   0.0277778
        k(    9) = (   0.0137036   0.0096903   0.0000000), wk =   0.0277778
        k(   10) = (   0.0137036   0.0242250   0.0000000), wk =   0.0277778
        k(   11) = (   0.0137036   0.0387597   0.0000000), wk =   0.0277778
        k(   12) = (   0.0137036   0.0532944   0.0000000), wk =   0.0277778
        k(   13) = (   0.0137036   0.0678291   0.0000000), wk =   0.0277778
        k(   14) = (   0.0137036  -0.0920525   0.0000000), wk =   0.0277778
        k(   15) = (   0.0137036  -0.0775178   0.0000000), wk =   0.0277778
        k(   16) = (   0.0137036  -0.0629832   0.0000000), wk =   0.0277778
        k(   17) = (   0.0137036  -0.0484485   0.0000000), wk =   0.0277778
        k(   18) = (   0.0137036  -0.0339138   0.0000000), wk =   0.0277778
        k(   19) = (   0.0137036  -0.0193791   0.0000000), wk =   0.0277778
        k(   20) = (   0.0274072  -0.0096888   0.0000000), wk =   0.0277778
        k(   21) = (   0.0274072   0.0048459   0.0000000), wk =   0.0277778
        k(   22) = (   0.0274072   0.0193806   0.0000000), wk =   0.0277778
        k(   23) = (   0.0274072   0.0339153   0.0000000), wk =   0.0277778
        k(   24) = (   0.0274072   0.0484500   0.0000000), wk =   0.0277778
        k(   25) = (   0.0274072   0.0629847   0.0000000), wk =   0.0277778
        k(   26) = (   0.0274072  -0.0968969   0.0000000), wk =   0.0277778
        k(   27) = (   0.0274072  -0.0823622   0.0000000), wk =   0.0277778
        k(   28) = (   0.0274072  -0.0678275   0.0000000), wk =   0.0277778
        k(   29) = (   0.0274072  -0.0532928   0.0000000), wk =   0.0277778
        k(   30) = (   0.0274072  -0.0387582   0.0000000), wk =   0.0277778
        k(   31) = (   0.0274072  -0.0242235   0.0000000), wk =   0.0277778
        k(   32) = (   0.0411109  -0.0145332   0.0000000), wk =   0.0277778
        k(   33) = (   0.0411109   0.0000015   0.0000000), wk =   0.0277778
        k(   34) = (   0.0411109   0.0145362   0.0000000), wk =   0.0277778
        k(   35) = (   0.0411109   0.0290709   0.0000000), wk =   0.0277778
        k(   36) = (   0.0411109   0.0436056   0.0000000), wk =   0.0277778
        k(   37) = (   0.0411109   0.0581403   0.0000000), wk =   0.0277778
        k(   38) = (   0.0411109  -0.1017413   0.0000000), wk =   0.0277778
        k(   39) = (   0.0411109  -0.0872066   0.0000000), wk =   0.0277778
        k(   40) = (   0.0411109  -0.0726719   0.0000000), wk =   0.0277778
        k(   41) = (   0.0411109  -0.0581372   0.0000000), wk =   0.0277778
        k(   42) = (   0.0411109  -0.0436025   0.0000000), wk =   0.0277778
        k(   43) = (   0.0411109  -0.0290678   0.0000000), wk =   0.0277778
        k(   44) = (   0.0548145  -0.0193775   0.0000000), wk =   0.0277778
        k(   45) = (   0.0548145  -0.0048428   0.0000000), wk =   0.0277778
        k(   46) = (   0.0548145   0.0096918   0.0000000), wk =   0.0277778
        k(   47) = (   0.0548145   0.0242265   0.0000000), wk =   0.0277778
        k(   48) = (   0.0548145   0.0387612   0.0000000), wk =   0.0277778
        k(   49) = (   0.0548145   0.0532959   0.0000000), wk =   0.0277778
        k(   50) = (   0.0548145  -0.1065857   0.0000000), wk =   0.0277778
        k(   51) = (   0.0548145  -0.0920510   0.0000000), wk =   0.0277778
        k(   52) = (   0.0548145  -0.0775163   0.0000000), wk =   0.0277778
        k(   53) = (   0.0548145  -0.0629816   0.0000000), wk =   0.0277778
        k(   54) = (   0.0548145  -0.0484469   0.0000000), wk =   0.0277778
        k(   55) = (   0.0548145  -0.0339122   0.0000000), wk =   0.0277778
        k(   56) = (   0.0685181  -0.0242219   0.0000000), wk =   0.0277778
        k(   57) = (   0.0685181  -0.0096872   0.0000000), wk =   0.0277778
        k(   58) = (   0.0685181   0.0048475   0.0000000), wk =   0.0277778
        k(   59) = (   0.0685181   0.0193822   0.0000000), wk =   0.0277778
        k(   60) = (   0.0685181   0.0339168   0.0000000), wk =   0.0277778
        k(   61) = (   0.0685181   0.0484515   0.0000000), wk =   0.0277778
        k(   62) = (   0.0685181  -0.1114301   0.0000000), wk =   0.0277778
        k(   63) = (   0.0685181  -0.0968954   0.0000000), wk =   0.0277778
        k(   64) = (   0.0685181  -0.0823607   0.0000000), wk =   0.0277778
        k(   65) = (   0.0685181  -0.0678260   0.0000000), wk =   0.0277778
        k(   66) = (   0.0685181  -0.0532913   0.0000000), wk =   0.0277778
        k(   67) = (   0.0685181  -0.0387566   0.0000000), wk =   0.0277778
        k(   68) = (  -0.0822217   0.0290663   0.0000000), wk =   0.0138889
        k(   69) = (  -0.0822217   0.0436010   0.0000000), wk =   0.0277778
        k(   70) = (  -0.0822217   0.0581357   0.0000000), wk =   0.0277778
        k(   71) = (  -0.0822217   0.0726704   0.0000000), wk =   0.0277778
        k(   72) = (  -0.0822217   0.0872051   0.0000000), wk =   0.0277778
        k(   73) = (  -0.0822217   0.1017398   0.0000000), wk =   0.0277778
        k(   74) = (  -0.0822217  -0.0581418   0.0000000), wk =   0.0138889

     Initial potential from superposition of free atoms

     starting charge  125.97448, renormalised to  126.00000

     negative rho (up, down):  7.225E-04 0.000E+00

     %%%%%%%%%%%%%%%%%%%%%%%%%%%%%%%%%%%%%%%%%%%%%%%%%%%%%%%%%%%%%%%%%%%%%%%%
     %                                                                      %
     % You are using vdW-DF, which was implemented by the Thonhauser group. %
     % Please cite the following two papers that made this development      %
     % possible and the two reviews that describe the various versions:     %
     %                                                                      %
     %   T. Thonhauser et al., PRL 115, 136402 (2015).                      %
     %   T. Thonhauser et al., PRB 76, 125112 (2007).                       %
     %   K. Berland et al., Rep. Prog. Phys. 78, 066501 (2015).             %
     %   D.C. Langreth et al., J. Phys.: Condens. Matter 21, 084203 (2009). %
     %                                                                      %
     %                                                                      %
     % If you are calculating the stress with vdW-DF, please also cite:     %
     %                                                                      %
     %   R. Sabatini et al., J. Phys.: Condens. Matter 24, 424209 (2012).   %
     %                                                                      %
     %%%%%%%%%%%%%%%%%%%%%%%%%%%%%%%%%%%%%%%%%%%%%%%%%%%%%%%%%%%%%%%%%%%%%%%%

     Adding external electric field

     Computed dipole along edir(3) :
        Dipole                0.0015 Ry au,          0.0038 Debye
        Dipole field          0.0000 Ry au,

        Potential amp.       -0.0003 Ry
        Total length         45.9979 bohr

     Starting wfcs are  132 randomized atomic wfcs

     Self-consistent Calculation

     iteration #  1     ecut=    55.12 Ry     beta= 0.10
     Davidson diagonalization with overlap
     ethr =  1.00E-02,  avg # of iterations =  2.0

[...]

     total energy              =    -902.50612852 Ry
     estimated scf accuracy    <       1.41378452 Ry

[...]

     iteration #  6     ecut=    55.12 Ry     beta= 0.10
     Davidson diagonalization with overlap
     c_bands:  1 eigenvalues not converged
     c_bands:  2 eigenvalues not converged
     c_bands:  1 eigenvalues not converged
     c_bands:  1 eigenvalues not converged
     c_bands:  1 eigenvalues not converged
     c_bands:  1 eigenvalues not converged
     ethr =  5.77E-05,  avg # of iterations = 14.7

[...]

     iteration # 14     ecut=    55.12 Ry     beta= 0.10
     Davidson diagonalization with overlap
     c_bands:  1 eigenvalues not converged
     ethr =  2.27E-06,  avg # of iterations =  6.6

[...]

     total energy              =    -902.59371795 Ry
     estimated scf accuracy    <       0.00001440 Ry

     iteration # 19     ecut=    55.12 Ry     beta= 0.10
     Davidson diagonalization with overlap
     ethr =  1.14E-08,  avg # of iterations =  2.1

[...]

     Adding external electric field

     Computed dipole along edir(3) :
        Dipole                0.0927 Ry au,          0.2355 Debye
        Dipole field          0.0002 Ry au,

        Potential amp.       -0.0182 Ry
        Total length         45.9979 bohr

     End of self-consistent calculation

          k = 0.0000 0.0000 0.0000 ( 40611 PWs)   bands (ev):

   -42.1160 -42.1070 -42.0890 -42.0800 -41.3306 -41.3031 -22.1536 -22.1465
   -22.1365 -22.1147 -22.1043 -22.0765 -21.9778 -21.9586 -21.9540 -21.9280
   -21.8104 -21.8062 -21.4710 -21.3053 -21.2896 -21.2532 -21.2513 -21.1061
    -4.9035  -3.5392  -3.2094  -3.1135  -3.0098  -2.7403  -2.6830  -2.6716
    -2.6654  -2.6500  -2.2528  -2.2004  -2.1606  -1.9072  -1.8584  -1.8157
    -1.6741  -1.6584  -1.6251  -1.5056  -1.4212  -1.3933  -1.3770  -1.1279
    -1.0481  -0.9852  -0.9648  -0.9341  -0.6085  -0.4494  -0.4223  -0.2408
    -0.1857   0.2611   0.3389   0.5803   1.1616   1.7859   1.8684   2.0687
     2.2497   2.4260   2.7594   2.8027   2.8147   2.9256   2.9269   2.9831
     3.1256   3.5889   3.8230   3.8379

[...]

          k = 0.0685-0.0388 0.0000 ( 40580 PWs)   bands (ev):

[...]

          k =-0.0822 0.0291 0.0000 ( 40588 PWs)   bands (ev):

[...]

          k =-0.0822-0.0581 0.0000 ( 40530 PWs)   bands (ev):

   -42.1150 -42.1060 -42.0890 -42.0800 -41.3302 -41.3024 -22.1662 -22.1578
   -22.1521 -22.1095 -22.1012 -22.0742 -22.0136 -21.9825 -21.9521 -21.9326
   -21.8140 -21.8097 -21.4818 -21.3091 -21.2891 -21.2636 -21.2630 -21.1114
    -3.4016  -3.1446  -2.7994  -2.6136  -2.3197  -2.1820  -2.1060  -2.0685
    -1.9509  -1.8968  -1.8929  -1.8689  -1.7889  -1.7129  -1.5788  -1.5378
    -1.5228  -1.3835  -1.3352  -1.2655  -1.2620  -1.2493  -1.1921  -1.0812
    -1.0081  -0.9800  -0.9294  -0.8904  -0.8098  -0.7137  -0.5477  -0.5134
    -0.4031  -0.2379  -0.2117   0.2067   0.3651   0.6629   0.6885   0.7620
     0.8874   1.1593   1.3684   1.7087   1.9821   2.0090   2.4324   2.4371
     2.7315   2.9034   3.0106   3.2646

     the Fermi energy is     1.5162 ev

!    total energy              =    -902.59371373 Ry
     estimated scf accuracy    <       0.00000681 Ry
     smearing contrib. (-TS)   =      -0.03436934 Ry
     internal energy E=F+TS    =    -902.55934439 Ry

     The total energy is F=E-TS. E is the sum of the following terms:
     one-electron contribution =   -6499.94488959 Ry
     hartree contribution      =    3285.94557230 Ry
     xc contribution           =    -259.70366898 Ry
     ewald contribution        =    2571.14362352 Ry
     electric field correction =       0.00001837 Ry

     convergence has been achieved in  19 iterations

     negative rho (up, down):  5.289E-04 0.000E+00

     Forces acting on atoms (cartesian axes, Ry/au):

     atom    1 type  1   force =     0.00001059    0.00000553   -0.00673325
     atom    2 type  1   force =     0.00001158    0.00000905   -0.00673421
     atom    3 type  2   force =     0.00000381    0.00000268    0.02938272
     atom    4 type  2   force =     0.00000117    0.00000573    0.02936573
     atom    5 type  1   force =    -0.00000591   -0.00000844   -0.02210076
     atom    6 type  1   force =    -0.00000836   -0.00000534   -0.02210239
     atom    7 type  2   force =    -0.00000071    0.00000461   -0.00001748
     atom    8 type  2   force =    -0.00000562   -0.00000540   -0.00001015
     atom    9 type  1   force =     0.00000368   -0.00000658   -0.00044061
     atom   10 type  1   force =    -0.00000439    0.00000501   -0.00043949
     atom   11 type  2   force =    -0.00001035    0.00000053   -0.00008501
     atom   12 type  2   force =     0.00000451   -0.00000738   -0.00008509

     Total force =     0.052856     Total SCF correction =     0.013910
     SCF correction compared to forces is large: reduce conv_thr to get better values

     Writing output data file ./Y2Pt2/Y2Pt2_beef.save/

     General routines

     Parallel routines

   This run was terminated on:  20:28: 6  25Jun2022

   JOB DONE.