     Program PWSCF v.6.6 starts on 25Jun2022 at 20:28: 9

     R & G space division:  proc/nbgrp/npool/nimage =      37
     Fft bands division:     nmany     =       1
     Reading input from Y2Re2.in
Warning: card &CELL ignored
Warning: card / ignored

     Current dimensions of program PWSCF are:
     Max number of different atomic species (ntypx) = 10
     Max number of k-points (npk) =  40000
     Max angular momentum in pseudopotentials (lmaxx) =  3
     Presently stress not available with electric field and gates

     Message from routine cell_base_init:
     DEPRECATED: use true lattice parameter, not A to a.u. conversion factor
     file Y.pbe-spn-rrkjus_psl.1.0.0.UPF: wavefunction(s)  4S renormalized

     IMPORTANT: XC functional enforced from input :
     Exchange-correlation= BEEF-VDW
                           (   1   4  43  14   2   0   0)
     Any further DFT definition will be discarded
     Please, verify this is what you really want

     Subspace diagonalization in iterative solution of the eigenvalue problem:
     a serial algorithm will be used

     bravais-lattice index     =            0
     lattice parameter (alat)  =       1.8897  a.u.
     unit-cell volume          =    5696.0814 (a.u.)^3
     number of atoms/cell      =           12
     number of atomic types    =            2
     number of electrons       =       156.00
     number of Kohn-Sham states=           94
     kinetic-energy cutoff     =      55.1240  Ry
     charge density cutoff     =     551.2396  Ry
     convergence threshold     =      1.0E-05
     mixing beta               =       0.1000
     number of iterations used =           10  plain     mixing
     Exchange-correlation= BEEF-VDW
                           (   1   4  43  14   2   0   0)

     celldm(1)=   1.889726  celldm(2)=   0.000000  celldm(3)=   0.000000
     celldm(4)=   0.000000  celldm(5)=   0.000000  celldm(6)=   0.000000

     crystal axes: (cart. coord. in units of alat)
               a(1) = (   5.986350   0.000000   0.000000 )
               a(2) = (   1.915953   5.671464   0.000000 )
               a(3) = (   0.000000   0.000000  24.861217 )

     reciprocal axes: (cart. coord. in units 2 pi/alat)
               b(1) = (  0.167047 -0.056432  0.000000 )
               b(2) = (  0.000000  0.176321  0.000000 )
               b(3) = (  0.000000  0.000000  0.040223 )

     PseudoPot. # 1 for Y  read from file:
     ../pseudo/Y.pbe-spn-rrkjus_psl.1.0.0.UPF
     MD5 check sum: 5fe32e6a006803c2ec2edff47948a3c8
     Pseudo is Ultrasoft + core correction, Zval = 11.0
     Generated using "atomic" code by A. Dal Corso v.6.2.2
     Using radial grid of 1223 points,  6 beta functions with:
                l(1) =   0
                l(2) =   0
                l(3) =   1
                l(4) =   1
                l(5) =   2
                l(6) =   2
     Q(r) pseudized with 0 coefficients

     PseudoPot. # 2 for Re read from file:
     ../pseudo/Re.pbe-spn-rrkjus_psl.1.0.0.UPF
     MD5 check sum: 1282f1ec51ad523723a04c61ae80a9e6
     Pseudo is Ultrasoft + core correction, Zval = 15.0
     Generated using "atomic" code by A. Dal Corso v.6.2.2
     Using radial grid of 1275 points,  6 beta functions with:
                l(1) =   0
                l(2) =   0
                l(3) =   1
                l(4) =   1
                l(5) =   2
                l(6) =   2
     Q(r) pseudized with 0 coefficients

     atomic species   valence    mass     pseudopotential
        Y             11.00    88.90584     Y ( 1.00)
        Re            15.00   186.20700     Re( 1.00)

     No symmetry found

   Cartesian axes

     site n.     atom                  positions (alat units)
         1           Y   tau(   1) = (   0.0000000   0.0000000  10.0000000  )
         2           Y   tau(   2) = (   3.9511514   2.8357321  10.0000000  )
         3           Re  tau(   3) = (   2.9931748   0.0000000  10.0000000  )
         4           Re  tau(   4) = (   0.9579766   2.8357321  10.0000000  )
         5           Y   tau(   5) = (   5.9863496   4.2963890  12.4306085  )
         6           Y   tau(   6) = (   2.0351982   1.4606570  12.4306085  )
         7           Re  tau(   7) = (   2.9931748   4.2963890  12.4306085  )
         8           Re  tau(   8) = (   5.0283730   1.4606570  12.4306085  )
         9           Y   tau(   9) = (   4.7918951   3.4393218  15.2188224  )
        10           Y   tau(  10) = (   0.8411919   0.6038867  15.2191257  )
        11           Re  tau(  11) = (   2.0297072   3.6054479  14.4715565  )
        12           Re  tau(  12) = (   4.0653878   0.7691975  14.4711883  )

     number of k points=    74  Fermi-Dirac smearing, width (Ry)=  0.0100
                       cart. coord. in units 2pi/alat
        k(    1) = (   0.0000000   0.0000000   0.0000000), wk =   0.0138889
        k(    2) = (   0.0000000   0.0146934   0.0000000), wk =   0.0277778
        k(    3) = (   0.0000000   0.0293869   0.0000000), wk =   0.0277778
        k(    4) = (   0.0000000   0.0440803   0.0000000), wk =   0.0277778
        k(    5) = (   0.0000000   0.0587738   0.0000000), wk =   0.0277778
        k(    6) = (   0.0000000   0.0734672   0.0000000), wk =   0.0277778
        k(    7) = (   0.0000000  -0.0881607   0.0000000), wk =   0.0138889
        k(    8) = (   0.0139206  -0.0047027   0.0000000), wk =   0.0277778
        k(    9) = (   0.0139206   0.0099908   0.0000000), wk =   0.0277778
        k(   10) = (   0.0139206   0.0246842   0.0000000), wk =   0.0277778
        k(   11) = (   0.0139206   0.0393776   0.0000000), wk =   0.0277778
        k(   12) = (   0.0139206   0.0540711   0.0000000), wk =   0.0277778
        k(   13) = (   0.0139206   0.0687645   0.0000000), wk =   0.0277778
        k(   14) = (   0.0139206  -0.0928633   0.0000000), wk =   0.0277778
        k(   15) = (   0.0139206  -0.0781699   0.0000000), wk =   0.0277778
        k(   16) = (   0.0139206  -0.0634765   0.0000000), wk =   0.0277778
        k(   17) = (   0.0139206  -0.0487830   0.0000000), wk =   0.0277778
        k(   18) = (   0.0139206  -0.0340896   0.0000000), wk =   0.0277778
        k(   19) = (   0.0139206  -0.0193961   0.0000000), wk =   0.0277778
        k(   20) = (   0.0278411  -0.0094054   0.0000000), wk =   0.0277778
        k(   21) = (   0.0278411   0.0052881   0.0000000), wk =   0.0277778
        k(   22) = (   0.0278411   0.0199815   0.0000000), wk =   0.0277778
        k(   23) = (   0.0278411   0.0346749   0.0000000), wk =   0.0277778
        k(   24) = (   0.0278411   0.0493684   0.0000000), wk =   0.0277778
        k(   25) = (   0.0278411   0.0640618   0.0000000), wk =   0.0277778
        k(   26) = (   0.0278411  -0.0975660   0.0000000), wk =   0.0277778
        k(   27) = (   0.0278411  -0.0828726   0.0000000), wk =   0.0277778
        k(   28) = (   0.0278411  -0.0681792   0.0000000), wk =   0.0277778
        k(   29) = (   0.0278411  -0.0534857   0.0000000), wk =   0.0277778
        k(   30) = (   0.0278411  -0.0387923   0.0000000), wk =   0.0277778
        k(   31) = (   0.0278411  -0.0240988   0.0000000), wk =   0.0277778
        k(   32) = (   0.0417617  -0.0141081   0.0000000), wk =   0.0277778
        k(   33) = (   0.0417617   0.0005854   0.0000000), wk =   0.0277778
        k(   34) = (   0.0417617   0.0152788   0.0000000), wk =   0.0277778
        k(   35) = (   0.0417617   0.0299723   0.0000000), wk =   0.0277778
        k(   36) = (   0.0417617   0.0446657   0.0000000), wk =   0.0277778
        k(   37) = (   0.0417617   0.0593591   0.0000000), wk =   0.0277778
        k(   38) = (   0.0417617  -0.1022687   0.0000000), wk =   0.0277778
        k(   39) = (   0.0417617  -0.0875753   0.0000000), wk =   0.0277778
        k(   40) = (   0.0417617  -0.0728818   0.0000000), wk =   0.0277778
        k(   41) = (   0.0417617  -0.0581884   0.0000000), wk =   0.0277778
        k(   42) = (   0.0417617  -0.0434950   0.0000000), wk =   0.0277778
        k(   43) = (   0.0417617  -0.0288015   0.0000000), wk =   0.0277778
        k(   44) = (   0.0556822  -0.0188108   0.0000000), wk =   0.0277778
        k(   45) = (   0.0556822  -0.0041173   0.0000000), wk =   0.0277778
        k(   46) = (   0.0556822   0.0105761   0.0000000), wk =   0.0277778
        k(   47) = (   0.0556822   0.0252696   0.0000000), wk =   0.0277778
        k(   48) = (   0.0556822   0.0399630   0.0000000), wk =   0.0277778
        k(   49) = (   0.0556822   0.0546565   0.0000000), wk =   0.0277778
        k(   50) = (   0.0556822  -0.1069714   0.0000000), wk =   0.0277778
        k(   51) = (   0.0556822  -0.0922780   0.0000000), wk =   0.0277778
        k(   52) = (   0.0556822  -0.0775845   0.0000000), wk =   0.0277778
        k(   53) = (   0.0556822  -0.0628911   0.0000000), wk =   0.0277778
        k(   54) = (   0.0556822  -0.0481976   0.0000000), wk =   0.0277778
        k(   55) = (   0.0556822  -0.0335042   0.0000000), wk =   0.0277778
        k(   56) = (   0.0696028  -0.0235134   0.0000000), wk =   0.0277778
        k(   57) = (   0.0696028  -0.0088200   0.0000000), wk =   0.0277778
        k(   58) = (   0.0696028   0.0058734   0.0000000), wk =   0.0277778
        k(   59) = (   0.0696028   0.0205669   0.0000000), wk =   0.0277778
        k(   60) = (   0.0696028   0.0352603   0.0000000), wk =   0.0277778
        k(   61) = (   0.0696028   0.0499538   0.0000000), wk =   0.0277778
        k(   62) = (   0.0696028  -0.1116741   0.0000000), wk =   0.0277778
        k(   63) = (   0.0696028  -0.0969807   0.0000000), wk =   0.0277778
        k(   64) = (   0.0696028  -0.0822872   0.0000000), wk =   0.0277778
        k(   65) = (   0.0696028  -0.0675938   0.0000000), wk =   0.0277778
        k(   66) = (   0.0696028  -0.0529003   0.0000000), wk =   0.0277778
        k(   67) = (   0.0696028  -0.0382069   0.0000000), wk =   0.0277778
        k(   68) = (  -0.0835233   0.0282161   0.0000000), wk =   0.0138889
        k(   69) = (  -0.0835233   0.0429096   0.0000000), wk =   0.0277778
        k(   70) = (  -0.0835233   0.0576030   0.0000000), wk =   0.0277778
        k(   71) = (  -0.0835233   0.0722965   0.0000000), wk =   0.0277778
        k(   72) = (  -0.0835233   0.0869899   0.0000000), wk =   0.0277778
        k(   73) = (  -0.0835233   0.1016834   0.0000000), wk =   0.0277778
        k(   74) = (  -0.0835233  -0.0599445   0.0000000), wk =   0.0138889

     Initial potential from superposition of free atoms

     starting charge  155.97370, renormalised to  156.00000

     negative rho (up, down):  3.463E-04 0.000E+00

     %%%%%%%%%%%%%%%%%%%%%%%%%%%%%%%%%%%%%%%%%%%%%%%%%%%%%%%%%%%%%%%%%%%%%%%%
     %                                                                      %
     % You are using vdW-DF, which was implemented by the Thonhauser group. %
     % Please cite the following two papers that made this development      %
     % possible and the two reviews that describe the various versions:     %
     %                                                                      %
     %   T. Thonhauser et al., PRL 115, 136402 (2015).                      %
     %   T. Thonhauser et al., PRB 76, 125112 (2007).                       %
     %   K. Berland et al., Rep. Prog. Phys. 78, 066501 (2015).             %
     %   D.C. Langreth et al., J. Phys.: Condens. Matter 21, 084203 (2009). %
     %                                                                      %
     %                                                                      %
     % If you are calculating the stress with vdW-DF, please also cite:     %
     %                                                                      %
     %   R. Sabatini et al., J. Phys.: Condens. Matter 24, 424209 (2012).   %
     %                                                                      %
     %%%%%%%%%%%%%%%%%%%%%%%%%%%%%%%%%%%%%%%%%%%%%%%%%%%%%%%%%%%%%%%%%%%%%%%%

     Adding external electric field

     Computed dipole along edir(3) :
        Dipole                0.0063 Ry au,          0.0160 Debye
        Dipole field          0.0000 Ry au,

        Potential amp.       -0.0013 Ry
        Total length         45.8064 bohr

     Starting wfcs are  138 randomized atomic wfcs

     Self-consistent Calculation

     iteration #  1     ecut=    55.12 Ry     beta= 0.10
     Davidson diagonalization with overlap
     ethr =  1.00E-02,  avg # of iterations =  2.1

[...]

     total energy              =   -1579.84916519 Ry
     estimated scf accuracy    <       5.50540604 Ry

[...]

     iteration # 11     ecut=    55.12 Ry     beta= 0.10
     Davidson diagonalization with overlap
     c_bands:  1 eigenvalues not converged
     ethr =  1.63E-05,  avg # of iterations =  1.9

[...]

     total energy              =   -1580.13577783 Ry
     estimated scf accuracy    <       0.00001294 Ry

     iteration # 19     ecut=    55.12 Ry     beta= 0.10
     Davidson diagonalization with overlap
     ethr =  8.29E-09,  avg # of iterations =  2.2

[...]

     Adding external electric field

     Computed dipole along edir(3) :
        Dipole                0.3258 Ry au,          0.8281 Debye
        Dipole field          0.0007 Ry au,

        Potential amp.       -0.0658 Ry
        Total length         45.8064 bohr

     End of self-consistent calculation

          k = 0.0000 0.0000 0.0000 ( 39421 PWs)   bands (ev):

   -77.9368 -77.9356 -77.7027 -77.7016 -77.3511 -77.3499 -40.9146 -40.8825
   -40.3790 -40.3650 -40.0530 -40.0322 -39.6420 -39.5986 -39.5968 -39.5941
   -39.5123 -39.5004 -39.3903 -39.3723 -39.3368 -39.3066 -39.1605 -39.1533
   -39.1409 -39.1303 -39.1233 -39.0940 -39.0443 -39.0400 -21.0585 -21.0155
   -20.9709 -20.7701 -20.7413 -20.6047 -20.2458 -20.1531 -20.1153 -19.9941
   -19.9718 -19.8594 -19.6973 -19.5314 -19.4894 -19.4810 -19.4474 -19.2931
    -3.8530  -2.2921  -2.0127  -1.5760  -1.4848  -1.2583  -1.1857  -1.1123
    -1.0347  -0.8140  -0.6282  -0.3153  -0.1839  -0.0294   0.0076   0.4515
     0.4703   0.6020   0.7519   0.8647   0.9750   1.0269   1.1932   1.4016
     1.5636   1.6797   1.6829   2.2101   2.3565   2.4870   2.5389   2.6918
     3.1978   3.2247   3.2510   3.2619   3.3134   3.4114   3.4349   3.5813
     3.9464   3.9899   4.0676   4.1533   4.3760   4.4272

[...]

          k = 0.0696-0.0382 0.0000 ( 39351 PWs)   bands (ev):

[...]

          k =-0.0835 0.0282 0.0000 ( 39380 PWs)   bands (ev):

[...]

          k =-0.0835-0.0599 0.0000 ( 39334 PWs)   bands (ev):

   -77.9368 -77.9356 -77.7027 -77.7016 -77.3511 -77.3499 -40.9231 -40.8875
   -40.3851 -40.3645 -40.0782 -40.0502 -39.7047 -39.7009 -39.5965 -39.5914
   -39.4326 -39.3904 -39.3777 -39.3688 -39.3375 -39.3110 -39.1613 -39.1559
   -39.1402 -39.1218 -39.1126 -39.0938 -39.0390 -39.0155 -21.0559 -21.0144
   -20.9841 -20.8002 -20.7456 -20.6087 -20.2756 -20.1683 -20.1108 -20.0565
   -19.9853 -19.8679 -19.7247 -19.5446 -19.4984 -19.4983 -19.4654 -19.3037
    -2.4522  -1.7010  -1.6328  -1.1590  -1.0198  -0.7913  -0.7825  -0.4242
    -0.2276  -0.1684  -0.0811   0.0606   0.0875   0.2687   0.5724   0.5923
     0.8376   0.8623   0.9333   0.9896   1.0475   1.2474   1.2662   1.3603
     1.5162   1.6198   1.7353   1.8834   1.9060   2.0419   2.0817   2.1082
     2.1663   2.3082   2.4652   2.5169   2.7150   3.0864   3.1858   3.2348
     3.3578   3.5670   3.7902   3.8968   3.9838   4.3432

     the Fermi energy is     2.0771 ev

!    total energy              =   -1580.13577671 Ry
     estimated scf accuracy    <       0.00000457 Ry
     smearing contrib. (-TS)   =      -0.06839282 Ry
     internal energy E=F+TS    =   -1580.06738389 Ry

     The total energy is F=E-TS. E is the sum of the following terms:
     one-electron contribution =  -10564.68909818 Ry
     hartree contribution      =    5274.25350896 Ry
     xc contribution           =    -357.11948212 Ry
     ewald contribution        =    4067.48745327 Ry
     electric field correction =       0.00023418 Ry

     convergence has been achieved in  19 iterations

     negative rho (up, down):  8.437E-05 0.000E+00

     Forces acting on atoms (cartesian axes, Ry/au):

     atom    1 type  1   force =     0.00347625    0.00249009   -0.03939075
     atom    2 type  1   force =     0.00347297    0.00249601   -0.03938695
     atom    3 type  2   force =    -0.00119925   -0.00085837    0.03245457
     atom    4 type  2   force =    -0.00119457   -0.00085999    0.03244421
     atom    5 type  1   force =     0.00678748    0.00484010   -0.04075561
     atom    6 type  1   force =     0.00679053    0.00491449   -0.04068663
     atom    7 type  2   force =    -0.01079097   -0.00772422    0.05093046
     atom    8 type  2   force =    -0.01069057   -0.00768227    0.05077922
     atom    9 type  1   force =     0.00028201    0.00018877    0.00064534
     atom   10 type  1   force =     0.00026444    0.00019244    0.00063745
     atom   11 type  2   force =     0.00143625    0.00101497   -0.00394738
     atom   12 type  2   force =     0.00136543    0.00098798   -0.00372393

     Total force =     0.119433     Total SCF correction =     0.005011

     Writing output data file ./Y2Re2/Y2Re2_beef.save/

     General routines

     Parallel routines

   This run was terminated on:  21:37: 7  25Jun2022

   JOB DONE.