     Program PWSCF v.6.6 starts on 27Jun2022 at 17:29:43

     R & G space division:  proc/nbgrp/npool/nimage =      37
     Fft bands division:     nmany     =       1
     Reading input from Y2Ta2.in
Warning: card &CELL ignored
Warning: card / ignored

     Current dimensions of program PWSCF are:
     Max number of different atomic species (ntypx) = 10
     Max number of k-points (npk) =  40000
     Max angular momentum in pseudopotentials (lmaxx) =  3
     Presently stress not available with electric field and gates

     Message from routine cell_base_init:
     DEPRECATED: use true lattice parameter, not A to a.u. conversion factor
     file Y.pbe-spn-rrkjus_psl.1.0.0.UPF: wavefunction(s)  4S renormalized
     file Ta.pbe-spfn-rrkjus_psl.1.0.0.UPF: wavefunction(s)  5S 5P renormalized

     IMPORTANT: XC functional enforced from input :
     Exchange-correlation= BEEF-VDW
                           (   1   4  43  14   2   0   0)
     Any further DFT definition will be discarded
     Please, verify this is what you really want

     Subspace diagonalization in iterative solution of the eigenvalue problem:
     a serial algorithm will be used

     Found symmetry operation: I + ( -0.5000  0.0000  0.0000)
     This is a supercell, fractional translations are disabled

     bravais-lattice index     =            0
     lattice parameter (alat)  =       1.8897  a.u.
     unit-cell volume          =    6051.4222 (a.u.)^3
     number of atoms/cell      =           12
     number of atomic types    =            2
     number of electrons       =       228.00
     number of Kohn-Sham states=          137
     kinetic-energy cutoff     =      55.1240  Ry
     charge density cutoff     =     551.2396  Ry
     convergence threshold     =      1.0E-05
     mixing beta               =       0.1000
     number of iterations used =           10  plain     mixing
     Exchange-correlation= BEEF-VDW
                           (   1   4  43  14   2   0   0)

     celldm(1)=   1.889726  celldm(2)=   0.000000  celldm(3)=   0.000000
     celldm(4)=   0.000000  celldm(5)=   0.000000  celldm(6)=   0.000000

     crystal axes: (cart. coord. in units of alat)
               a(1) = (   6.048300   0.000000   0.000000 )
               a(2) = (  -3.024150   5.885967   0.000000 )
               a(3) = (   0.000000   0.000000  25.188934 )

     reciprocal axes: (cart. coord. in units 2 pi/alat)
               b(1) = (  0.165336  0.084948 -0.000000 )
               b(2) = (  0.000000  0.169896  0.000000 )
               b(3) = (  0.000000 -0.000000  0.039700 )

     PseudoPot. # 1 for Y  read from file:
     ../pseudo/Y.pbe-spn-rrkjus_psl.1.0.0.UPF
     MD5 check sum: 5fe32e6a006803c2ec2edff47948a3c8
     Pseudo is Ultrasoft + core correction, Zval = 11.0
     Generated using "atomic" code by A. Dal Corso v.6.2.2
     Using radial grid of 1223 points,  6 beta functions with:
                l(1) =   0
                l(2) =   0
                l(3) =   1
                l(4) =   1
                l(5) =   2
                l(6) =   2
     Q(r) pseudized with 0 coefficients

     PseudoPot. # 2 for Ta read from file:
     ../pseudo/Ta.pbe-spfn-rrkjus_psl.1.0.0.UPF
     MD5 check sum: 39d7d349fe394e56adf8454eb9315fbb
     Pseudo is Ultrasoft + core correction, Zval = 27.0
     Generated using "atomic" code by A. Dal Corso v.6.3
     Using radial grid of 1273 points,  8 beta functions with:
                l(1) =   0
                l(2) =   0
                l(3) =   1
                l(4) =   1
                l(5) =   2
                l(6) =   2
                l(7) =   3
                l(8) =   3
     Q(r) pseudized with 0 coefficients

     atomic species   valence    mass     pseudopotential
        Y             11.00    88.90584     Y ( 1.00)
        Ta            27.00   180.94788     Ta( 1.00)

     No symmetry found

   Cartesian axes

     site n.     atom                  positions (alat units)
         1           Y   tau(   1) = (   0.0000000   0.0000000  10.0000000  )
         2           Y   tau(   2) = (   3.0241501   0.0000000  10.0000000  )
         3           Ta  tau(   3) = (   1.5120750   2.9429835  10.0000000  )
         4           Ta  tau(   4) = (  -1.5120750   2.9429835  10.0000000  )
         5           Y   tau(   5) = (   3.0241501   1.5537776  12.5944670  )
         6           Y   tau(   6) = (   0.0000000   1.5537776  12.5944670  )
         7           Ta  tau(   7) = (  -1.5120750   4.4967611  12.5944670  )
         8           Ta  tau(   8) = (   1.5120750   4.4967611  12.5944670  )
         9           Y   tau(   9) = (   0.0002914   3.2368197  15.3358446  )
        10           Y   tau(  10) = (   3.0244448   3.2368121  15.3358602  )
        11           Ta  tau(  11) = (   4.5361484   0.0770121  14.9075145  )
        12           Ta  tau(  12) = (   1.5120103   0.0770154  14.9075318  )

     number of k points=    74  Fermi-Dirac smearing, width (Ry)=  0.0100
                       cart. coord. in units 2pi/alat
        k(    1) = (   0.0000000   0.0000000   0.0000000), wk =   0.0138889
        k(    2) = (   0.0000000   0.0141580   0.0000000), wk =   0.0277778
        k(    3) = (   0.0000000   0.0283159   0.0000000), wk =   0.0277778
        k(    4) = (   0.0000000   0.0424739   0.0000000), wk =   0.0277778
        k(    5) = (   0.0000000   0.0566319   0.0000000), wk =   0.0277778
        k(    6) = (   0.0000000   0.0707898   0.0000000), wk =   0.0277778
        k(    7) = (   0.0000000  -0.0849478   0.0000000), wk =   0.0138889
        k(    8) = (   0.0137780   0.0070790   0.0000000), wk =   0.0277778
        k(    9) = (   0.0137780   0.0212370   0.0000000), wk =   0.0277778
        k(   10) = (   0.0137780   0.0353949   0.0000000), wk =   0.0277778
        k(   11) = (   0.0137780   0.0495529   0.0000000), wk =   0.0277778
        k(   12) = (   0.0137780   0.0637109   0.0000000), wk =   0.0277778
        k(   13) = (   0.0137780   0.0778688   0.0000000), wk =   0.0277778
        k(   14) = (   0.0137780  -0.0778688   0.0000000), wk =   0.0277778
        k(   15) = (   0.0137780  -0.0637109   0.0000000), wk =   0.0277778
        k(   16) = (   0.0137780  -0.0495529   0.0000000), wk =   0.0277778
        k(   17) = (   0.0137780  -0.0353949   0.0000000), wk =   0.0277778
        k(   18) = (   0.0137780  -0.0212370   0.0000000), wk =   0.0277778
        k(   19) = (   0.0137780  -0.0070790   0.0000000), wk =   0.0277778
        k(   20) = (   0.0275560   0.0141580   0.0000000), wk =   0.0277778
        k(   21) = (   0.0275560   0.0283159   0.0000000), wk =   0.0277778
        k(   22) = (   0.0275560   0.0424739   0.0000000), wk =   0.0277778
        k(   23) = (   0.0275560   0.0566319   0.0000000), wk =   0.0277778
        k(   24) = (   0.0275560   0.0707898   0.0000000), wk =   0.0277778
        k(   25) = (   0.0275560   0.0849478   0.0000000), wk =   0.0277778
        k(   26) = (   0.0275560  -0.0707898   0.0000000), wk =   0.0277778
        k(   27) = (   0.0275560  -0.0566319   0.0000000), wk =   0.0277778
        k(   28) = (   0.0275560  -0.0424739   0.0000000), wk =   0.0277778
        k(   29) = (   0.0275560  -0.0283159   0.0000000), wk =   0.0277778
        k(   30) = (   0.0275560  -0.0141580   0.0000000), wk =   0.0277778
        k(   31) = (   0.0275560  -0.0000000   0.0000000), wk =   0.0277778
        k(   32) = (   0.0413339   0.0212370   0.0000000), wk =   0.0277778
        k(   33) = (   0.0413339   0.0353949   0.0000000), wk =   0.0277778
        k(   34) = (   0.0413339   0.0495529   0.0000000), wk =   0.0277778
        k(   35) = (   0.0413339   0.0637109   0.0000000), wk =   0.0277778
        k(   36) = (   0.0413339   0.0778688   0.0000000), wk =   0.0277778
        k(   37) = (   0.0413339   0.0920268   0.0000000), wk =   0.0277778
        k(   38) = (   0.0413339  -0.0637109   0.0000000), wk =   0.0277778
        k(   39) = (   0.0413339  -0.0495529   0.0000000), wk =   0.0277778
        k(   40) = (   0.0413339  -0.0353949   0.0000000), wk =   0.0277778
        k(   41) = (   0.0413339  -0.0212370   0.0000000), wk =   0.0277778
        k(   42) = (   0.0413339  -0.0070790   0.0000000), wk =   0.0277778
        k(   43) = (   0.0413339   0.0070790   0.0000000), wk =   0.0277778
        k(   44) = (   0.0551119   0.0283159   0.0000000), wk =   0.0277778
        k(   45) = (   0.0551119   0.0424739   0.0000000), wk =   0.0277778
        k(   46) = (   0.0551119   0.0566319   0.0000000), wk =   0.0277778
        k(   47) = (   0.0551119   0.0707898   0.0000000), wk =   0.0277778
        k(   48) = (   0.0551119   0.0849478   0.0000000), wk =   0.0277778
        k(   49) = (   0.0551119   0.0991058   0.0000000), wk =   0.0277778
        k(   50) = (   0.0551119  -0.0566319   0.0000000), wk =   0.0277778
        k(   51) = (   0.0551119  -0.0424739   0.0000000), wk =   0.0277778
        k(   52) = (   0.0551119  -0.0283159   0.0000000), wk =   0.0277778
        k(   53) = (   0.0551119  -0.0141580   0.0000000), wk =   0.0277778
        k(   54) = (   0.0551119   0.0000000   0.0000000), wk =   0.0277778
        k(   55) = (   0.0551119   0.0141580   0.0000000), wk =   0.0277778
        k(   56) = (   0.0688899   0.0353949   0.0000000), wk =   0.0277778
        k(   57) = (   0.0688899   0.0495529   0.0000000), wk =   0.0277778
        k(   58) = (   0.0688899   0.0637109   0.0000000), wk =   0.0277778
        k(   59) = (   0.0688899   0.0778688   0.0000000), wk =   0.0277778
        k(   60) = (   0.0688899   0.0920268   0.0000000), wk =   0.0277778
        k(   61) = (   0.0688899   0.1061848   0.0000000), wk =   0.0277778
        k(   62) = (   0.0688899  -0.0495529   0.0000000), wk =   0.0277778
        k(   63) = (   0.0688899  -0.0353949   0.0000000), wk =   0.0277778
        k(   64) = (   0.0688899  -0.0212370   0.0000000), wk =   0.0277778
        k(   65) = (   0.0688899  -0.0070790   0.0000000), wk =   0.0277778
        k(   66) = (   0.0688899   0.0070790   0.0000000), wk =   0.0277778
        k(   67) = (   0.0688899   0.0212370   0.0000000), wk =   0.0277778
        k(   68) = (  -0.0826679  -0.0424739   0.0000000), wk =   0.0138889
        k(   69) = (  -0.0826679  -0.0283159   0.0000000), wk =   0.0277778
        k(   70) = (  -0.0826679  -0.0141580   0.0000000), wk =   0.0277778
        k(   71) = (  -0.0826679   0.0000000   0.0000000), wk =   0.0277778
        k(   72) = (  -0.0826679   0.0141580   0.0000000), wk =   0.0277778
        k(   73) = (  -0.0826679   0.0283159   0.0000000), wk =   0.0277778
        k(   74) = (  -0.0826679  -0.1274217   0.0000000), wk =   0.0138889

     Initial potential from superposition of free atoms

     starting charge  227.97043, renormalised to  228.00000

     negative rho (up, down):  2.234E-04 0.000E+00

     %%%%%%%%%%%%%%%%%%%%%%%%%%%%%%%%%%%%%%%%%%%%%%%%%%%%%%%%%%%%%%%%%%%%%%%%
     %                                                                      %
     % You are using vdW-DF, which was implemented by the Thonhauser group. %
     % Please cite the following two papers that made this development      %
     % possible and the two reviews that describe the various versions:     %
     %                                                                      %
     %   T. Thonhauser et al., PRL 115, 136402 (2015).                      %
     %   T. Thonhauser et al., PRB 76, 125112 (2007).                       %
     %   K. Berland et al., Rep. Prog. Phys. 78, 066501 (2015).             %
     %   D.C. Langreth et al., J. Phys.: Condens. Matter 21, 084203 (2009). %
     %                                                                      %
     %                                                                      %
     % If you are calculating the stress with vdW-DF, please also cite:     %
     %                                                                      %
     %   R. Sabatini et al., J. Phys.: Condens. Matter 24, 424209 (2012).   %
     %                                                                      %
     %%%%%%%%%%%%%%%%%%%%%%%%%%%%%%%%%%%%%%%%%%%%%%%%%%%%%%%%%%%%%%%%%%%%%%%%

     Adding external electric field

     Computed dipole along edir(3) :
        Dipole                0.0043 Ry au,          0.0109 Debye
        Dipole field          0.0000 Ry au,

        Potential amp.       -0.0008 Ry
        Total length         46.4102 bohr

     Starting wfcs are  180 randomized atomic wfcs

     Self-consistent Calculation

     iteration #  1     ecut=    55.12 Ry     beta= 0.10
     Davidson diagonalization with overlap
     ethr =  1.00E-02,  avg # of iterations =  2.1

[...]

     total energy              =   -4595.48008800 Ry
     estimated scf accuracy    <       7.70705973 Ry

[...]

     iteration #  7     ecut=    55.12 Ry     beta= 0.10
     Davidson diagonalization with overlap
     c_bands:  1 eigenvalues not converged
     ethr =  2.53E-05,  avg # of iterations =  7.0

[...]

     iteration # 10     ecut=    55.12 Ry     beta= 0.10
     Davidson diagonalization with overlap
     c_bands:  1 eigenvalues not converged
     c_bands:  1 eigenvalues not converged
     c_bands:  1 eigenvalues not converged
     ethr =  1.37E-06,  avg # of iterations = 11.1

[...]

     total energy              =   -4596.19186542 Ry
     estimated scf accuracy    <       0.00001320 Ry

     iteration # 15     ecut=    55.12 Ry     beta= 0.10
     Davidson diagonalization with overlap
     ethr =  5.79E-09,  avg # of iterations =  5.0

[...]

     Adding external electric field

     Computed dipole along edir(3) :
        Dipole                0.1518 Ry au,          0.3858 Debye
        Dipole field          0.0003 Ry au,

        Potential amp.       -0.0293 Ry
        Total length         46.4102 bohr

     End of self-consistent calculation

          k = 0.0000 0.0000 0.0000 ( 41799 PWs)   bands (ev):

   -66.4432 -66.4205 -66.2115 -66.1883 -66.1119 -66.0889 -40.8892 -40.7756
   -40.7389 -40.6245 -40.1552 -40.0018 -32.8398 -32.8259 -32.7759 -32.7104
   -32.6972 -32.6741 -32.6495 -32.6256 -32.6134 -32.4928 -32.4441 -32.4016
   -32.3732 -32.3243 -32.2595 -32.1752 -32.1371 -32.0967 -21.4999 -21.4151
   -21.0142 -20.8767 -20.8389 -20.8349 -20.7524 -20.7150 -20.6160 -20.5948
   -20.4553 -20.2703 -20.1795 -20.0791 -20.0306 -19.9304 -19.8670 -19.5843
   -18.1622 -18.1605 -18.1580 -18.1558 -18.1554 -18.1504 -18.1439 -18.1411
   -18.1397 -18.1274 -18.1127 -18.1111 -18.0937 -18.0891 -17.9125 -17.9113
   -17.9016 -17.9001 -17.8951 -17.8951 -17.8911 -17.8893 -17.8881 -17.8873
   -17.8853 -17.8843 -17.8710 -17.8673 -17.8132 -17.8113 -17.8084 -17.8036
   -17.8004 -17.7957 -17.7939 -17.7932 -17.7912 -17.7796 -17.7650 -17.7641
   -17.7617 -17.7598  -3.7446  -2.4693  -1.5352  -1.0791  -0.6737  -0.5805
    -0.5254  -0.4105  -0.2566  -0.1300  -0.0175   0.1724   0.2518   0.3665
     0.4159   0.9573   1.2399   1.3295   1.6532   1.6717   1.8607   1.9786
     2.3247   2.4218   2.5615   2.6935   2.7042   2.7685   2.9051   3.0121
     3.1278   3.2613   3.4116   3.5597   3.7004   3.8291   3.8505   3.9164
     3.9753   4.2679   4.3048   4.3661   4.4581   4.4678   4.4835   4.6640
     4.7189

[...]

          k = 0.0689 0.0212 0.0000 ( 41790 PWs)   bands (ev):

[...]

          k =-0.0827-0.0425 0.0000 ( 41816 PWs)   bands (ev):

[...]

          k =-0.0827-0.1274 0.0000 ( 41816 PWs)   bands (ev):

   -66.4318 -66.4318 -66.1999 -66.1999 -66.1004 -66.1004 -40.8150 -40.8150
   -40.7011 -40.7011 -40.0795 -40.0795 -32.8004 -32.8004 -32.6734 -32.6734
   -32.6492 -32.6491 -32.6239 -32.6239 -32.4883 -32.4883 -32.4676 -32.4676
   -32.3978 -32.3978 -32.3484 -32.3484 -32.1169 -32.1169 -20.9312 -20.9312
   -20.9141 -20.9141 -20.8271 -20.8271 -20.7959 -20.7959 -20.6796 -20.6796
   -20.5415 -20.5415 -20.2399 -20.2399 -20.0039 -20.0039 -19.9550 -19.9550
   -18.1597 -18.1597 -18.1558 -18.1558 -18.1551 -18.1551 -18.1421 -18.1421
   -18.1349 -18.1349 -18.1026 -18.1026 -18.1023 -18.1023 -17.9060 -17.9060
   -17.9029 -17.9029 -17.8977 -17.8977 -17.8884 -17.8884 -17.8860 -17.8860
   -17.8803 -17.8803 -17.8798 -17.8798 -17.8035 -17.8035 -17.8031 -17.8031
   -17.8006 -17.8006 -17.7999 -17.7999 -17.7896 -17.7896 -17.7647 -17.7647
   -17.7611 -17.7611  -2.1367  -2.1367  -1.0162  -1.0162  -0.2299  -0.2299
     0.2655   0.2655   0.3489   0.3489   0.7962   0.7962   1.1088   1.1088
     1.2528   1.2528   1.3625   1.3625   1.5325   1.5325   1.6975   1.6975
     1.8533   1.8533   2.0270   2.0270   2.1602   2.1602   2.5217   2.5217
     2.6632   2.6632   2.8638   2.8638   2.9541   2.9541   3.3320   3.3320
     3.8687   3.8687   4.1648   4.1648   4.4078   4.4079   4.6019   4.6019
     4.7371

     the Fermi energy is     2.0304 ev

!    total energy              =   -4596.19187378 Ry
     estimated scf accuracy    <       0.00000689 Ry
     smearing contrib. (-TS)   =      -0.08510653 Ry
     internal energy E=F+TS    =   -4596.10676724 Ry

     The total energy is F=E-TS. E is the sum of the following terms:
     one-electron contribution =  -24279.82322688 Ry
     hartree contribution      =   12237.10749739 Ry
     xc contribution           =    -524.89040056 Ry
     ewald contribution        =    7971.49931496 Ry
     electric field correction =       0.00004784 Ry

     convergence has been achieved in  15 iterations

     negative rho (up, down):  2.655E-04 0.000E+00

     Forces acting on atoms (cartesian axes, Ry/au):

     atom    1 type  1   force =     0.00000004   -0.01886422   -0.02265055
     atom    2 type  1   force =     0.00000056   -0.01886414   -0.02265102
     atom    3 type  2   force =     0.00000692    0.02085794    0.05086214
     atom    4 type  2   force =     0.00000601    0.02086330    0.05086054
     atom    5 type  1   force =    -0.00000583    0.01157933   -0.00476751
     atom    6 type  1   force =    -0.00000455    0.01157737   -0.00476793
     atom    7 type  2   force =     0.00000402   -0.01598781   -0.01739593
     atom    8 type  2   force =    -0.00002321   -0.01598453   -0.01739661
     atom    9 type  1   force =    -0.00001912    0.00237504    0.00151163
     atom   10 type  1   force =    -0.00001997    0.00237626    0.00150936
     atom   11 type  2   force =     0.00003065    0.00003824   -0.00755128
     atom   12 type  2   force =     0.00002448    0.00003323   -0.00756284

     Total force =     0.096654     Total SCF correction =     0.022568
     SCF correction compared to forces is large: reduce conv_thr to get better values

     Writing output data file ./Y2Ta2/Y2Ta2_beef.save/

     General routines

     Parallel routines

   This run was terminated on:  19:59:34  27Jun2022

   JOB DONE.