     Program PWSCF v.6.6 starts on 10Jul2022 at  3:12:54

     R & G space division:  proc/nbgrp/npool/nimage =      37
     Fft bands division:     nmany     =       1
     Reading input from Zn2Au2.in
Warning: card &CELL ignored
Warning: card / ignored

     Current dimensions of program PWSCF are:
     Max number of different atomic species (ntypx) = 10
     Max number of k-points (npk) =  40000
     Max angular momentum in pseudopotentials (lmaxx) =  3
     Presently stress not available with electric field and gates

     Message from routine cell_base_init:
     DEPRECATED: use true lattice parameter, not A to a.u. conversion factor
     file Zn.pbe-dnl-rrkjus_psl.1.0.0.UPF: wavefunction(s)  3D renormalized

     IMPORTANT: XC functional enforced from input :
     Exchange-correlation= BEEF-VDW
                           (   1   4  43  14   2   0   0)
     Any further DFT definition will be discarded
     Please, verify this is what you really want

     Subspace diagonalization in iterative solution of the eigenvalue problem:
     a serial algorithm will be used

     bravais-lattice index     =            0
     lattice parameter (alat)  =       1.8897  a.u.
     unit-cell volume          =    4809.3086 (a.u.)^3
     number of atoms/cell      =           12
     number of atomic types    =            2
     number of electrons       =       138.00
     number of Kohn-Sham states=           83
     kinetic-energy cutoff     =      55.1240  Ry
     charge density cutoff     =     551.2396  Ry
     convergence threshold     =      1.0E-05
     mixing beta               =       0.1000
     number of iterations used =           10  plain     mixing
     Exchange-correlation= BEEF-VDW
                           (   1   4  43  14   2   0   0)

     celldm(1)=   1.889726  celldm(2)=   0.000000  celldm(3)=   0.000000
     celldm(4)=   0.000000  celldm(5)=   0.000000  celldm(6)=   0.000000

     crystal axes: (cart. coord. in units of alat)
               a(1) = (   5.568523   0.000000   0.000000 )
               a(2) = (   1.972988   5.207280   0.000000 )
               a(3) = (   0.000000   0.000000  24.577357 )

     reciprocal axes: (cart. coord. in units 2 pi/alat)
               b(1) = (  0.179581 -0.068041  0.000000 )
               b(2) = (  0.000000  0.192039  0.000000 )
               b(3) = (  0.000000  0.000000  0.040688 )

     PseudoPot. # 1 for Zn read from file:
     ../pseudo/Zn.pbe-dnl-rrkjus_psl.1.0.0.UPF
     MD5 check sum: 7f56cabf9682ed8c977c2f7d0c5985c5
     Pseudo is Ultrasoft + core correction, Zval = 12.0
     Generated using "atomic" code by A. Dal Corso v.6.2.2
     Using radial grid of 1201 points,  6 beta functions with:
                l(1) =   0
                l(2) =   0
                l(3) =   1
                l(4) =   1
                l(5) =   2
                l(6) =   2
     Q(r) pseudized with 0 coefficients

     PseudoPot. # 2 for Au read from file:
     ../pseudo/Au.pbe-n-rrkjus_psl.1.0.0.UPF
     MD5 check sum: d7e77ba19504afed2c9b41c931dde4f0
     Pseudo is Ultrasoft + core correction, Zval = 11.0
     Generated using "atomic" code by A. Dal Corso v.6.3
     Using radial grid of 1279 points,  6 beta functions with:
                l(1) =   0
                l(2) =   0
                l(3) =   1
                l(4) =   1
                l(5) =   2
                l(6) =   2
     Q(r) pseudized with 0 coefficients

     atomic species   valence    mass     pseudopotential
        Zn            12.00    65.38000     Zn( 1.00)
        Au            11.00   196.96657     Au( 1.00)

     No symmetry found

   Cartesian axes

     site n.     atom                  positions (alat units)
         1           Zn  tau(   1) = (   0.0000000   0.0000000  10.0000000  )
         2           Zn  tau(   2) = (   3.7707555   2.6036399  10.0000000  )
         3           Au  tau(   3) = (   2.7842614   0.0000000  10.0000000  )
         4           Au  tau(   4) = (   0.9864941   2.6036399  10.0000000  )
         5           Zn  tau(   5) = (   5.5685227   3.8449664  12.2886785  )
         6           Zn  tau(   6) = (   1.7977673   1.2413265  12.2886785  )
         7           Au  tau(   7) = (   2.7842614   3.8449664  12.2886785  )
         8           Au  tau(   8) = (   4.5820287   1.2413265  12.2886785  )
         9           Zn  tau(   9) = (   3.5986690   2.4848464  14.7243931  )
        10           Zn  tau(  10) = (   7.3694293   5.0884075  14.7243863  )
        11           Au  tau(  11) = (   6.3927426   2.4915722  14.6559156  )
        12           Au  tau(  12) = (   4.5949882   5.0952278  14.6559271  )

     number of k points=    74  Fermi-Dirac smearing, width (Ry)=  0.0100
                       cart. coord. in units 2pi/alat
        k(    1) = (   0.0000000   0.0000000   0.0000000), wk =   0.0138889
        k(    2) = (   0.0000000   0.0160032   0.0000000), wk =   0.0277778
        k(    3) = (   0.0000000   0.0320065   0.0000000), wk =   0.0277778
        k(    4) = (   0.0000000   0.0480097   0.0000000), wk =   0.0277778
        k(    5) = (   0.0000000   0.0640129   0.0000000), wk =   0.0277778
        k(    6) = (   0.0000000   0.0800162   0.0000000), wk =   0.0277778
        k(    7) = (   0.0000000  -0.0960194   0.0000000), wk =   0.0138889
        k(    8) = (   0.0149651  -0.0056701   0.0000000), wk =   0.0277778
        k(    9) = (   0.0149651   0.0103331   0.0000000), wk =   0.0277778
        k(   10) = (   0.0149651   0.0263364   0.0000000), wk =   0.0277778
        k(   11) = (   0.0149651   0.0423396   0.0000000), wk =   0.0277778
        k(   12) = (   0.0149651   0.0583428   0.0000000), wk =   0.0277778
        k(   13) = (   0.0149651   0.0743461   0.0000000), wk =   0.0277778
        k(   14) = (   0.0149651  -0.1016895   0.0000000), wk =   0.0277778
        k(   15) = (   0.0149651  -0.0856863   0.0000000), wk =   0.0277778
        k(   16) = (   0.0149651  -0.0696831   0.0000000), wk =   0.0277778
        k(   17) = (   0.0149651  -0.0536798   0.0000000), wk =   0.0277778
        k(   18) = (   0.0149651  -0.0376766   0.0000000), wk =   0.0277778
        k(   19) = (   0.0149651  -0.0216734   0.0000000), wk =   0.0277778
        k(   20) = (   0.0299301  -0.0113402   0.0000000), wk =   0.0277778
        k(   21) = (   0.0299301   0.0046630   0.0000000), wk =   0.0277778
        k(   22) = (   0.0299301   0.0206662   0.0000000), wk =   0.0277778
        k(   23) = (   0.0299301   0.0366695   0.0000000), wk =   0.0277778
        k(   24) = (   0.0299301   0.0526727   0.0000000), wk =   0.0277778
        k(   25) = (   0.0299301   0.0686759   0.0000000), wk =   0.0277778
        k(   26) = (   0.0299301  -0.1073597   0.0000000), wk =   0.0277778
        k(   27) = (   0.0299301  -0.0913564   0.0000000), wk =   0.0277778
        k(   28) = (   0.0299301  -0.0753532   0.0000000), wk =   0.0277778
        k(   29) = (   0.0299301  -0.0593499   0.0000000), wk =   0.0277778
        k(   30) = (   0.0299301  -0.0433467   0.0000000), wk =   0.0277778
        k(   31) = (   0.0299301  -0.0273435   0.0000000), wk =   0.0277778
        k(   32) = (   0.0448952  -0.0170104   0.0000000), wk =   0.0277778
        k(   33) = (   0.0448952  -0.0010071   0.0000000), wk =   0.0277778
        k(   34) = (   0.0448952   0.0149961   0.0000000), wk =   0.0277778
        k(   35) = (   0.0448952   0.0309993   0.0000000), wk =   0.0277778
        k(   36) = (   0.0448952   0.0470026   0.0000000), wk =   0.0277778
        k(   37) = (   0.0448952   0.0630058   0.0000000), wk =   0.0277778
        k(   38) = (   0.0448952  -0.1130298   0.0000000), wk =   0.0277778
        k(   39) = (   0.0448952  -0.0970265   0.0000000), wk =   0.0277778
        k(   40) = (   0.0448952  -0.0810233   0.0000000), wk =   0.0277778
        k(   41) = (   0.0448952  -0.0650201   0.0000000), wk =   0.0277778
        k(   42) = (   0.0448952  -0.0490168   0.0000000), wk =   0.0277778
        k(   43) = (   0.0448952  -0.0330136   0.0000000), wk =   0.0277778
        k(   44) = (   0.0598603  -0.0226805   0.0000000), wk =   0.0277778
        k(   45) = (   0.0598603  -0.0066772   0.0000000), wk =   0.0277778
        k(   46) = (   0.0598603   0.0093260   0.0000000), wk =   0.0277778
        k(   47) = (   0.0598603   0.0253292   0.0000000), wk =   0.0277778
        k(   48) = (   0.0598603   0.0413325   0.0000000), wk =   0.0277778
        k(   49) = (   0.0598603   0.0573357   0.0000000), wk =   0.0277778
        k(   50) = (   0.0598603  -0.1186999   0.0000000), wk =   0.0277778
        k(   51) = (   0.0598603  -0.1026967   0.0000000), wk =   0.0277778
        k(   52) = (   0.0598603  -0.0866934   0.0000000), wk =   0.0277778
        k(   53) = (   0.0598603  -0.0706902   0.0000000), wk =   0.0277778
        k(   54) = (   0.0598603  -0.0546870   0.0000000), wk =   0.0277778
        k(   55) = (   0.0598603  -0.0386837   0.0000000), wk =   0.0277778
        k(   56) = (   0.0748253  -0.0283506   0.0000000), wk =   0.0277778
        k(   57) = (   0.0748253  -0.0123474   0.0000000), wk =   0.0277778
        k(   58) = (   0.0748253   0.0036559   0.0000000), wk =   0.0277778
        k(   59) = (   0.0748253   0.0196591   0.0000000), wk =   0.0277778
        k(   60) = (   0.0748253   0.0356623   0.0000000), wk =   0.0277778
        k(   61) = (   0.0748253   0.0516656   0.0000000), wk =   0.0277778
        k(   62) = (   0.0748253  -0.1243700   0.0000000), wk =   0.0277778
        k(   63) = (   0.0748253  -0.1083668   0.0000000), wk =   0.0277778
        k(   64) = (   0.0748253  -0.0923635   0.0000000), wk =   0.0277778
        k(   65) = (   0.0748253  -0.0763603   0.0000000), wk =   0.0277778
        k(   66) = (   0.0748253  -0.0603571   0.0000000), wk =   0.0277778
        k(   67) = (   0.0748253  -0.0443538   0.0000000), wk =   0.0277778
        k(   68) = (  -0.0897904   0.0340207   0.0000000), wk =   0.0138889
        k(   69) = (  -0.0897904   0.0500240   0.0000000), wk =   0.0277778
        k(   70) = (  -0.0897904   0.0660272   0.0000000), wk =   0.0277778
        k(   71) = (  -0.0897904   0.0820304   0.0000000), wk =   0.0277778
        k(   72) = (  -0.0897904   0.0980337   0.0000000), wk =   0.0277778
        k(   73) = (  -0.0897904   0.1140369   0.0000000), wk =   0.0277778
        k(   74) = (  -0.0897904  -0.0619987   0.0000000), wk =   0.0138889

     Initial potential from superposition of free atoms

     starting charge  137.97699, renormalised to  138.00000

     negative rho (up, down):  8.619E-04 0.000E+00

     %%%%%%%%%%%%%%%%%%%%%%%%%%%%%%%%%%%%%%%%%%%%%%%%%%%%%%%%%%%%%%%%%%%%%%%%
     %                                                                      %
     % You are using vdW-DF, which was implemented by the Thonhauser group. %
     % Please cite the following two papers that made this development      %
     % possible and the two reviews that describe the various versions:     %
     %                                                                      %
     %   T. Thonhauser et al., PRL 115, 136402 (2015).                      %
     %   T. Thonhauser et al., PRB 76, 125112 (2007).                       %
     %   K. Berland et al., Rep. Prog. Phys. 78, 066501 (2015).             %
     %   D.C. Langreth et al., J. Phys.: Condens. Matter 21, 084203 (2009). %
     %                                                                      %
     %                                                                      %
     % If you are calculating the stress with vdW-DF, please also cite:     %
     %                                                                      %
     %   R. Sabatini et al., J. Phys.: Condens. Matter 24, 424209 (2012).   %
     %                                                                      %
     %%%%%%%%%%%%%%%%%%%%%%%%%%%%%%%%%%%%%%%%%%%%%%%%%%%%%%%%%%%%%%%%%%%%%%%%

     Adding external electric field

     Computed dipole along edir(3) :
        Dipole                0.0004 Ry au,          0.0011 Debye
        Dipole field          0.0000 Ry au,

        Potential amp.       -0.0001 Ry
        Total length         45.2834 bohr

     Starting wfcs are  108 randomized atomic wfcs

     Self-consistent Calculation

     iteration #  1     ecut=    55.12 Ry     beta= 0.10
     Davidson diagonalization with overlap
     ethr =  1.00E-02,  avg # of iterations =  3.0

     Threshold (ethr) on eigenvalues was too large:
     Diagonalizing with lowered threshold

     Davidson diagonalization with overlap
     ethr =  3.08E-04,  avg # of iterations =  6.7

[...]

     total energy              =   -1416.88516129 Ry
     estimated scf accuracy    <       0.46690611 Ry

[...]

     iteration #  4     ecut=    55.12 Ry     beta= 0.10
     Davidson diagonalization with overlap
     c_bands:  1 eigenvalues not converged
     c_bands:  2 eigenvalues not converged
     c_bands:  2 eigenvalues not converged
     c_bands:  1 eigenvalues not converged
     c_bands:  1 eigenvalues not converged
     c_bands:  1 eigenvalues not converged
     c_bands:  2 eigenvalues not converged
     c_bands:  1 eigenvalues not converged
     c_bands:  1 eigenvalues not converged
     c_bands:  2 eigenvalues not converged
     c_bands:  2 eigenvalues not converged
     c_bands:  1 eigenvalues not converged
     c_bands:  1 eigenvalues not converged
     c_bands:  1 eigenvalues not converged
     c_bands:  1 eigenvalues not converged
     c_bands:  1 eigenvalues not converged
     c_bands:  1 eigenvalues not converged
     c_bands:  1 eigenvalues not converged
     c_bands:  1 eigenvalues not converged
     c_bands:  1 eigenvalues not converged
     c_bands:  1 eigenvalues not converged
     c_bands:  1 eigenvalues not converged
     c_bands:  1 eigenvalues not converged
     c_bands:  1 eigenvalues not converged
     c_bands:  1 eigenvalues not converged
     ethr =  1.70E-05,  avg # of iterations = 13.4

[...]

     iteration #  8     ecut=    55.12 Ry     beta= 0.10
     Davidson diagonalization with overlap
     c_bands:  1 eigenvalues not converged
     ethr =  5.09E-07,  avg # of iterations =  3.0

[...]

     total energy              =   -1416.85345084 Ry
     estimated scf accuracy    <       0.00002839 Ry

     iteration # 11     ecut=    55.12 Ry     beta= 0.10
     Davidson diagonalization with overlap
     ethr =  2.06E-08,  avg # of iterations =  2.7

[...]

     Adding external electric field

     Computed dipole along edir(3) :
        Dipole                0.0101 Ry au,          0.0256 Debye
        Dipole field          0.0000 Ry au,

        Potential amp.       -0.0024 Ry
        Total length         45.2834 bohr

     End of self-consistent calculation

          k = 0.0000 0.0000 0.0000 ( 33303 PWs)   bands (ev):

    -8.8696  -7.7985  -7.7432  -7.7248  -7.6902  -7.5895  -7.5868  -7.5853
    -7.5573  -7.4501  -7.4468  -7.4451  -7.4349  -7.3725  -7.3531  -7.3181
    -7.3092  -7.2859  -7.2192  -7.1830  -7.1803  -7.1584  -7.1320  -7.0995
    -7.0958  -7.0633  -7.0102  -7.0010  -6.9690  -6.9653  -6.8885  -6.6043
    -5.8486  -5.8304  -5.6377  -5.2098  -5.0119  -4.6855  -4.6411  -4.5703
    -4.4912  -4.3565  -4.3543  -4.1521  -4.0657  -3.9754  -3.9396  -3.8155
    -3.7991  -3.7745  -3.7058  -3.6585  -3.5773  -3.4425  -3.3664  -3.2808
    -3.2770  -3.2119  -3.2027  -3.1609  -3.1161  -2.7876  -2.3652  -1.0456
    -1.0266  -0.9170  -0.4862  -0.4140  -0.3283  -0.2564  -0.1685   1.0941
     1.5839   1.7454   1.9643   2.3237   2.5940   2.6127   3.2944   3.4907
     3.6387   3.8541   4.2056

[...]

          k = 0.0748-0.0444 0.0000 ( 33250 PWs)   bands (ev):

[...]

          k =-0.0898 0.0340 0.0000 ( 33236 PWs)   bands (ev):

[...]

          k =-0.0898-0.0620 0.0000 ( 33086 PWs)   bands (ev):

    -7.6277  -7.5892  -7.5143  -7.5006  -7.4773  -7.4621  -7.4079  -7.4000
    -7.3466  -7.3335  -7.3311  -7.3255  -7.2848  -7.2473  -7.2281  -7.2107
    -7.1738  -7.1415  -7.1347  -7.1277  -7.0822  -7.0744  -7.0666  -7.0530
    -7.0168  -6.9736  -6.9615  -6.9600  -6.9556  -6.8912  -6.7715  -6.4995
    -5.8671  -5.7308  -5.5797  -5.3786  -5.1916  -5.1148  -5.0980  -4.8181
    -4.7563  -4.7038  -4.7026  -4.6667  -4.5832  -4.5815  -4.4943  -4.2117
    -4.0911  -4.0517  -3.9989  -3.9903  -3.9523  -3.7360  -3.7069  -3.6024
    -3.4858  -3.4040  -3.2591  -3.2548  -3.1889  -3.1878  -3.0847  -2.8209
    -2.5454  -1.6444  -1.4568  -1.0391  -0.8261  -0.7066   0.6110   1.2104
     2.3793   2.4138   3.5887   4.5021   4.6548   4.8783   5.1002   5.1146
     5.1486   5.9360   5.9674

     the Fermi energy is     0.1259 ev

!    total energy              =   -1416.85345582 Ry
     estimated scf accuracy    <       0.00000416 Ry
     smearing contrib. (-TS)   =      -0.01846391 Ry
     internal energy E=F+TS    =   -1416.83499190 Ry

     The total energy is F=E-TS. E is the sum of the following terms:
     one-electron contribution =   -9715.91927405 Ry
     hartree contribution      =    4972.35868596 Ry
     xc contribution           =    -490.12061416 Ry
     ewald contribution        =    3816.84621008 Ry
     electric field correction =       0.00000027 Ry

     convergence has been achieved in  11 iterations

     negative rho (up, down):  8.473E-04 0.000E+00

     Forces acting on atoms (cartesian axes, Ry/au):

     atom    1 type  1   force =     0.00069357    0.00048417   -0.01018887
     atom    2 type  1   force =     0.00069682    0.00047302   -0.01019005
     atom    3 type  2   force =    -0.00143583   -0.00099642   -0.00569075
     atom    4 type  2   force =    -0.00144581   -0.00098595   -0.00569519
     atom    5 type  1   force =    -0.00021950   -0.00014878    0.00621005
     atom    6 type  1   force =    -0.00022589   -0.00015369    0.00621404
     atom    7 type  2   force =     0.00050954    0.00035331    0.00910526
     atom    8 type  2   force =     0.00052201    0.00035682    0.00911141
     atom    9 type  1   force =     0.00076496    0.00051367    0.00129800
     atom   10 type  1   force =     0.00076964    0.00053372    0.00129081
     atom   11 type  2   force =    -0.00031527   -0.00021474   -0.00072879
     atom   12 type  2   force =    -0.00031424   -0.00021514   -0.00073593

     Total force =     0.023032     Total SCF correction =     0.006463
     SCF correction compared to forces is large: reduce conv_thr to get better values

     Writing output data file ./Zn2Au2/Zn2Au2_beef.save/

     General routines

     Parallel routines

   This run was terminated on:   3:49:31  10Jul2022

   JOB DONE.