     Program PWSCF v.6.6 starts on 10Jul2022 at  3:22:47

     R & G space division:  proc/nbgrp/npool/nimage =      37
     Fft bands division:     nmany     =       1
     Reading input from Zn2Ag2.in
Warning: card &CELL ignored
Warning: card / ignored

     Current dimensions of program PWSCF are:
     Max number of different atomic species (ntypx) = 10
     Max number of k-points (npk) =  40000
     Max angular momentum in pseudopotentials (lmaxx) =  3
     Presently stress not available with electric field and gates

     Message from routine cell_base_init:
     DEPRECATED: use true lattice parameter, not A to a.u. conversion factor
     file Zn.pbe-dnl-rrkjus_psl.1.0.0.UPF: wavefunction(s)  3D renormalized

     IMPORTANT: XC functional enforced from input :
     Exchange-correlation= BEEF-VDW
                           (   1   4  43  14   2   0   0)
     Any further DFT definition will be discarded
     Please, verify this is what you really want

     Subspace diagonalization in iterative solution of the eigenvalue problem:
     a serial algorithm will be used

     Found symmetry operation: I + ( -0.5000  0.5000  0.0000)
     This is a supercell, fractional translations are disabled

     bravais-lattice index     =            0
     lattice parameter (alat)  =       1.8897  a.u.
     unit-cell volume          =    4829.1857 (a.u.)^3
     number of atoms/cell      =           12
     number of atomic types    =            2
     number of electrons       =       138.00
     number of Kohn-Sham states=           83
     kinetic-energy cutoff     =      55.1240  Ry
     charge density cutoff     =     551.2396  Ry
     convergence threshold     =      1.0E-05
     mixing beta               =       0.1000
     number of iterations used =           10  plain     mixing
     Exchange-correlation= BEEF-VDW
                           (   1   4  43  14   2   0   0)

     celldm(1)=   1.889726  celldm(2)=   0.000000  celldm(3)=   0.000000
     celldm(4)=   0.000000  celldm(5)=   0.000000  celldm(6)=   0.000000

     crystal axes: (cart. coord. in units of alat)
               a(1) = (   5.583832   0.000000   0.000000 )
               a(2) = (   2.007434   5.210508   0.000000 )
               a(3) = (   0.000000   0.000000  24.596028 )

     reciprocal axes: (cart. coord. in units 2 pi/alat)
               b(1) = (  0.179088 -0.068997  0.000000 )
               b(2) = (  0.000000  0.191920  0.000000 )
               b(3) = (  0.000000  0.000000  0.040657 )

     PseudoPot. # 1 for Zn read from file:
     ../pseudo/Zn.pbe-dnl-rrkjus_psl.1.0.0.UPF
     MD5 check sum: 7f56cabf9682ed8c977c2f7d0c5985c5
     Pseudo is Ultrasoft + core correction, Zval = 12.0
     Generated using "atomic" code by A. Dal Corso v.6.2.2
     Using radial grid of 1201 points,  6 beta functions with:
                l(1) =   0
                l(2) =   0
                l(3) =   1
                l(4) =   1
                l(5) =   2
                l(6) =   2
     Q(r) pseudized with 0 coefficients

     PseudoPot. # 2 for Ag read from file:
     ../pseudo/Ag.pbe-n-rrkjus_psl.1.0.0.UPF
     MD5 check sum: d841cbfac2b0861aec33b46768a516bf
     Pseudo is Ultrasoft + core correction, Zval = 11.0
     Generated using "atomic" code by A. Dal Corso v.6.2.2
     Using radial grid of 1237 points,  6 beta functions with:
                l(1) =   0
                l(2) =   0
                l(3) =   1
                l(4) =   1
                l(5) =   2
                l(6) =   2
     Q(r) pseudized with 0 coefficients

     atomic species   valence    mass     pseudopotential
        Zn            12.00    65.38000     Zn( 1.00)
        Ag            11.00   107.86820     Ag( 1.00)

     No symmetry found

   Cartesian axes

     site n.     atom                  positions (alat units)
         1           Zn  tau(   1) = (   0.0000000   0.0000000  10.0000000  )
         2           Zn  tau(   2) = (   3.7956330   2.6052538  10.0000000  )
         3           Ag  tau(   3) = (   2.7919161   0.0000000  10.0000000  )
         4           Ag  tau(   4) = (   1.0037169   2.6052538  10.0000000  )
         5           Zn  tau(   5) = (   5.5838321   3.8326414  12.2980138  )
         6           Zn  tau(   6) = (   1.7881991   1.2273875  12.2980138  )
         7           Ag  tau(   7) = (   2.7919161   3.8326414  12.2980138  )
         8           Ag  tau(   8) = (   4.5801152   1.2273875  12.2980138  )
         9           Zn  tau(   9) = (   3.5760007   2.4544903  14.7845929  )
        10           Zn  tau(  10) = (   7.3716474   5.0597748  14.7845915  )
        11           Ag  tau(  11) = (   6.3736427   2.4584310  14.6901113  )
        12           Ag  tau(  12) = (   4.5854402   5.0636847  14.6901103  )

     number of k points=    74  Fermi-Dirac smearing, width (Ry)=  0.0100
                       cart. coord. in units 2pi/alat
        k(    1) = (   0.0000000   0.0000000   0.0000000), wk =   0.0138889
        k(    2) = (   0.0000000   0.0159933   0.0000000), wk =   0.0277778
        k(    3) = (   0.0000000   0.0319866   0.0000000), wk =   0.0277778
        k(    4) = (   0.0000000   0.0479800   0.0000000), wk =   0.0277778
        k(    5) = (   0.0000000   0.0639733   0.0000000), wk =   0.0277778
        k(    6) = (   0.0000000   0.0799666   0.0000000), wk =   0.0277778
        k(    7) = (   0.0000000  -0.0959599   0.0000000), wk =   0.0138889
        k(    8) = (   0.0149240  -0.0057497   0.0000000), wk =   0.0277778
        k(    9) = (   0.0149240   0.0102436   0.0000000), wk =   0.0277778
        k(   10) = (   0.0149240   0.0262369   0.0000000), wk =   0.0277778
        k(   11) = (   0.0149240   0.0422302   0.0000000), wk =   0.0277778
        k(   12) = (   0.0149240   0.0582236   0.0000000), wk =   0.0277778
        k(   13) = (   0.0149240   0.0742169   0.0000000), wk =   0.0277778
        k(   14) = (   0.0149240  -0.1017097   0.0000000), wk =   0.0277778
        k(   15) = (   0.0149240  -0.0857163   0.0000000), wk =   0.0277778
        k(   16) = (   0.0149240  -0.0697230   0.0000000), wk =   0.0277778
        k(   17) = (   0.0149240  -0.0537297   0.0000000), wk =   0.0277778
        k(   18) = (   0.0149240  -0.0377364   0.0000000), wk =   0.0277778
        k(   19) = (   0.0149240  -0.0217431   0.0000000), wk =   0.0277778
        k(   20) = (   0.0298481  -0.0114995   0.0000000), wk =   0.0277778
        k(   21) = (   0.0298481   0.0044939   0.0000000), wk =   0.0277778
        k(   22) = (   0.0298481   0.0204872   0.0000000), wk =   0.0277778
        k(   23) = (   0.0298481   0.0364805   0.0000000), wk =   0.0277778
        k(   24) = (   0.0298481   0.0524738   0.0000000), wk =   0.0277778
        k(   25) = (   0.0298481   0.0684671   0.0000000), wk =   0.0277778
        k(   26) = (   0.0298481  -0.1074594   0.0000000), wk =   0.0277778
        k(   27) = (   0.0298481  -0.0914661   0.0000000), wk =   0.0277778
        k(   28) = (   0.0298481  -0.0754728   0.0000000), wk =   0.0277778
        k(   29) = (   0.0298481  -0.0594794   0.0000000), wk =   0.0277778
        k(   30) = (   0.0298481  -0.0434861   0.0000000), wk =   0.0277778
        k(   31) = (   0.0298481  -0.0274928   0.0000000), wk =   0.0277778
        k(   32) = (   0.0447721  -0.0172492   0.0000000), wk =   0.0277778
        k(   33) = (   0.0447721  -0.0012559   0.0000000), wk =   0.0277778
        k(   34) = (   0.0447721   0.0147374   0.0000000), wk =   0.0277778
        k(   35) = (   0.0447721   0.0307308   0.0000000), wk =   0.0277778
        k(   36) = (   0.0447721   0.0467241   0.0000000), wk =   0.0277778
        k(   37) = (   0.0447721   0.0627174   0.0000000), wk =   0.0277778
        k(   38) = (   0.0447721  -0.1132091   0.0000000), wk =   0.0277778
        k(   39) = (   0.0447721  -0.0972158   0.0000000), wk =   0.0277778
        k(   40) = (   0.0447721  -0.0812225   0.0000000), wk =   0.0277778
        k(   41) = (   0.0447721  -0.0652292   0.0000000), wk =   0.0277778
        k(   42) = (   0.0447721  -0.0492358   0.0000000), wk =   0.0277778
        k(   43) = (   0.0447721  -0.0332425   0.0000000), wk =   0.0277778
        k(   44) = (   0.0596962  -0.0229989   0.0000000), wk =   0.0277778
        k(   45) = (   0.0596962  -0.0070056   0.0000000), wk =   0.0277778
        k(   46) = (   0.0596962   0.0089877   0.0000000), wk =   0.0277778
        k(   47) = (   0.0596962   0.0249810   0.0000000), wk =   0.0277778
        k(   48) = (   0.0596962   0.0409744   0.0000000), wk =   0.0277778
        k(   49) = (   0.0596962   0.0569677   0.0000000), wk =   0.0277778
        k(   50) = (   0.0596962  -0.1189589   0.0000000), wk =   0.0277778
        k(   51) = (   0.0596962  -0.1029655   0.0000000), wk =   0.0277778
        k(   52) = (   0.0596962  -0.0869722   0.0000000), wk =   0.0277778
        k(   53) = (   0.0596962  -0.0709789   0.0000000), wk =   0.0277778
        k(   54) = (   0.0596962  -0.0549856   0.0000000), wk =   0.0277778
        k(   55) = (   0.0596962  -0.0389923   0.0000000), wk =   0.0277778
        k(   56) = (   0.0746202  -0.0287487   0.0000000), wk =   0.0277778
        k(   57) = (   0.0746202  -0.0127553   0.0000000), wk =   0.0277778
        k(   58) = (   0.0746202   0.0032380   0.0000000), wk =   0.0277778
        k(   59) = (   0.0746202   0.0192313   0.0000000), wk =   0.0277778
        k(   60) = (   0.0746202   0.0352246   0.0000000), wk =   0.0277778
        k(   61) = (   0.0746202   0.0512179   0.0000000), wk =   0.0277778
        k(   62) = (   0.0746202  -0.1247086   0.0000000), wk =   0.0277778
        k(   63) = (   0.0746202  -0.1087153   0.0000000), wk =   0.0277778
        k(   64) = (   0.0746202  -0.0927219   0.0000000), wk =   0.0277778
        k(   65) = (   0.0746202  -0.0767286   0.0000000), wk =   0.0277778
        k(   66) = (   0.0746202  -0.0607353   0.0000000), wk =   0.0277778
        k(   67) = (   0.0746202  -0.0447420   0.0000000), wk =   0.0277778
        k(   68) = (  -0.0895442   0.0344984   0.0000000), wk =   0.0138889
        k(   69) = (  -0.0895442   0.0504917   0.0000000), wk =   0.0277778
        k(   70) = (  -0.0895442   0.0664850   0.0000000), wk =   0.0277778
        k(   71) = (  -0.0895442   0.0824784   0.0000000), wk =   0.0277778
        k(   72) = (  -0.0895442   0.0984717   0.0000000), wk =   0.0277778
        k(   73) = (  -0.0895442   0.1144650   0.0000000), wk =   0.0277778
        k(   74) = (  -0.0895442  -0.0614615   0.0000000), wk =   0.0138889

     Initial potential from superposition of free atoms

     starting charge  137.97526, renormalised to  138.00000

     negative rho (up, down):  1.673E-04 0.000E+00

     %%%%%%%%%%%%%%%%%%%%%%%%%%%%%%%%%%%%%%%%%%%%%%%%%%%%%%%%%%%%%%%%%%%%%%%%
     %                                                                      %
     % You are using vdW-DF, which was implemented by the Thonhauser group. %
     % Please cite the following two papers that made this development      %
     % possible and the two reviews that describe the various versions:     %
     %                                                                      %
     %   T. Thonhauser et al., PRL 115, 136402 (2015).                      %
     %   T. Thonhauser et al., PRB 76, 125112 (2007).                       %
     %   K. Berland et al., Rep. Prog. Phys. 78, 066501 (2015).             %
     %   D.C. Langreth et al., J. Phys.: Condens. Matter 21, 084203 (2009). %
     %                                                                      %
     %                                                                      %
     % If you are calculating the stress with vdW-DF, please also cite:     %
     %                                                                      %
     %   R. Sabatini et al., J. Phys.: Condens. Matter 24, 424209 (2012).   %
     %                                                                      %
     %%%%%%%%%%%%%%%%%%%%%%%%%%%%%%%%%%%%%%%%%%%%%%%%%%%%%%%%%%%%%%%%%%%%%%%%

     Adding external electric field

     Computed dipole along edir(3) :
        Dipole                0.0006 Ry au,          0.0014 Debye
        Dipole field          0.0000 Ry au,

        Potential amp.       -0.0001 Ry
        Total length         45.3178 bohr

     Starting wfcs are  108 randomized atomic wfcs

     Self-consistent Calculation

     iteration #  1     ecut=    55.12 Ry     beta= 0.10
     Davidson diagonalization with overlap
     ethr =  1.00E-02,  avg # of iterations =  3.9

     Threshold (ethr) on eigenvalues was too large:
     Diagonalizing with lowered threshold

     Davidson diagonalization with overlap
     ethr =  2.19E-04,  avg # of iterations =  7.6

[...]

     total energy              =   -1408.12326173 Ry
     estimated scf accuracy    <       0.28254280 Ry

[...]

     iteration #  3     ecut=    55.12 Ry     beta= 0.10
     Davidson diagonalization with overlap
     c_bands:  1 eigenvalues not converged
     ethr =  8.30E-05,  avg # of iterations =  6.1

[...]

     iteration #  7     ecut=    55.12 Ry     beta= 0.10
     Davidson diagonalization with overlap
     c_bands:  1 eigenvalues not converged
     c_bands:  1 eigenvalues not converged
     ethr =  1.63E-06,  avg # of iterations =  3.1

[...]

     total energy              =   -1408.10755762 Ry
     estimated scf accuracy    <       0.00002784 Ry

     iteration # 11     ecut=    55.12 Ry     beta= 0.10
     Davidson diagonalization with overlap
     ethr =  2.02E-08,  avg # of iterations =  4.6

[...]

     Adding external electric field

     Computed dipole along edir(3) :
        Dipole                0.0079 Ry au,          0.0201 Debye
        Dipole field          0.0000 Ry au,

        Potential amp.       -0.0019 Ry
        Total length         45.3178 bohr

     End of self-consistent calculation

          k = 0.0000 0.0000 0.0000 ( 33407 PWs)   bands (ev):

    -8.2397  -7.8857  -7.8684  -7.8128  -7.8034  -7.7599  -7.7350  -7.7150
    -7.6564  -7.6246  -7.6208  -7.6144  -7.5790  -7.5488  -7.5421  -7.5182
    -7.4992  -7.4958  -7.4218  -7.4036  -7.3891  -7.3837  -7.3687  -7.3334
    -7.3177  -7.2963  -7.2468  -7.2434  -7.2037  -7.1982  -7.1240  -6.4517
    -6.0433  -6.0287  -5.8786  -5.5063  -5.4330  -5.1895  -5.1385  -5.0518
    -4.9929  -4.9509  -4.8942  -4.7623  -4.6816  -4.6762  -4.6453  -4.5967
    -4.5843  -4.5096  -4.5004  -4.4591  -4.4174  -4.3259  -4.3002  -4.2209
    -4.2096  -4.1631  -4.1510  -4.1478  -4.1199  -3.8942  -2.6025  -1.4632
    -1.2435  -1.0283  -0.8514  -0.5856  -0.5540  -0.4629  -0.3070   0.6865
     1.2790   1.7469   1.7600   2.1737   2.5365   2.9336   3.0405   3.3463
     3.5481   3.7963   3.8089

[...]

          k = 0.0746-0.0447 0.0000 ( 33392 PWs)   bands (ev):

[...]

          k =-0.0895 0.0345 0.0000 ( 33358 PWs)   bands (ev):

[...]

          k =-0.0895-0.0615 0.0000 ( 33258 PWs)   bands (ev):

    -7.7868  -7.7524  -7.6942  -7.6565  -7.6543  -7.6367  -7.6048  -7.5606
    -7.5245  -7.5232  -7.5166  -7.4852  -7.4586  -7.4527  -7.4515  -7.4315
    -7.3975  -7.3781  -7.3658  -7.3389  -7.3203  -7.3055  -7.3022  -7.2920
    -7.2649  -7.2156  -7.2061  -7.1974  -7.1921  -7.1274  -6.4567  -6.2778
    -5.8281  -5.6978  -5.5981  -5.5897  -5.5187  -5.4375  -5.3677  -5.3030
    -5.2006  -5.1966  -5.1944  -5.1664  -5.0793  -4.9417  -4.8666  -4.8172
    -4.8030  -4.7341  -4.6995  -4.6357  -4.6093  -4.5215  -4.4452  -4.4426
    -4.4084  -4.3371  -4.2417  -4.1691  -4.1496  -4.1322  -3.9346  -3.6250
    -2.7703  -2.0965  -1.9307  -1.0226  -0.9640  -0.8788   0.1564   1.4420
     1.7944   1.9876   3.4898   3.9335   4.3226   4.3767   4.6792   4.9587
     4.9725   5.5377   5.5789

     the Fermi energy is    -0.1042 ev

!    total energy              =   -1408.10756087 Ry
     estimated scf accuracy    <       0.00000653 Ry
     smearing contrib. (-TS)   =      -0.01980469 Ry
     internal energy E=F+TS    =   -1408.08775618 Ry

     The total energy is F=E-TS. E is the sum of the following terms:
     one-electron contribution =   -9738.78580067 Ry
     hartree contribution      =    4984.98353598 Ry
     xc contribution           =    -429.74112225 Ry
     ewald contribution        =    3775.45563060 Ry
     electric field correction =       0.00000016 Ry

     convergence has been achieved in  11 iterations

     negative rho (up, down):  1.349E-04 0.000E+00

     Forces acting on atoms (cartesian axes, Ry/au):

     atom    1 type  1   force =     0.00054683    0.00036941   -0.01127345
     atom    2 type  1   force =     0.00054358    0.00037172   -0.01127447
     atom    3 type  2   force =    -0.00055858   -0.00038644   -0.00535623
     atom    4 type  2   force =    -0.00056190   -0.00038281   -0.00535644
     atom    5 type  1   force =    -0.00011695   -0.00007421    0.00623597
     atom    6 type  1   force =    -0.00010566   -0.00007910    0.00623414
     atom    7 type  2   force =     0.00007069    0.00004558    0.00963374
     atom    8 type  2   force =     0.00006691    0.00004818    0.00963431
     atom    9 type  1   force =     0.00043733    0.00030637    0.00226233
     atom   10 type  1   force =     0.00044431    0.00030558    0.00226325
     atom   11 type  2   force =    -0.00038289   -0.00026254   -0.00150087
     atom   12 type  2   force =    -0.00038366   -0.00026174   -0.00150230

     Total force =     0.024343     Total SCF correction =     0.016012
     SCF correction compared to forces is large: reduce conv_thr to get better values

     Writing output data file ./Zn2Ag2/Zn2Ag2_beef.save/

     General routines

     Parallel routines

   This run was terminated on:   4: 6:58  10Jul2022

   JOB DONE.