     Program PWSCF v.6.6 starts on 10Jul2022 at  1: 0:35

     R & G space division:  proc/nbgrp/npool/nimage =      37
     Fft bands division:     nmany     =       1
     Reading input from Zn2Hg2.in
Warning: card &CELL ignored
Warning: card / ignored

     Current dimensions of program PWSCF are:
     Max number of different atomic species (ntypx) = 10
     Max number of k-points (npk) =  40000
     Max angular momentum in pseudopotentials (lmaxx) =  3
     Presently stress not available with electric field and gates

     Message from routine cell_base_init:
     DEPRECATED: use true lattice parameter, not A to a.u. conversion factor
     file Zn.pbe-dnl-rrkjus_psl.1.0.0.UPF: wavefunction(s)  3D renormalized
     file Hg.pbe-n-rrkjus_psl.1.0.0.UPF: wavefunction(s)  6S renormalized

     IMPORTANT: XC functional enforced from input :
     Exchange-correlation= BEEF-VDW
                           (   1   4  43  14   2   0   0)
     Any further DFT definition will be discarded
     Please, verify this is what you really want

     Subspace diagonalization in iterative solution of the eigenvalue problem:
     a serial algorithm will be used

     bravais-lattice index     =            0
     lattice parameter (alat)  =       1.8897  a.u.
     unit-cell volume          =    6257.6163 (a.u.)^3
     number of atoms/cell      =           12
     number of atomic types    =            2
     number of electrons       =       144.00
     number of Kohn-Sham states=           86
     kinetic-energy cutoff     =      55.1240  Ry
     charge density cutoff     =     551.2396  Ry
     convergence threshold     =      1.0E-05
     mixing beta               =       0.1000
     number of iterations used =           10  plain     mixing
     Exchange-correlation= BEEF-VDW
                           (   1   4  43  14   2   0   0)

     celldm(1)=   1.889726  celldm(2)=   0.000000  celldm(3)=   0.000000
     celldm(4)=   0.000000  celldm(5)=   0.000000  celldm(6)=   0.000000

     crystal axes: (cart. coord. in units of alat)
               a(1) = (   6.294938   0.000000   0.000000 )
               a(2) = (   2.332247   5.846954   0.000000 )
               a(3) = (   0.000000   0.000000  25.193661 )

     reciprocal axes: (cart. coord. in units 2 pi/alat)
               b(1) = (  0.158858 -0.063366  0.000000 )
               b(2) = (  0.000000  0.171029  0.000000 )
               b(3) = (  0.000000  0.000000  0.039693 )

     PseudoPot. # 1 for Zn read from file:
     ../pseudo/Zn.pbe-dnl-rrkjus_psl.1.0.0.UPF
     MD5 check sum: 7f56cabf9682ed8c977c2f7d0c5985c5
     Pseudo is Ultrasoft + core correction, Zval = 12.0
     Generated using "atomic" code by A. Dal Corso v.6.2.2
     Using radial grid of 1201 points,  6 beta functions with:
                l(1) =   0
                l(2) =   0
                l(3) =   1
                l(4) =   1
                l(5) =   2
                l(6) =   2
     Q(r) pseudized with 0 coefficients

     PseudoPot. # 2 for Hg read from file:
     ../pseudo/Hg.pbe-n-rrkjus_psl.1.0.0.UPF
     MD5 check sum: 7519ac2e5b9cac440d3cfd4127d6ea3c
     Pseudo is Ultrasoft + core correction, Zval = 12.0
     Generated using "atomic" code by A. Dal Corso v.6.3
     Using radial grid of 1279 points,  6 beta functions with:
                l(1) =   0
                l(2) =   0
                l(3) =   1
                l(4) =   1
                l(5) =   2
                l(6) =   2
     Q(r) pseudized with 0 coefficients

     atomic species   valence    mass     pseudopotential
        Zn            12.00    65.38000     Zn( 1.00)
        Hg            12.00   200.59200     Hg( 1.00)

     No symmetry found

   Cartesian axes

     site n.     atom                  positions (alat units)
         1           Zn  tau(   1) = (   0.0000000   0.0000000  10.0000000  )
         2           Zn  tau(   2) = (   4.3135929   2.9234771  10.0000000  )
         3           Hg  tau(   3) = (   3.1474692   0.0000000  10.0000000  )
         4           Hg  tau(   4) = (   1.1661236   2.9234771  10.0000000  )
         5           Zn  tau(   5) = (   6.2949385   4.2663064  12.5968304  )
         6           Zn  tau(   6) = (   1.9813456   1.3428292  12.5968304  )
         7           Hg  tau(   7) = (   3.1474692   4.2663064  12.5968304  )
         8           Hg  tau(   8) = (   5.1288149   1.3428292  12.5968304  )
         9           Zn  tau(   9) = (   3.9399930   2.6701767  15.0844176  )
        10           Zn  tau(  10) = (   8.2639457   5.6008401  15.0856040  )
        11           Hg  tau(  11) = (   7.1553619   2.7188828  15.9771293  )
        12           Hg  tau(  12) = (   5.1763795   5.6387788  15.9772312  )

     number of k points=    74  Fermi-Dirac smearing, width (Ry)=  0.0100
                       cart. coord. in units 2pi/alat
        k(    1) = (   0.0000000   0.0000000   0.0000000), wk =   0.0138889
        k(    2) = (   0.0000000   0.0142524   0.0000000), wk =   0.0277778
        k(    3) = (   0.0000000   0.0285049   0.0000000), wk =   0.0277778
        k(    4) = (   0.0000000   0.0427573   0.0000000), wk =   0.0277778
        k(    5) = (   0.0000000   0.0570097   0.0000000), wk =   0.0277778
        k(    6) = (   0.0000000   0.0712622   0.0000000), wk =   0.0277778
        k(    7) = (   0.0000000  -0.0855146   0.0000000), wk =   0.0138889
        k(    8) = (   0.0132381  -0.0052805   0.0000000), wk =   0.0277778
        k(    9) = (   0.0132381   0.0089720   0.0000000), wk =   0.0277778
        k(   10) = (   0.0132381   0.0232244   0.0000000), wk =   0.0277778
        k(   11) = (   0.0132381   0.0374768   0.0000000), wk =   0.0277778
        k(   12) = (   0.0132381   0.0517293   0.0000000), wk =   0.0277778
        k(   13) = (   0.0132381   0.0659817   0.0000000), wk =   0.0277778
        k(   14) = (   0.0132381  -0.0907951   0.0000000), wk =   0.0277778
        k(   15) = (   0.0132381  -0.0765426   0.0000000), wk =   0.0277778
        k(   16) = (   0.0132381  -0.0622902   0.0000000), wk =   0.0277778
        k(   17) = (   0.0132381  -0.0480378   0.0000000), wk =   0.0277778
        k(   18) = (   0.0132381  -0.0337853   0.0000000), wk =   0.0277778
        k(   19) = (   0.0132381  -0.0195329   0.0000000), wk =   0.0277778
        k(   20) = (   0.0264763  -0.0105609   0.0000000), wk =   0.0277778
        k(   21) = (   0.0264763   0.0036915   0.0000000), wk =   0.0277778
        k(   22) = (   0.0264763   0.0179439   0.0000000), wk =   0.0277778
        k(   23) = (   0.0264763   0.0321964   0.0000000), wk =   0.0277778
        k(   24) = (   0.0264763   0.0464488   0.0000000), wk =   0.0277778
        k(   25) = (   0.0264763   0.0607012   0.0000000), wk =   0.0277778
        k(   26) = (   0.0264763  -0.0960755   0.0000000), wk =   0.0277778
        k(   27) = (   0.0264763  -0.0818231   0.0000000), wk =   0.0277778
        k(   28) = (   0.0264763  -0.0675707   0.0000000), wk =   0.0277778
        k(   29) = (   0.0264763  -0.0533182   0.0000000), wk =   0.0277778
        k(   30) = (   0.0264763  -0.0390658   0.0000000), wk =   0.0277778
        k(   31) = (   0.0264763  -0.0248134   0.0000000), wk =   0.0277778
        k(   32) = (   0.0397144  -0.0158414   0.0000000), wk =   0.0277778
        k(   33) = (   0.0397144  -0.0015890   0.0000000), wk =   0.0277778
        k(   34) = (   0.0397144   0.0126635   0.0000000), wk =   0.0277778
        k(   35) = (   0.0397144   0.0269159   0.0000000), wk =   0.0277778
        k(   36) = (   0.0397144   0.0411683   0.0000000), wk =   0.0277778
        k(   37) = (   0.0397144   0.0554208   0.0000000), wk =   0.0277778
        k(   38) = (   0.0397144  -0.1013560   0.0000000), wk =   0.0277778
        k(   39) = (   0.0397144  -0.0871036   0.0000000), wk =   0.0277778
        k(   40) = (   0.0397144  -0.0728511   0.0000000), wk =   0.0277778
        k(   41) = (   0.0397144  -0.0585987   0.0000000), wk =   0.0277778
        k(   42) = (   0.0397144  -0.0443463   0.0000000), wk =   0.0277778
        k(   43) = (   0.0397144  -0.0300938   0.0000000), wk =   0.0277778
        k(   44) = (   0.0529526  -0.0211219   0.0000000), wk =   0.0277778
        k(   45) = (   0.0529526  -0.0068694   0.0000000), wk =   0.0277778
        k(   46) = (   0.0529526   0.0073830   0.0000000), wk =   0.0277778
        k(   47) = (   0.0529526   0.0216354   0.0000000), wk =   0.0277778
        k(   48) = (   0.0529526   0.0358879   0.0000000), wk =   0.0277778
        k(   49) = (   0.0529526   0.0501403   0.0000000), wk =   0.0277778
        k(   50) = (   0.0529526  -0.1066365   0.0000000), wk =   0.0277778
        k(   51) = (   0.0529526  -0.0923840   0.0000000), wk =   0.0277778
        k(   52) = (   0.0529526  -0.0781316   0.0000000), wk =   0.0277778
        k(   53) = (   0.0529526  -0.0638792   0.0000000), wk =   0.0277778
        k(   54) = (   0.0529526  -0.0496267   0.0000000), wk =   0.0277778
        k(   55) = (   0.0529526  -0.0353743   0.0000000), wk =   0.0277778
        k(   56) = (   0.0661907  -0.0264023   0.0000000), wk =   0.0277778
        k(   57) = (   0.0661907  -0.0121499   0.0000000), wk =   0.0277778
        k(   58) = (   0.0661907   0.0021025   0.0000000), wk =   0.0277778
        k(   59) = (   0.0661907   0.0163550   0.0000000), wk =   0.0277778
        k(   60) = (   0.0661907   0.0306074   0.0000000), wk =   0.0277778
        k(   61) = (   0.0661907   0.0448599   0.0000000), wk =   0.0277778
        k(   62) = (   0.0661907  -0.1119169   0.0000000), wk =   0.0277778
        k(   63) = (   0.0661907  -0.0976645   0.0000000), wk =   0.0277778
        k(   64) = (   0.0661907  -0.0834121   0.0000000), wk =   0.0277778
        k(   65) = (   0.0661907  -0.0691596   0.0000000), wk =   0.0277778
        k(   66) = (   0.0661907  -0.0549072   0.0000000), wk =   0.0277778
        k(   67) = (   0.0661907  -0.0406548   0.0000000), wk =   0.0277778
        k(   68) = (  -0.0794289   0.0316828   0.0000000), wk =   0.0138889
        k(   69) = (  -0.0794289   0.0459352   0.0000000), wk =   0.0277778
        k(   70) = (  -0.0794289   0.0601877   0.0000000), wk =   0.0277778
        k(   71) = (  -0.0794289   0.0744401   0.0000000), wk =   0.0277778
        k(   72) = (  -0.0794289   0.0886925   0.0000000), wk =   0.0277778
        k(   73) = (  -0.0794289   0.1029450   0.0000000), wk =   0.0277778
        k(   74) = (  -0.0794289  -0.0538318   0.0000000), wk =   0.0138889

     Initial potential from superposition of free atoms

     starting charge  143.97716, renormalised to  144.00000

     negative rho (up, down):  1.212E-03 0.000E+00

     %%%%%%%%%%%%%%%%%%%%%%%%%%%%%%%%%%%%%%%%%%%%%%%%%%%%%%%%%%%%%%%%%%%%%%%%
     %                                                                      %
     % You are using vdW-DF, which was implemented by the Thonhauser group. %
     % Please cite the following two papers that made this development      %
     % possible and the two reviews that describe the various versions:     %
     %                                                                      %
     %   T. Thonhauser et al., PRL 115, 136402 (2015).                      %
     %   T. Thonhauser et al., PRB 76, 125112 (2007).                       %
     %   K. Berland et al., Rep. Prog. Phys. 78, 066501 (2015).             %
     %   D.C. Langreth et al., J. Phys.: Condens. Matter 21, 084203 (2009). %
     %                                                                      %
     %                                                                      %
     % If you are calculating the stress with vdW-DF, please also cite:     %
     %                                                                      %
     %   R. Sabatini et al., J. Phys.: Condens. Matter 24, 424209 (2012).   %
     %                                                                      %
     %%%%%%%%%%%%%%%%%%%%%%%%%%%%%%%%%%%%%%%%%%%%%%%%%%%%%%%%%%%%%%%%%%%%%%%%

     Adding external electric field

     Computed dipole along edir(3) :
        Dipole               -0.0061 Ry au,         -0.0156 Debye
        Dipole field         -0.0000 Ry au,

        Potential amp.        0.0011 Ry
        Total length         46.4189 bohr

     Starting wfcs are  108 randomized atomic wfcs

     Self-consistent Calculation

     iteration #  1     ecut=    55.12 Ry     beta= 0.10
     Davidson diagonalization with overlap
     ethr =  1.00E-02,  avg # of iterations =  2.9

     Threshold (ethr) on eigenvalues was too large:
     Diagonalizing with lowered threshold

     Davidson diagonalization with overlap
     ethr =  2.34E-04,  avg # of iterations =  7.3

[...]

     total energy              =   -1504.45947532 Ry
     estimated scf accuracy    <       0.33829323 Ry

[...]

     iteration #  3     ecut=    55.12 Ry     beta= 0.10
     Davidson diagonalization with overlap
     c_bands:  1 eigenvalues not converged
     ethr =  1.21E-04,  avg # of iterations =  4.1

[...]

     iteration #  7     ecut=    55.12 Ry     beta= 0.10
     Davidson diagonalization with overlap
     c_bands:  1 eigenvalues not converged
     c_bands:  1 eigenvalues not converged
     c_bands:  1 eigenvalues not converged
     ethr =  1.74E-06,  avg # of iterations =  4.6

[...]

     total energy              =   -1504.42249580 Ry
     estimated scf accuracy    <       0.00001012 Ry

     iteration # 12     ecut=    55.12 Ry     beta= 0.10
     Davidson diagonalization with overlap
     ethr =  7.03E-09,  avg # of iterations =  5.4

[...]

     Adding external electric field

     Computed dipole along edir(3) :
        Dipole               -0.0108 Ry au,         -0.0275 Debye
        Dipole field         -0.0000 Ry au,

        Potential amp.        0.0020 Ry
        Total length         46.4189 bohr

     End of self-consistent calculation

          k = 0.0000 0.0000 0.0000 ( 43173 PWs)   bands (ev):

    -7.9374  -7.8411  -7.7836  -7.7492  -7.7123  -7.7120  -7.6614  -7.6438
    -7.6397  -7.6379  -7.5995  -7.5863  -7.5435  -7.5174  -7.4942  -7.4518
    -7.4423  -7.3796  -7.3771  -7.3668  -7.3385  -7.3337  -7.3264  -7.3125
    -7.2770  -7.2714  -7.2459  -7.2353  -7.2269  -7.2083  -7.1899  -7.1487
    -7.1334  -7.1038  -7.0768  -7.0744  -7.0497  -7.0279  -6.9952  -6.9111
    -6.9045  -6.8993  -6.8981  -6.8525  -6.8336  -6.8325  -6.8201  -6.7962
    -6.7894  -6.7871  -6.7767  -6.7640  -6.7514  -6.7311  -6.6990  -6.6437
    -6.6274  -6.6111  -6.5723  -6.5204  -6.4230  -6.0085  -4.3588  -3.0812
    -2.7679  -2.5712  -2.1474  -2.0848  -1.6490  -1.3217  -1.1625  -0.7949
    -0.6794  -0.4567   0.0856   0.1177   0.5919   0.5987   0.9361   1.0807
     1.1011   1.8032   1.9804   3.0045   3.5731   3.8479

[...]

          k = 0.0662-0.0407 0.0000 ( 43240 PWs)   bands (ev):

[...]

          k =-0.0794 0.0317 0.0000 ( 43252 PWs)   bands (ev):

[...]

          k =-0.0794-0.0538 0.0000 ( 43312 PWs)   bands (ev):

    -7.7067  -7.6942  -7.5842  -7.5375  -7.5330  -7.5222  -7.4959  -7.4836
    -7.4749  -7.4558  -7.4480  -7.4245  -7.4207  -7.4140  -7.4110  -7.3809
    -7.3400  -7.3335  -7.3269  -7.3245  -7.3185  -7.3057  -7.2812  -7.2805
    -7.2691  -7.2512  -7.2457  -7.2336  -7.2294  -7.2278  -7.2177  -7.2116
    -7.1879  -7.1697  -7.1551  -7.1448  -7.1444  -7.1410  -7.1089  -7.0946
    -7.0561  -7.0523  -7.0497  -7.0377  -7.0319  -6.9170  -6.8837  -6.8352
    -6.8239  -6.8185  -6.7939  -6.7719  -6.7715  -6.7038  -6.6932  -6.6546
    -6.6356  -6.5956  -6.5557  -6.4735  -6.0966  -5.8806  -4.7560  -4.4002
    -4.2724  -4.0153  -3.0853  -3.0331  -2.5670  -2.5025  -1.8854  -1.1643
     0.7514   0.8635   1.4318   1.7453   2.1533   2.6378   2.7891   2.8693
     3.0069   3.2535   3.3378   3.8441   4.1801   4.2282

     the Fermi energy is    -0.3295 ev

!    total energy              =   -1504.42250236 Ry
     estimated scf accuracy    <       0.00000124 Ry
     smearing contrib. (-TS)   =      -0.01417488 Ry
     internal energy E=F+TS    =   -1504.40832748 Ry

     The total energy is F=E-TS. E is the sum of the following terms:
     one-electron contribution =   -7897.33816977 Ry
     hartree contribution      =    4061.47193871 Ry
     xc contribution           =    -491.05579982 Ry
     ewald contribution        =    2822.51370317 Ry
     electric field correction =       0.00000023 Ry

     convergence has been achieved in  12 iterations

     negative rho (up, down):  1.146E-03 0.000E+00

     Forces acting on atoms (cartesian axes, Ry/au):

     atom    1 type  1   force =    -0.00028025   -0.00018120   -0.00063560
     atom    2 type  1   force =    -0.00029441   -0.00019972   -0.00062881
     atom    3 type  2   force =    -0.00044506   -0.00027868   -0.00721996
     atom    4 type  2   force =    -0.00041601   -0.00031108   -0.00720312
     atom    5 type  1   force =    -0.00074242   -0.00050149    0.00522674
     atom    6 type  1   force =    -0.00074040   -0.00050108    0.00521904
     atom    7 type  2   force =     0.00201907    0.00136164    0.00406585
     atom    8 type  2   force =     0.00202355    0.00137812    0.00406437
     atom    9 type  1   force =     0.00086279    0.00059177   -0.00100415
     atom   10 type  1   force =     0.00079545    0.00053102   -0.00097469
     atom   11 type  2   force =    -0.00139074   -0.00095125   -0.00045858
     atom   12 type  2   force =    -0.00139158   -0.00093805   -0.00045110

     Total force =     0.014723     Total SCF correction =     0.001893
     SCF correction compared to forces is large: reduce conv_thr to get better values

     Writing output data file ./Zn2Hg2/Zn2Hg2_beef.save/

     General routines

     Parallel routines

   This run was terminated on:   2:11:57  10Jul2022

   JOB DONE.