     Program PWSCF v.6.6 starts on 10Jul2022 at  0: 4: 1

     R & G space division:  proc/nbgrp/npool/nimage =      37
     Fft bands division:     nmany     =       1
     Reading input from Zn2Hf2.in
Warning: card &CELL ignored
Warning: card / ignored

     Current dimensions of program PWSCF are:
     Max number of different atomic species (ntypx) = 10
     Max number of k-points (npk) =  40000
     Max angular momentum in pseudopotentials (lmaxx) =  3
     Presently stress not available with electric field and gates

     Message from routine cell_base_init:
     DEPRECATED: use true lattice parameter, not A to a.u. conversion factor
     file Zn.pbe-dnl-rrkjus_psl.1.0.0.UPF: wavefunction(s)  3D renormalized

     IMPORTANT: XC functional enforced from input :
     Exchange-correlation= BEEF-VDW
                           (   1   4  43  14   2   0   0)
     Any further DFT definition will be discarded
     Please, verify this is what you really want

     Subspace diagonalization in iterative solution of the eigenvalue problem:
     a serial algorithm will be used

     Found symmetry operation: I + ( -0.5000  0.5000  0.0000)
     This is a supercell, fractional translations are disabled

     bravais-lattice index     =            0
     lattice parameter (alat)  =       1.8897  a.u.
     unit-cell volume          =    5128.3475 (a.u.)^3
     number of atoms/cell      =           12
     number of atomic types    =            2
     number of electrons       =       144.00
     number of Kohn-Sham states=           86
     kinetic-energy cutoff     =      55.1240  Ry
     charge density cutoff     =     551.2396  Ry
     convergence threshold     =      1.0E-05
     mixing beta               =       0.1000
     number of iterations used =           10  plain     mixing
     Exchange-correlation= BEEF-VDW
                           (   1   4  43  14   2   0   0)

     celldm(1)=   1.889726  celldm(2)=   0.000000  celldm(3)=   0.000000
     celldm(4)=   0.000000  celldm(5)=   0.000000  celldm(6)=   0.000000

     crystal axes: (cart. coord. in units of alat)
               a(1) = (   5.716540   0.000000   0.000000 )
               a(2) = (   1.907033   5.389069   0.000000 )
               a(3) = (   0.000000   0.000000  24.668000 )

     reciprocal axes: (cart. coord. in units 2 pi/alat)
               b(1) = (  0.174931 -0.061903  0.000000 )
               b(2) = (  0.000000  0.185561  0.000000 )
               b(3) = (  0.000000  0.000000  0.040538 )

     PseudoPot. # 1 for Zn read from file:
     ../pseudo/Zn.pbe-dnl-rrkjus_psl.1.0.0.UPF
     MD5 check sum: 7f56cabf9682ed8c977c2f7d0c5985c5
     Pseudo is Ultrasoft + core correction, Zval = 12.0
     Generated using "atomic" code by A. Dal Corso v.6.2.2
     Using radial grid of 1201 points,  6 beta functions with:
                l(1) =   0
                l(2) =   0
                l(3) =   1
                l(4) =   1
                l(5) =   2
                l(6) =   2
     Q(r) pseudized with 0 coefficients

     PseudoPot. # 2 for Hf read from file:
     ../pseudo/Hf.pbe-spn-rrkjus_psl.1.0.0.UPF
     MD5 check sum: 9605440c6f839e558204c6a924125fd0
     Pseudo is Ultrasoft + core correction, Zval = 12.0
     Generated using "atomic" code by A. Dal Corso v.6.2.2
     Using radial grid of 1271 points,  6 beta functions with:
                l(1) =   0
                l(2) =   0
                l(3) =   1
                l(4) =   1
                l(5) =   2
                l(6) =   2
     Q(r) pseudized with 0 coefficients

     atomic species   valence    mass     pseudopotential
        Zn            12.00    65.38000     Zn( 1.00)
        Hf            12.00   178.49000     Hf( 1.00)

     No symmetry found

   Cartesian axes

     site n.     atom                  positions (alat units)
         1           Zn  tau(   1) = (   0.0000000   0.0000000  10.0000000  )
         2           Zn  tau(   2) = (   3.8117865   2.6945343  10.0000000  )
         3           Hf  tau(   3) = (   2.8582702   0.0000000  10.0000000  )
         4           Hf  tau(   4) = (   0.9535163   2.6945343  10.0000000  )
         5           Zn  tau(   5) = (   5.7165403   4.0409960  12.3340000  )
         6           Zn  tau(   6) = (   1.9047539   1.3464617  12.3340000  )
         7           Hf  tau(   7) = (   2.8582702   4.0409960  12.3340000  )
         8           Hf  tau(   8) = (   4.7630240   1.3464617  12.3340000  )
         9           Zn  tau(   9) = (   3.8097746   2.6931190  14.8371445  )
        10           Zn  tau(  10) = (   7.6215690   5.3876472  14.8371460  )
        11           Hf  tau(  11) = (   6.6679871   2.6930684  14.5839329  )
        12           Hf  tau(  12) = (   4.7632432   5.3876148  14.5839285  )

     number of k points=    74  Fermi-Dirac smearing, width (Ry)=  0.0100
                       cart. coord. in units 2pi/alat
        k(    1) = (   0.0000000   0.0000000   0.0000000), wk =   0.0138889
        k(    2) = (   0.0000000   0.0154634   0.0000000), wk =   0.0277778
        k(    3) = (   0.0000000   0.0309268   0.0000000), wk =   0.0277778
        k(    4) = (   0.0000000   0.0463902   0.0000000), wk =   0.0277778
        k(    5) = (   0.0000000   0.0618536   0.0000000), wk =   0.0277778
        k(    6) = (   0.0000000   0.0773170   0.0000000), wk =   0.0277778
        k(    7) = (   0.0000000  -0.0927804   0.0000000), wk =   0.0138889
        k(    8) = (   0.0145776  -0.0051586   0.0000000), wk =   0.0277778
        k(    9) = (   0.0145776   0.0103048   0.0000000), wk =   0.0277778
        k(   10) = (   0.0145776   0.0257682   0.0000000), wk =   0.0277778
        k(   11) = (   0.0145776   0.0412316   0.0000000), wk =   0.0277778
        k(   12) = (   0.0145776   0.0566950   0.0000000), wk =   0.0277778
        k(   13) = (   0.0145776   0.0721584   0.0000000), wk =   0.0277778
        k(   14) = (   0.0145776  -0.0979390   0.0000000), wk =   0.0277778
        k(   15) = (   0.0145776  -0.0824756   0.0000000), wk =   0.0277778
        k(   16) = (   0.0145776  -0.0670122   0.0000000), wk =   0.0277778
        k(   17) = (   0.0145776  -0.0515488   0.0000000), wk =   0.0277778
        k(   18) = (   0.0145776  -0.0360854   0.0000000), wk =   0.0277778
        k(   19) = (   0.0145776  -0.0206220   0.0000000), wk =   0.0277778
        k(   20) = (   0.0291552  -0.0103172   0.0000000), wk =   0.0277778
        k(   21) = (   0.0291552   0.0051462   0.0000000), wk =   0.0277778
        k(   22) = (   0.0291552   0.0206096   0.0000000), wk =   0.0277778
        k(   23) = (   0.0291552   0.0360730   0.0000000), wk =   0.0277778
        k(   24) = (   0.0291552   0.0515364   0.0000000), wk =   0.0277778
        k(   25) = (   0.0291552   0.0669998   0.0000000), wk =   0.0277778
        k(   26) = (   0.0291552  -0.1030976   0.0000000), wk =   0.0277778
        k(   27) = (   0.0291552  -0.0876342   0.0000000), wk =   0.0277778
        k(   28) = (   0.0291552  -0.0721708   0.0000000), wk =   0.0277778
        k(   29) = (   0.0291552  -0.0567074   0.0000000), wk =   0.0277778
        k(   30) = (   0.0291552  -0.0412440   0.0000000), wk =   0.0277778
        k(   31) = (   0.0291552  -0.0257806   0.0000000), wk =   0.0277778
        k(   32) = (   0.0437327  -0.0154757   0.0000000), wk =   0.0277778
        k(   33) = (   0.0437327  -0.0000123   0.0000000), wk =   0.0277778
        k(   34) = (   0.0437327   0.0154511   0.0000000), wk =   0.0277778
        k(   35) = (   0.0437327   0.0309145   0.0000000), wk =   0.0277778
        k(   36) = (   0.0437327   0.0463779   0.0000000), wk =   0.0277778
        k(   37) = (   0.0437327   0.0618413   0.0000000), wk =   0.0277778
        k(   38) = (   0.0437327  -0.1082561   0.0000000), wk =   0.0277778
        k(   39) = (   0.0437327  -0.0927927   0.0000000), wk =   0.0277778
        k(   40) = (   0.0437327  -0.0773293   0.0000000), wk =   0.0277778
        k(   41) = (   0.0437327  -0.0618659   0.0000000), wk =   0.0277778
        k(   42) = (   0.0437327  -0.0464025   0.0000000), wk =   0.0277778
        k(   43) = (   0.0437327  -0.0309391   0.0000000), wk =   0.0277778
        k(   44) = (   0.0583103  -0.0206343   0.0000000), wk =   0.0277778
        k(   45) = (   0.0583103  -0.0051709   0.0000000), wk =   0.0277778
        k(   46) = (   0.0583103   0.0102925   0.0000000), wk =   0.0277778
        k(   47) = (   0.0583103   0.0257559   0.0000000), wk =   0.0277778
        k(   48) = (   0.0583103   0.0412193   0.0000000), wk =   0.0277778
        k(   49) = (   0.0583103   0.0566827   0.0000000), wk =   0.0277778
        k(   50) = (   0.0583103  -0.1134147   0.0000000), wk =   0.0277778
        k(   51) = (   0.0583103  -0.0979513   0.0000000), wk =   0.0277778
        k(   52) = (   0.0583103  -0.0824879   0.0000000), wk =   0.0277778
        k(   53) = (   0.0583103  -0.0670245   0.0000000), wk =   0.0277778
        k(   54) = (   0.0583103  -0.0515611   0.0000000), wk =   0.0277778
        k(   55) = (   0.0583103  -0.0360977   0.0000000), wk =   0.0277778
        k(   56) = (   0.0728879  -0.0257929   0.0000000), wk =   0.0277778
        k(   57) = (   0.0728879  -0.0103295   0.0000000), wk =   0.0277778
        k(   58) = (   0.0728879   0.0051339   0.0000000), wk =   0.0277778
        k(   59) = (   0.0728879   0.0205973   0.0000000), wk =   0.0277778
        k(   60) = (   0.0728879   0.0360607   0.0000000), wk =   0.0277778
        k(   61) = (   0.0728879   0.0515241   0.0000000), wk =   0.0277778
        k(   62) = (   0.0728879  -0.1185733   0.0000000), wk =   0.0277778
        k(   63) = (   0.0728879  -0.1031099   0.0000000), wk =   0.0277778
        k(   64) = (   0.0728879  -0.0876465   0.0000000), wk =   0.0277778
        k(   65) = (   0.0728879  -0.0721831   0.0000000), wk =   0.0277778
        k(   66) = (   0.0728879  -0.0567197   0.0000000), wk =   0.0277778
        k(   67) = (   0.0728879  -0.0412563   0.0000000), wk =   0.0277778
        k(   68) = (  -0.0874655   0.0309515   0.0000000), wk =   0.0138889
        k(   69) = (  -0.0874655   0.0464149   0.0000000), wk =   0.0277778
        k(   70) = (  -0.0874655   0.0618783   0.0000000), wk =   0.0277778
        k(   71) = (  -0.0874655   0.0773417   0.0000000), wk =   0.0277778
        k(   72) = (  -0.0874655   0.0928051   0.0000000), wk =   0.0277778
        k(   73) = (  -0.0874655   0.1082685   0.0000000), wk =   0.0277778
        k(   74) = (  -0.0874655  -0.0618289   0.0000000), wk =   0.0138889

     Initial potential from superposition of free atoms

     starting charge  143.96602, renormalised to  144.00000

     negative rho (up, down):  3.940E-04 0.000E+00

     %%%%%%%%%%%%%%%%%%%%%%%%%%%%%%%%%%%%%%%%%%%%%%%%%%%%%%%%%%%%%%%%%%%%%%%%
     %                                                                      %
     % You are using vdW-DF, which was implemented by the Thonhauser group. %
     % Please cite the following two papers that made this development      %
     % possible and the two reviews that describe the various versions:     %
     %                                                                      %
     %   T. Thonhauser et al., PRL 115, 136402 (2015).                      %
     %   T. Thonhauser et al., PRB 76, 125112 (2007).                       %
     %   K. Berland et al., Rep. Prog. Phys. 78, 066501 (2015).             %
     %   D.C. Langreth et al., J. Phys.: Condens. Matter 21, 084203 (2009). %
     %                                                                      %
     %                                                                      %
     % If you are calculating the stress with vdW-DF, please also cite:     %
     %                                                                      %
     %   R. Sabatini et al., J. Phys.: Condens. Matter 24, 424209 (2012).   %
     %                                                                      %
     %%%%%%%%%%%%%%%%%%%%%%%%%%%%%%%%%%%%%%%%%%%%%%%%%%%%%%%%%%%%%%%%%%%%%%%%

     Adding external electric field

     Computed dipole along edir(3) :
        Dipole                0.0009 Ry au,          0.0022 Debye
        Dipole field          0.0000 Ry au,

        Potential amp.       -0.0002 Ry
        Total length         45.4504 bohr

     Starting wfcs are  114 randomized atomic wfcs

     Self-consistent Calculation

     iteration #  1     ecut=    55.12 Ry     beta= 0.10
     Davidson diagonalization with overlap
     ethr =  1.00E-02,  avg # of iterations =  2.0

[...]

     total energy              =   -1654.73009608 Ry
     estimated scf accuracy    <       1.81340673 Ry

[...]

     iteration #  8     ecut=    55.12 Ry     beta= 0.10
     Davidson diagonalization with overlap
     c_bands:  1 eigenvalues not converged
     c_bands:  1 eigenvalues not converged
     ethr =  1.62E-05,  avg # of iterations =  3.9

[...]

     total energy              =   -1654.85592928 Ry
     estimated scf accuracy    <       0.00001743 Ry

     iteration # 15     ecut=    55.12 Ry     beta= 0.10
     Davidson diagonalization with overlap
     ethr =  1.21E-08,  avg # of iterations =  1.3

[...]

     Adding external electric field

     Computed dipole along edir(3) :
        Dipole               -0.0684 Ry au,         -0.1740 Debye
        Dipole field         -0.0002 Ry au,

        Potential amp.        0.0152 Ry
        Total length         45.4504 bohr

     End of self-consistent calculation

          k = 0.0000 0.0000 0.0000 ( 35453 PWs)   bands (ev):

   -62.2580 -62.2471 -62.1331 -62.1221 -61.7277 -61.7166 -30.8333 -30.8094
   -30.7145 -30.7050 -30.7038 -30.6938 -30.6809 -30.6097 -30.6067 -30.5881
   -30.4392 -30.3706 -30.3394 -30.2039 -30.1796 -30.1765 -30.1359 -30.0902
    -7.3298  -6.7805  -6.7565  -6.7373  -6.7321  -6.6526  -6.6163  -6.6054
    -6.5556  -6.5531  -6.5508  -6.5275  -6.5215  -6.4990  -6.4650  -6.4325
    -6.4231  -6.4222  -6.3795  -6.3188  -6.3166  -6.3156  -6.3006  -6.2946
    -6.2878  -6.2695  -6.1996  -6.1871  -6.1737  -6.1518  -6.0774  -5.3733
    -3.8209  -3.6427  -3.1633  -3.0081  -1.3552  -1.0226  -0.9507  -0.3780
    -0.1382   0.0242   0.1022   0.1593   0.4733   0.5424   0.5467   1.0433
     1.1749   1.2024   1.2096   1.4124   1.4270   1.7134   2.0247   2.0313
     2.2957   2.6888   2.9763   3.0817   3.1694   3.3899

[...]

          k = 0.0729-0.0413 0.0000 ( 35464 PWs)   bands (ev):

[...]

          k =-0.0875 0.0310 0.0000 ( 35482 PWs)   bands (ev):

[...]

          k =-0.0875-0.0618 0.0000 ( 35434 PWs)   bands (ev):

   -62.2579 -62.2472 -62.1330 -62.1223 -61.7278 -61.7164 -30.8382 -30.8056
   -30.7265 -30.7098 -30.7078 -30.6868 -30.6752 -30.6206 -30.6102 -30.5816
   -30.4391 -30.3698 -30.3387 -30.2076 -30.1764 -30.1643 -30.1500 -30.0919
    -6.7003  -6.6739  -6.6033  -6.6007  -6.5815  -6.5760  -6.5669  -6.5184
    -6.4800  -6.4759  -6.4395  -6.4329  -6.4242  -6.3919  -6.3893  -6.3721
    -6.3537  -6.3374  -6.3155  -6.2949  -6.2905  -6.2804  -6.2717  -6.2627
    -6.2607  -6.2269  -6.1834  -6.1674  -6.1516  -6.0914  -5.1882  -5.1458
    -3.6467  -3.5887  -3.5410  -3.4185  -2.8918  -1.9344  -1.6712  -1.4970
    -1.4854  -1.3032  -1.0403  -0.3354  -0.2869   0.1798   0.3665   0.4066
     0.7476   1.0852   1.5152   1.7014   1.7387   2.0530   2.1002   2.1691
     2.1837   2.2656   2.4609   2.7473   2.8814   3.3256

     the Fermi energy is     0.8017 ev

!    total energy              =   -1654.85592694 Ry
     estimated scf accuracy    <       0.00000595 Ry
     smearing contrib. (-TS)   =      -0.05419371 Ry
     internal energy E=F+TS    =   -1654.80173323 Ry

     The total energy is F=E-TS. E is the sum of the following terms:
     one-electron contribution =  -10123.57942464 Ry
     hartree contribution      =    5126.23202116 Ry
     xc contribution           =    -547.30838617 Ry
     ewald contribution        =    3889.85404494 Ry
     electric field correction =       0.00001148 Ry

     convergence has been achieved in  15 iterations

     negative rho (up, down):  1.588E-04 0.000E+00

     Forces acting on atoms (cartesian axes, Ry/au):

     atom    1 type  1   force =     0.00000014    0.00000250   -0.01544632
     atom    2 type  1   force =     0.00000680   -0.00000344   -0.01545555
     atom    3 type  2   force =    -0.00003369   -0.00002498    0.01551329
     atom    4 type  2   force =    -0.00003162   -0.00002413    0.01551216
     atom    5 type  1   force =     0.00005319    0.00004005   -0.00994300
     atom    6 type  1   force =    -0.00006382   -0.00003269   -0.00994190
     atom    7 type  2   force =    -0.00001516    0.00000240    0.00874522
     atom    8 type  2   force =    -0.00000358   -0.00001806    0.00874688
     atom    9 type  1   force =    -0.00001841   -0.00000361    0.00323108
     atom   10 type  1   force =     0.00000556   -0.00000873    0.00320879
     atom   11 type  2   force =     0.00004909    0.00003147   -0.00208604
     atom   12 type  2   force =     0.00005152    0.00003922   -0.00208461

     Total force =     0.036591     Total SCF correction =     0.015127
     SCF correction compared to forces is large: reduce conv_thr to get better values

     Writing output data file ./Zn2Hf2/Zn2Hf2_beef.save/

     General routines

     Parallel routines

   This run was terminated on:   1: 0:31  10Jul2022

   JOB DONE.