     Program PWSCF v.6.6 starts on 10Jul2022 at  2:12: 2

     R & G space division:  proc/nbgrp/npool/nimage =      37
     Fft bands division:     nmany     =       1
     Reading input from Zn2Ir2.in
Warning: card &CELL ignored
Warning: card / ignored

     Current dimensions of program PWSCF are:
     Max number of different atomic species (ntypx) = 10
     Max number of k-points (npk) =  40000
     Max angular momentum in pseudopotentials (lmaxx) =  3
     Presently stress not available with electric field and gates

     Message from routine cell_base_init:
     DEPRECATED: use true lattice parameter, not A to a.u. conversion factor
     file Zn.pbe-dnl-rrkjus_psl.1.0.0.UPF: wavefunction(s)  3D renormalized
     file Ir.pbe-n-rrkjus_psl.0.2.3.UPF: wavefunction(s)  5D renormalized

     IMPORTANT: XC functional enforced from input :
     Exchange-correlation= BEEF-VDW
                           (   1   4  43  14   2   0   0)
     Any further DFT definition will be discarded
     Please, verify this is what you really want

     Subspace diagonalization in iterative solution of the eigenvalue problem:
     a serial algorithm will be used

     Found symmetry operation: I + (  0.5000 -0.5000  0.0000)
     This is a supercell, fractional translations are disabled

     bravais-lattice index     =            0
     lattice parameter (alat)  =       1.8897  a.u.
     unit-cell volume          =    4298.9147 (a.u.)^3
     number of atoms/cell      =           12
     number of atomic types    =            2
     number of electrons       =       126.00
     number of Kohn-Sham states=           76
     kinetic-energy cutoff     =      55.1240  Ry
     charge density cutoff     =     551.2396  Ry
     convergence threshold     =      1.0E-05
     mixing beta               =       0.1000
     number of iterations used =           10  plain     mixing
     Exchange-correlation= BEEF-VDW
                           (   1   4  43  14   2   0   0)

     celldm(1)=   1.889726  celldm(2)=   0.000000  celldm(3)=   0.000000
     celldm(4)=   0.000000  celldm(5)=   0.000000  celldm(6)=   0.000000

     crystal axes: (cart. coord. in units of alat)
               a(1) = (   5.273506   0.000000   0.000000 )
               a(2) = (   1.764502   4.969547   0.000000 )
               a(3) = (   0.000000   0.000000  24.307823 )

     reciprocal axes: (cart. coord. in units 2 pi/alat)
               b(1) = (  0.189627 -0.067330  0.000000 )
               b(2) = (  0.000000  0.201226  0.000000 )
               b(3) = (  0.000000  0.000000  0.041139 )

     PseudoPot. # 1 for Zn read from file:
     ../pseudo/Zn.pbe-dnl-rrkjus_psl.1.0.0.UPF
     MD5 check sum: 7f56cabf9682ed8c977c2f7d0c5985c5
     Pseudo is Ultrasoft + core correction, Zval = 12.0
     Generated using "atomic" code by A. Dal Corso v.6.2.2
     Using radial grid of 1201 points,  6 beta functions with:
                l(1) =   0
                l(2) =   0
                l(3) =   1
                l(4) =   1
                l(5) =   2
                l(6) =   2
     Q(r) pseudized with 0 coefficients

     PseudoPot. # 2 for Ir read from file:
     ../pseudo/Ir.pbe-n-rrkjus_psl.0.2.3.UPF
     MD5 check sum: a93e608e8ddc29ee62145620b5f41564
     Pseudo is Ultrasoft + core correction, Zval =  9.0
     Generated using "atomic" code by A. Dal Corso v.5.0.2 svn rev. 9415
     Using radial grid of 1277 points,  6 beta functions with:
                l(1) =   0
                l(2) =   0
                l(3) =   1
                l(4) =   1
                l(5) =   2
                l(6) =   2
     Q(r) pseudized with 0 coefficients

     atomic species   valence    mass     pseudopotential
        Zn            12.00    65.38000     Zn( 1.00)
        Ir             9.00   192.21700     Ir( 1.00)

     No symmetry found

   Cartesian axes

     site n.     atom                  positions (alat units)
         1           Zn  tau(   1) = (   0.0000000   0.0000000  10.0000000  )
         2           Zn  tau(   2) = (   3.5190039   2.4847737  10.0000000  )
         3           Ir  tau(   3) = (   2.6367531   0.0000000  10.0000000  )
         4           Ir  tau(   4) = (   0.8822508   2.4847737  10.0000000  )
         5           Zn  tau(   5) = (   5.2735062   3.7236303  12.1539115  )
         6           Zn  tau(   6) = (   1.7545023   1.2388566  12.1539115  )
         7           Ir  tau(   7) = (   2.6367531   3.7236303  12.1539115  )
         8           Ir  tau(   8) = (   4.3912554   1.2388566  12.1539115  )
         9           Zn  tau(   9) = (   3.5096578   2.4781540  14.4606751  )
        10           Zn  tau(  10) = (   7.0286419   4.9629511  14.4606793  )
        11           Ir  tau(  11) = (   6.1459918   2.4778802  14.1996979  )
        12           Ir  tau(  12) = (   4.3914945   4.9626525  14.1997037  )

     number of k points=    74  Fermi-Dirac smearing, width (Ry)=  0.0100
                       cart. coord. in units 2pi/alat
        k(    1) = (   0.0000000   0.0000000   0.0000000), wk =   0.0138889
        k(    2) = (   0.0000000   0.0167688   0.0000000), wk =   0.0277778
        k(    3) = (   0.0000000   0.0335376   0.0000000), wk =   0.0277778
        k(    4) = (   0.0000000   0.0503064   0.0000000), wk =   0.0277778
        k(    5) = (   0.0000000   0.0670752   0.0000000), wk =   0.0277778
        k(    6) = (   0.0000000   0.0838440   0.0000000), wk =   0.0277778
        k(    7) = (   0.0000000  -0.1006128   0.0000000), wk =   0.0138889
        k(    8) = (   0.0158023  -0.0056108   0.0000000), wk =   0.0277778
        k(    9) = (   0.0158023   0.0111580   0.0000000), wk =   0.0277778
        k(   10) = (   0.0158023   0.0279268   0.0000000), wk =   0.0277778
        k(   11) = (   0.0158023   0.0446956   0.0000000), wk =   0.0277778
        k(   12) = (   0.0158023   0.0614644   0.0000000), wk =   0.0277778
        k(   13) = (   0.0158023   0.0782332   0.0000000), wk =   0.0277778
        k(   14) = (   0.0158023  -0.1062236   0.0000000), wk =   0.0277778
        k(   15) = (   0.0158023  -0.0894548   0.0000000), wk =   0.0277778
        k(   16) = (   0.0158023  -0.0726860   0.0000000), wk =   0.0277778
        k(   17) = (   0.0158023  -0.0559172   0.0000000), wk =   0.0277778
        k(   18) = (   0.0158023  -0.0391484   0.0000000), wk =   0.0277778
        k(   19) = (   0.0158023  -0.0223796   0.0000000), wk =   0.0277778
        k(   20) = (   0.0316045  -0.0112216   0.0000000), wk =   0.0277778
        k(   21) = (   0.0316045   0.0055472   0.0000000), wk =   0.0277778
        k(   22) = (   0.0316045   0.0223160   0.0000000), wk =   0.0277778
        k(   23) = (   0.0316045   0.0390848   0.0000000), wk =   0.0277778
        k(   24) = (   0.0316045   0.0558536   0.0000000), wk =   0.0277778
        k(   25) = (   0.0316045   0.0726224   0.0000000), wk =   0.0277778
        k(   26) = (   0.0316045  -0.1118344   0.0000000), wk =   0.0277778
        k(   27) = (   0.0316045  -0.0950656   0.0000000), wk =   0.0277778
        k(   28) = (   0.0316045  -0.0782968   0.0000000), wk =   0.0277778
        k(   29) = (   0.0316045  -0.0615280   0.0000000), wk =   0.0277778
        k(   30) = (   0.0316045  -0.0447592   0.0000000), wk =   0.0277778
        k(   31) = (   0.0316045  -0.0279904   0.0000000), wk =   0.0277778
        k(   32) = (   0.0474068  -0.0168324   0.0000000), wk =   0.0277778
        k(   33) = (   0.0474068  -0.0000636   0.0000000), wk =   0.0277778
        k(   34) = (   0.0474068   0.0167052   0.0000000), wk =   0.0277778
        k(   35) = (   0.0474068   0.0334740   0.0000000), wk =   0.0277778
        k(   36) = (   0.0474068   0.0502428   0.0000000), wk =   0.0277778
        k(   37) = (   0.0474068   0.0670116   0.0000000), wk =   0.0277778
        k(   38) = (   0.0474068  -0.1174452   0.0000000), wk =   0.0277778
        k(   39) = (   0.0474068  -0.1006764   0.0000000), wk =   0.0277778
        k(   40) = (   0.0474068  -0.0839076   0.0000000), wk =   0.0277778
        k(   41) = (   0.0474068  -0.0671388   0.0000000), wk =   0.0277778
        k(   42) = (   0.0474068  -0.0503700   0.0000000), wk =   0.0277778
        k(   43) = (   0.0474068  -0.0336012   0.0000000), wk =   0.0277778
        k(   44) = (   0.0632091  -0.0224432   0.0000000), wk =   0.0277778
        k(   45) = (   0.0632091  -0.0056744   0.0000000), wk =   0.0277778
        k(   46) = (   0.0632091   0.0110944   0.0000000), wk =   0.0277778
        k(   47) = (   0.0632091   0.0278632   0.0000000), wk =   0.0277778
        k(   48) = (   0.0632091   0.0446320   0.0000000), wk =   0.0277778
        k(   49) = (   0.0632091   0.0614008   0.0000000), wk =   0.0277778
        k(   50) = (   0.0632091  -0.1230560   0.0000000), wk =   0.0277778
        k(   51) = (   0.0632091  -0.1062872   0.0000000), wk =   0.0277778
        k(   52) = (   0.0632091  -0.0895184   0.0000000), wk =   0.0277778
        k(   53) = (   0.0632091  -0.0727496   0.0000000), wk =   0.0277778
        k(   54) = (   0.0632091  -0.0559808   0.0000000), wk =   0.0277778
        k(   55) = (   0.0632091  -0.0392120   0.0000000), wk =   0.0277778
        k(   56) = (   0.0790113  -0.0280540   0.0000000), wk =   0.0277778
        k(   57) = (   0.0790113  -0.0112852   0.0000000), wk =   0.0277778
        k(   58) = (   0.0790113   0.0054836   0.0000000), wk =   0.0277778
        k(   59) = (   0.0790113   0.0222524   0.0000000), wk =   0.0277778
        k(   60) = (   0.0790113   0.0390212   0.0000000), wk =   0.0277778
        k(   61) = (   0.0790113   0.0557900   0.0000000), wk =   0.0277778
        k(   62) = (   0.0790113  -0.1286668   0.0000000), wk =   0.0277778
        k(   63) = (   0.0790113  -0.1118980   0.0000000), wk =   0.0277778
        k(   64) = (   0.0790113  -0.0951292   0.0000000), wk =   0.0277778
        k(   65) = (   0.0790113  -0.0783604   0.0000000), wk =   0.0277778
        k(   66) = (   0.0790113  -0.0615916   0.0000000), wk =   0.0277778
        k(   67) = (   0.0790113  -0.0448228   0.0000000), wk =   0.0277778
        k(   68) = (  -0.0948136   0.0336648   0.0000000), wk =   0.0138889
        k(   69) = (  -0.0948136   0.0504336   0.0000000), wk =   0.0277778
        k(   70) = (  -0.0948136   0.0672024   0.0000000), wk =   0.0277778
        k(   71) = (  -0.0948136   0.0839712   0.0000000), wk =   0.0277778
        k(   72) = (  -0.0948136   0.1007400   0.0000000), wk =   0.0277778
        k(   73) = (  -0.0948136   0.1175088   0.0000000), wk =   0.0277778
        k(   74) = (  -0.0948136  -0.0669480   0.0000000), wk =   0.0138889

     Initial potential from superposition of free atoms

     starting charge  125.97676, renormalised to  126.00000

     negative rho (up, down):  3.457E-04 0.000E+00

     %%%%%%%%%%%%%%%%%%%%%%%%%%%%%%%%%%%%%%%%%%%%%%%%%%%%%%%%%%%%%%%%%%%%%%%%
     %                                                                      %
     % You are using vdW-DF, which was implemented by the Thonhauser group. %
     % Please cite the following two papers that made this development      %
     % possible and the two reviews that describe the various versions:     %
     %                                                                      %
     %   T. Thonhauser et al., PRL 115, 136402 (2015).                      %
     %   T. Thonhauser et al., PRB 76, 125112 (2007).                       %
     %   K. Berland et al., Rep. Prog. Phys. 78, 066501 (2015).             %
     %   D.C. Langreth et al., J. Phys.: Condens. Matter 21, 084203 (2009). %
     %                                                                      %
     %                                                                      %
     % If you are calculating the stress with vdW-DF, please also cite:     %
     %                                                                      %
     %   R. Sabatini et al., J. Phys.: Condens. Matter 24, 424209 (2012).   %
     %                                                                      %
     %%%%%%%%%%%%%%%%%%%%%%%%%%%%%%%%%%%%%%%%%%%%%%%%%%%%%%%%%%%%%%%%%%%%%%%%

     Adding external electric field

     Computed dipole along edir(3) :
        Dipole                0.0015 Ry au,          0.0038 Debye
        Dipole field          0.0000 Ry au,

        Potential amp.       -0.0004 Ry
        Total length         44.7867 bohr

     Starting wfcs are  108 randomized atomic wfcs

     Self-consistent Calculation

     iteration #  1     ecut=    55.12 Ry     beta= 0.10
     Davidson diagonalization with overlap
     ethr =  1.00E-02,  avg # of iterations =  2.4

[...]

     total energy              =   -1276.07899200 Ry
     estimated scf accuracy    <       1.49225978 Ry

[...]

     iteration #  4     ecut=    55.12 Ry     beta= 0.10
     Davidson diagonalization with overlap
     c_bands:  1 eigenvalues not converged
     c_bands:  1 eigenvalues not converged
     ethr =  4.97E-05,  avg # of iterations =  9.1

[...]

     iteration # 10     ecut=    55.12 Ry     beta= 0.10
     Davidson diagonalization with overlap
     c_bands:  1 eigenvalues not converged
     c_bands:  1 eigenvalues not converged
     c_bands:  1 eigenvalues not converged
     ethr =  6.57E-07,  avg # of iterations =  6.4

[...]

     total energy              =   -1276.17891106 Ry
     estimated scf accuracy    <       0.00004501 Ry

     iteration # 13     ecut=    55.12 Ry     beta= 0.10
     Davidson diagonalization with overlap
     ethr =  3.57E-08,  avg # of iterations =  5.4

[...]

     Adding external electric field

     Computed dipole along edir(3) :
        Dipole                0.0180 Ry au,          0.0457 Debye
        Dipole field          0.0001 Ry au,

        Potential amp.       -0.0047 Ry
        Total length         44.7867 bohr

     End of self-consistent calculation

          k = 0.0000 0.0000 0.0000 ( 29759 PWs)   bands (ev):

    -8.9374  -7.3101  -7.2355  -7.2310  -7.1545  -7.1402  -7.0220  -7.0031
    -6.9959  -6.9900  -6.9260  -6.8372  -6.7934  -6.7725  -6.7498  -6.7228
    -6.6977  -6.6568  -6.6506  -6.6321  -6.5707  -6.5588  -6.5139  -6.5038
    -6.4841  -6.3901  -6.3611  -6.3324  -6.2620  -6.2140  -6.1768  -6.1065
    -4.8147  -4.8014  -4.4187  -4.2062  -2.9977  -2.8840  -2.7615  -2.7247
    -2.7198  -2.6103  -2.4250  -2.2379  -1.8881  -1.6095  -1.4440  -1.4372
    -1.1914  -1.1396  -0.9264  -0.8078  -0.6185  -0.5531  -0.5481  -0.4436
    -0.3179  -0.1539  -0.1241  -0.0484   0.0312   0.0814   0.2173   0.2313
     0.5980   0.7057   0.8396   0.9820   1.4753   1.8933   1.9185   3.8165
     3.9215   4.1183   4.2331   4.5238

[...]

          k = 0.0790-0.0448 0.0000 ( 29691 PWs)   bands (ev):

[...]

          k =-0.0948 0.0337 0.0000 ( 29736 PWs)   bands (ev):

[...]

          k =-0.0948-0.0669 0.0000 ( 29690 PWs)   bands (ev):

    -7.2018  -7.0621  -6.9134  -6.9068  -6.8493  -6.7956  -6.7897  -6.7775
    -6.7770  -6.7536  -6.7321  -6.6774  -6.6369  -6.6263  -6.5968  -6.5885
    -6.5791  -6.5758  -6.5678  -6.5077  -6.5031  -6.4732  -6.4425  -6.4399
    -6.3926  -6.3779  -6.3542  -6.3318  -6.2445  -6.2025  -6.1693  -5.8780
    -5.1522  -5.0867  -4.4602  -4.3364  -4.0048  -3.8879  -3.7511  -3.3727
    -3.3071  -2.9515  -2.9493  -2.8449  -2.7726  -2.7084  -2.2836  -2.0535
    -1.9721  -1.8341  -1.6337  -1.5426  -1.4684  -1.4264  -1.3559  -1.1183
    -0.8006  -0.5109  -0.1799  -0.0971  -0.0559   0.0065   0.2729   0.3447
     0.5004   0.6717   0.6908   1.8737   2.3576   2.5136   2.9462   3.4015
     3.9545   4.0623   5.1703   5.7332

     the Fermi energy is     0.0786 ev

!    total energy              =   -1276.17891699 Ry
     estimated scf accuracy    <       0.00000842 Ry
     smearing contrib. (-TS)   =      -0.05410912 Ry
     internal energy E=F+TS    =   -1276.12480787 Ry

     The total energy is F=E-TS. E is the sum of the following terms:
     one-electron contribution =   -9203.77820986 Ry
     hartree contribution      =    4710.30589428 Ry
     xc contribution           =    -486.50996194 Ry
     ewald contribution        =    3703.85746870 Ry
     electric field correction =       0.00000095 Ry

     convergence has been achieved in  13 iterations

     negative rho (up, down):  3.780E-04 0.000E+00

     Forces acting on atoms (cartesian axes, Ry/au):

     atom    1 type  1   force =     0.00000024   -0.00000687   -0.02446305
     atom    2 type  1   force =    -0.00001131   -0.00000225   -0.02450785
     atom    3 type  2   force =     0.00005325    0.00002403    0.02951498
     atom    4 type  2   force =     0.00004025    0.00001923    0.02950509
     atom    5 type  1   force =     0.00004410    0.00002955   -0.02260893
     atom    6 type  1   force =     0.00014822    0.00010613   -0.02259929
     atom    7 type  2   force =    -0.00014402   -0.00010125    0.01339929
     atom    8 type  2   force =    -0.00014190   -0.00009392    0.01338926
     atom    9 type  1   force =    -0.00011293   -0.00007699    0.00334612
     atom   10 type  1   force =    -0.00002308   -0.00001798    0.00334041
     atom   11 type  2   force =     0.00006594    0.00006166    0.00083794
     atom   12 type  2   force =     0.00008125    0.00005864    0.00084603

     Total force =     0.065919     Total SCF correction =     0.011533
     SCF correction compared to forces is large: reduce conv_thr to get better values

     Writing output data file ./Zn2Ir2/Zn2Ir2_beef.save/

     General routines

     Parallel routines

   This run was terminated on:   2:46: 4  10Jul2022

   JOB DONE.