     Program PWSCF v.6.6 starts on 10Jul2022 at  4:45:53

     R & G space division:  proc/nbgrp/npool/nimage =      37
     Fft bands division:     nmany     =       1
     Reading input from Zn2Mo2.in
Warning: card &CELL ignored
Warning: card / ignored

     Current dimensions of program PWSCF are:
     Max number of different atomic species (ntypx) = 10
     Max number of k-points (npk) =  40000
     Max angular momentum in pseudopotentials (lmaxx) =  3
     Presently stress not available with electric field and gates

     Message from routine cell_base_init:
     DEPRECATED: use true lattice parameter, not A to a.u. conversion factor
     file Zn.pbe-dnl-rrkjus_psl.1.0.0.UPF: wavefunction(s)  3D renormalized
     file Mo.pbe-spn-rrkjus_psl.1.0.0.UPF: wavefunction(s)  4S renormalized

     IMPORTANT: XC functional enforced from input :
     Exchange-correlation= BEEF-VDW
                           (   1   4  43  14   2   0   0)
     Any further DFT definition will be discarded
     Please, verify this is what you really want

     Subspace diagonalization in iterative solution of the eigenvalue problem:
     a serial algorithm will be used

     Found symmetry operation: I + (  0.5000  0.0000  0.0000)
     This is a supercell, fractional translations are disabled

     bravais-lattice index     =            0
     lattice parameter (alat)  =       1.8897  a.u.
     unit-cell volume          =    4409.3736 (a.u.)^3
     number of atoms/cell      =           12
     number of atomic types    =            2
     number of electrons       =       156.00
     number of Kohn-Sham states=           94
     kinetic-energy cutoff     =      55.1240  Ry
     charge density cutoff     =     551.2396  Ry
     convergence threshold     =      1.0E-05
     mixing beta               =       0.1000
     number of iterations used =           10  plain     mixing
     Exchange-correlation= BEEF-VDW
                           (   1   4  43  14   2   0   0)

     celldm(1)=   1.889726  celldm(2)=   0.000000  celldm(3)=   0.000000
     celldm(4)=   0.000000  celldm(5)=   0.000000  celldm(6)=   0.000000

     crystal axes: (cart. coord. in units of alat)
               a(1) = (   5.309837   0.000000   0.000000 )
               a(2) = (  -2.654918   5.021236   0.000000 )
               a(3) = (   0.000000   0.000000  24.506910 )

     reciprocal axes: (cart. coord. in units 2 pi/alat)
               b(1) = (  0.188330  0.099577 -0.000000 )
               b(2) = (  0.000000  0.199154  0.000000 )
               b(3) = (  0.000000 -0.000000  0.040805 )

     PseudoPot. # 1 for Zn read from file:
     ../pseudo/Zn.pbe-dnl-rrkjus_psl.1.0.0.UPF
     MD5 check sum: 7f56cabf9682ed8c977c2f7d0c5985c5
     Pseudo is Ultrasoft + core correction, Zval = 12.0
     Generated using "atomic" code by A. Dal Corso v.6.2.2
     Using radial grid of 1201 points,  6 beta functions with:
                l(1) =   0
                l(2) =   0
                l(3) =   1
                l(4) =   1
                l(5) =   2
                l(6) =   2
     Q(r) pseudized with 0 coefficients

     PseudoPot. # 2 for Mo read from file:
     ../pseudo/Mo.pbe-spn-rrkjus_psl.1.0.0.UPF
     MD5 check sum: 03f09b12e49601d1a456a78ce8b2d514
     Pseudo is Ultrasoft + core correction, Zval = 14.0
     Generated using "atomic" code by A. Dal Corso v.6.3
     Using radial grid of 1229 points,  6 beta functions with:
                l(1) =   0
                l(2) =   0
                l(3) =   1
                l(4) =   1
                l(5) =   2
                l(6) =   2
     Q(r) pseudized with 0 coefficients

     atomic species   valence    mass     pseudopotential
        Zn            12.00    65.38000     Zn( 1.00)
        Mo            14.00    95.95000     Mo( 1.00)

     No symmetry found

   Cartesian axes

     site n.     atom                  positions (alat units)
         1           Zn  tau(   1) = (   0.0000000   0.0000000  10.0000000  )
         2           Zn  tau(   2) = (   2.6549184   0.0000000  10.0000000  )
         3           Mo  tau(   3) = (   1.3274592   2.5106179  10.0000000  )
         4           Mo  tau(   4) = (  -1.3274592   2.5106179  10.0000000  )
         5           Zn  tau(   5) = (   2.6549184   1.4037564  12.2534551  )
         6           Zn  tau(   6) = (   0.0000000   1.4037564  12.2534551  )
         7           Mo  tau(   7) = (  -1.3274592   3.9143743  12.2534551  )
         8           Mo  tau(   8) = (   1.3274592   3.9143743  12.2534551  )
         9           Zn  tau(   9) = (  -0.0000718   2.7621663  14.6840871  )
        10           Zn  tau(  10) = (   2.6548385   2.7621529  14.6840790  )
        11           Mo  tau(  11) = (   3.9826059   0.2386438  14.4070153  )
        12           Mo  tau(  12) = (   1.3276808   0.2386752  14.4070846  )

     number of k points=    74  Fermi-Dirac smearing, width (Ry)=  0.0100
                       cart. coord. in units 2pi/alat
        k(    1) = (   0.0000000   0.0000000   0.0000000), wk =   0.0138889
        k(    2) = (   0.0000000   0.0165962   0.0000000), wk =   0.0277778
        k(    3) = (   0.0000000   0.0331924   0.0000000), wk =   0.0277778
        k(    4) = (   0.0000000   0.0497885   0.0000000), wk =   0.0277778
        k(    5) = (   0.0000000   0.0663847   0.0000000), wk =   0.0277778
        k(    6) = (   0.0000000   0.0829809   0.0000000), wk =   0.0277778
        k(    7) = (   0.0000000  -0.0995771   0.0000000), wk =   0.0138889
        k(    8) = (   0.0156941   0.0082981   0.0000000), wk =   0.0277778
        k(    9) = (   0.0156941   0.0248943   0.0000000), wk =   0.0277778
        k(   10) = (   0.0156941   0.0414904   0.0000000), wk =   0.0277778
        k(   11) = (   0.0156941   0.0580866   0.0000000), wk =   0.0277778
        k(   12) = (   0.0156941   0.0746828   0.0000000), wk =   0.0277778
        k(   13) = (   0.0156941   0.0912790   0.0000000), wk =   0.0277778
        k(   14) = (   0.0156941  -0.0912790   0.0000000), wk =   0.0277778
        k(   15) = (   0.0156941  -0.0746828   0.0000000), wk =   0.0277778
        k(   16) = (   0.0156941  -0.0580866   0.0000000), wk =   0.0277778
        k(   17) = (   0.0156941  -0.0414904   0.0000000), wk =   0.0277778
        k(   18) = (   0.0156941  -0.0248943   0.0000000), wk =   0.0277778
        k(   19) = (   0.0156941  -0.0082981   0.0000000), wk =   0.0277778
        k(   20) = (   0.0313883   0.0165962   0.0000000), wk =   0.0277778
        k(   21) = (   0.0313883   0.0331924   0.0000000), wk =   0.0277778
        k(   22) = (   0.0313883   0.0497885   0.0000000), wk =   0.0277778
        k(   23) = (   0.0313883   0.0663847   0.0000000), wk =   0.0277778
        k(   24) = (   0.0313883   0.0829809   0.0000000), wk =   0.0277778
        k(   25) = (   0.0313883   0.0995771   0.0000000), wk =   0.0277778
        k(   26) = (   0.0313883  -0.0829809   0.0000000), wk =   0.0277778
        k(   27) = (   0.0313883  -0.0663847   0.0000000), wk =   0.0277778
        k(   28) = (   0.0313883  -0.0497885   0.0000000), wk =   0.0277778
        k(   29) = (   0.0313883  -0.0331924   0.0000000), wk =   0.0277778
        k(   30) = (   0.0313883  -0.0165962   0.0000000), wk =   0.0277778
        k(   31) = (   0.0313883  -0.0000000   0.0000000), wk =   0.0277778
        k(   32) = (   0.0470824   0.0248943   0.0000000), wk =   0.0277778
        k(   33) = (   0.0470824   0.0414904   0.0000000), wk =   0.0277778
        k(   34) = (   0.0470824   0.0580866   0.0000000), wk =   0.0277778
        k(   35) = (   0.0470824   0.0746828   0.0000000), wk =   0.0277778
        k(   36) = (   0.0470824   0.0912790   0.0000000), wk =   0.0277778
        k(   37) = (   0.0470824   0.1078752   0.0000000), wk =   0.0277778
        k(   38) = (   0.0470824  -0.0746828   0.0000000), wk =   0.0277778
        k(   39) = (   0.0470824  -0.0580866   0.0000000), wk =   0.0277778
        k(   40) = (   0.0470824  -0.0414905   0.0000000), wk =   0.0277778
        k(   41) = (   0.0470824  -0.0248943   0.0000000), wk =   0.0277778
        k(   42) = (   0.0470824  -0.0082981   0.0000000), wk =   0.0277778
        k(   43) = (   0.0470824   0.0082981   0.0000000), wk =   0.0277778
        k(   44) = (   0.0627766   0.0331924   0.0000000), wk =   0.0277778
        k(   45) = (   0.0627766   0.0497885   0.0000000), wk =   0.0277778
        k(   46) = (   0.0627766   0.0663847   0.0000000), wk =   0.0277778
        k(   47) = (   0.0627766   0.0829809   0.0000000), wk =   0.0277778
        k(   48) = (   0.0627766   0.0995771   0.0000000), wk =   0.0277778
        k(   49) = (   0.0627766   0.1161732   0.0000000), wk =   0.0277778
        k(   50) = (   0.0627766  -0.0663847   0.0000000), wk =   0.0277778
        k(   51) = (   0.0627766  -0.0497885   0.0000000), wk =   0.0277778
        k(   52) = (   0.0627766  -0.0331924   0.0000000), wk =   0.0277778
        k(   53) = (   0.0627766  -0.0165962   0.0000000), wk =   0.0277778
        k(   54) = (   0.0627766  -0.0000000   0.0000000), wk =   0.0277778
        k(   55) = (   0.0627766   0.0165962   0.0000000), wk =   0.0277778
        k(   56) = (   0.0784707   0.0414904   0.0000000), wk =   0.0277778
        k(   57) = (   0.0784707   0.0580866   0.0000000), wk =   0.0277778
        k(   58) = (   0.0784707   0.0746828   0.0000000), wk =   0.0277778
        k(   59) = (   0.0784707   0.0912790   0.0000000), wk =   0.0277778
        k(   60) = (   0.0784707   0.1078752   0.0000000), wk =   0.0277778
        k(   61) = (   0.0784707   0.1244713   0.0000000), wk =   0.0277778
        k(   62) = (   0.0784707  -0.0580866   0.0000000), wk =   0.0277778
        k(   63) = (   0.0784707  -0.0414905   0.0000000), wk =   0.0277778
        k(   64) = (   0.0784707  -0.0248943   0.0000000), wk =   0.0277778
        k(   65) = (   0.0784707  -0.0082981   0.0000000), wk =   0.0277778
        k(   66) = (   0.0784707   0.0082981   0.0000000), wk =   0.0277778
        k(   67) = (   0.0784707   0.0248943   0.0000000), wk =   0.0277778
        k(   68) = (  -0.0941648  -0.0497885   0.0000000), wk =   0.0138889
        k(   69) = (  -0.0941648  -0.0331923   0.0000000), wk =   0.0277778
        k(   70) = (  -0.0941648  -0.0165962   0.0000000), wk =   0.0277778
        k(   71) = (  -0.0941648   0.0000000   0.0000000), wk =   0.0277778
        k(   72) = (  -0.0941648   0.0165962   0.0000000), wk =   0.0277778
        k(   73) = (  -0.0941648   0.0331924   0.0000000), wk =   0.0277778
        k(   74) = (  -0.0941648  -0.1493656   0.0000000), wk =   0.0138889

     Initial potential from superposition of free atoms

     starting charge  155.97237, renormalised to  156.00000

     negative rho (up, down):  4.436E-04 0.000E+00

     %%%%%%%%%%%%%%%%%%%%%%%%%%%%%%%%%%%%%%%%%%%%%%%%%%%%%%%%%%%%%%%%%%%%%%%%
     %                                                                      %
     % You are using vdW-DF, which was implemented by the Thonhauser group. %
     % Please cite the following two papers that made this development      %
     % possible and the two reviews that describe the various versions:     %
     %                                                                      %
     %   T. Thonhauser et al., PRL 115, 136402 (2015).                      %
     %   T. Thonhauser et al., PRB 76, 125112 (2007).                       %
     %   K. Berland et al., Rep. Prog. Phys. 78, 066501 (2015).             %
     %   D.C. Langreth et al., J. Phys.: Condens. Matter 21, 084203 (2009). %
     %                                                                      %
     %                                                                      %
     % If you are calculating the stress with vdW-DF, please also cite:     %
     %                                                                      %
     %   R. Sabatini et al., J. Phys.: Condens. Matter 24, 424209 (2012).   %
     %                                                                      %
     %%%%%%%%%%%%%%%%%%%%%%%%%%%%%%%%%%%%%%%%%%%%%%%%%%%%%%%%%%%%%%%%%%%%%%%%

     Adding external electric field

     Computed dipole along edir(3) :
        Dipole                0.0017 Ry au,          0.0043 Debye
        Dipole field          0.0000 Ry au,

        Potential amp.       -0.0004 Ry
        Total length         45.1536 bohr

     Starting wfcs are  114 randomized atomic wfcs

     Self-consistent Calculation

     iteration #  1     ecut=    55.12 Ry     beta= 0.10
     Davidson diagonalization with overlap
     ethr =  1.00E-02,  avg # of iterations =  2.4

[...]

     total energy              =   -1738.31755256 Ry
     estimated scf accuracy    <       2.39793438 Ry

[...]

     total energy              =   -1738.45115445 Ry
     estimated scf accuracy    <       0.00001244 Ry

     iteration # 16     ecut=    55.12 Ry     beta= 0.10
     Davidson diagonalization with overlap
     ethr =  7.97E-09,  avg # of iterations =  2.0

[...]

     Adding external electric field

     Computed dipole along edir(3) :
        Dipole               -0.0070 Ry au,         -0.0178 Debye
        Dipole field         -0.0000 Ry au,

        Potential amp.        0.0018 Ry
        Total length         45.1536 bohr

     End of self-consistent calculation

          k = 0.0000 0.0000 0.0000 ( 30509 PWs)   bands (ev):

   -60.2248 -60.0752 -60.0694 -60.0229 -59.9222 -59.8769 -34.7716 -34.7362
   -34.5939 -34.5786 -34.5554 -34.2858 -34.1590 -34.1462 -34.1125 -34.0882
   -34.0227 -33.9746 -33.9498 -33.6853 -33.6031 -33.5709 -33.4503 -33.4219
    -7.3213  -6.7895  -6.7570  -6.6932  -6.6025  -6.5628  -6.5052  -6.4740
    -6.4680  -6.4418  -6.3780  -6.3160  -6.2826  -6.1851  -6.1146  -6.0656
    -6.0519  -6.0466  -6.0366  -6.0256  -5.9774  -5.9565  -5.8971  -5.8876
    -5.8109  -5.7436  -5.7042  -5.6726  -5.6512  -5.6190  -5.4978  -5.1926
    -3.7987  -3.2460  -2.9926  -2.2910  -2.2004  -2.0144  -1.7373  -1.6693
    -1.5035  -0.8756  -0.8628  -0.6698  -0.4885  -0.4183  -0.2133  -0.0350
     0.5786   0.6124   0.7481   1.0877   1.1990   1.4643   1.4773   1.7967
     1.9350   1.9600   2.0915   2.3743   2.4537   2.4835   2.9676   3.0904
     3.1525   3.1683   3.2755   3.3795   3.4652   3.7047

[...]

          k = 0.0785 0.0249 0.0000 ( 30514 PWs)   bands (ev):

[...]

          k =-0.0942-0.0498 0.0000 ( 30468 PWs)   bands (ev):

[...]

          k =-0.0942-0.1494 0.0000 ( 30468 PWs)   bands (ev):

   -60.1506 -60.1506 -59.9964 -59.9964 -59.9503 -59.9502 -34.6586 -34.6585
   -34.2175 -34.2175 -34.2065 -34.2065 -34.0903 -34.0902 -34.0446 -34.0446
   -34.0390 -34.0390 -34.0198 -34.0197 -34.0058 -34.0057 -33.6284 -33.6283
    -6.5376  -6.5376  -6.4671  -6.4671  -6.4066  -6.4066  -6.3827  -6.3826
    -6.3518  -6.3518  -6.0938  -6.0938  -6.0608  -6.0608  -6.0276  -6.0276
    -5.9875  -5.9874  -5.9603  -5.9603  -5.9466  -5.9466  -5.9369  -5.9369
    -5.8776  -5.8776  -5.8622  -5.8622  -5.8446  -5.8446  -5.2961  -5.2961
    -4.0343  -4.0343  -2.9312  -2.9312  -1.9175  -1.9175  -1.4865  -1.4865
    -0.7330  -0.7330  -0.5690  -0.5690  -0.1545  -0.1545   0.0088   0.0089
     0.0917   0.0917   0.5799   0.5801   0.6459   0.6460   0.8203   0.8203
     1.1599   1.1600   1.4925   1.4925   2.0857   2.0858   2.4911   2.4911
     2.8071   2.8072   3.0700   3.0701   3.7164   3.7165

     the Fermi energy is     1.0166 ev

!    total energy              =   -1738.45115409 Ry
     estimated scf accuracy    <       0.00000231 Ry
     smearing contrib. (-TS)   =      -0.04793262 Ry
     internal energy E=F+TS    =   -1738.40322147 Ry

     The total energy is F=E-TS. E is the sum of the following terms:
     one-electron contribution =  -13768.43499342 Ry
     hartree contribution      =    6952.60595669 Ry
     xc contribution           =    -411.74774091 Ry
     ewald contribution        =    5489.17355603 Ry
     electric field correction =       0.00000014 Ry

     convergence has been achieved in  16 iterations

     negative rho (up, down):  5.150E-04 0.000E+00

     Forces acting on atoms (cartesian axes, Ry/au):

     atom    1 type  1   force =    -0.00000136    0.00267543   -0.02053414
     atom    2 type  1   force =     0.00000486    0.00267437   -0.02052837
     atom    3 type  2   force =     0.00000818    0.00295618    0.02230229
     atom    4 type  2   force =     0.00000614    0.00296013    0.02230525
     atom    5 type  1   force =     0.00002903    0.00719621   -0.00073819
     atom    6 type  1   force =    -0.00001636    0.00721834   -0.00072885
     atom    7 type  2   force =    -0.00001960   -0.01210936   -0.00077151
     atom    8 type  2   force =    -0.00001605   -0.01211538   -0.00078137
     atom    9 type  1   force =     0.00001829   -0.00085558    0.00042879
     atom   10 type  1   force =     0.00001501   -0.00084325    0.00042207
     atom   11 type  2   force =    -0.00001568    0.00012752   -0.00066794
     atom   12 type  2   force =    -0.00001246    0.00011539   -0.00070804

     Total force =     0.047667     Total SCF correction =     0.007319
     SCF correction compared to forces is large: reduce conv_thr to get better values

     Writing output data file ./Zn2Mo2/Zn2Mo2_beef.save/

     General routines

     Parallel routines

   This run was terminated on:   5:47:19  10Jul2022

   JOB DONE.