     Program PWSCF v.6.6 starts on 10Jul2022 at  3:49:37

     R & G space division:  proc/nbgrp/npool/nimage =      37
     Fft bands division:     nmany     =       1
     Reading input from Zn2Nb2.in
Warning: card &CELL ignored
Warning: card / ignored

     Current dimensions of program PWSCF are:
     Max number of different atomic species (ntypx) = 10
     Max number of k-points (npk) =  40000
     Max angular momentum in pseudopotentials (lmaxx) =  3
     Presently stress not available with electric field and gates

     Message from routine cell_base_init:
     DEPRECATED: use true lattice parameter, not A to a.u. conversion factor
     file Zn.pbe-dnl-rrkjus_psl.1.0.0.UPF: wavefunction(s)  3D renormalized
     file Nb.pbe-spn-rrkjus_psl.1.0.0.UPF: wavefunction(s)  4S 4P renormalized

     IMPORTANT: XC functional enforced from input :
     Exchange-correlation= BEEF-VDW
                           (   1   4  43  14   2   0   0)
     Any further DFT definition will be discarded
     Please, verify this is what you really want

     Subspace diagonalization in iterative solution of the eigenvalue problem:
     a serial algorithm will be used

     Found symmetry operation: I + (  0.5000 -0.5000  0.0000)
     This is a supercell, fractional translations are disabled

     bravais-lattice index     =            0
     lattice parameter (alat)  =       1.8897  a.u.
     unit-cell volume          =    4657.2878 (a.u.)^3
     number of atoms/cell      =           12
     number of atomic types    =            2
     number of electrons       =       150.00
     number of Kohn-Sham states=           90
     kinetic-energy cutoff     =      55.1240  Ry
     charge density cutoff     =     551.2396  Ry
     convergence threshold     =      1.0E-05
     mixing beta               =       0.1000
     number of iterations used =           10  plain     mixing
     Exchange-correlation= BEEF-VDW
                           (   1   4  43  14   2   0   0)

     celldm(1)=   1.889726  celldm(2)=   0.000000  celldm(3)=   0.000000
     celldm(4)=   0.000000  celldm(5)=   0.000000  celldm(6)=   0.000000

     crystal axes: (cart. coord. in units of alat)
               a(1) = (   5.678513   0.000000   0.000000 )
               a(2) = (   2.814702   4.931831   0.000000 )
               a(3) = (   0.000000   0.000000  24.643010 )

     reciprocal axes: (cart. coord. in units 2 pi/alat)
               b(1) = (  0.176102 -0.100505  0.000000 )
               b(2) = (  0.000000  0.202764  0.000000 )
               b(3) = (  0.000000  0.000000  0.040579 )

     PseudoPot. # 1 for Zn read from file:
     ../pseudo/Zn.pbe-dnl-rrkjus_psl.1.0.0.UPF
     MD5 check sum: 7f56cabf9682ed8c977c2f7d0c5985c5
     Pseudo is Ultrasoft + core correction, Zval = 12.0
     Generated using "atomic" code by A. Dal Corso v.6.2.2
     Using radial grid of 1201 points,  6 beta functions with:
                l(1) =   0
                l(2) =   0
                l(3) =   1
                l(4) =   1
                l(5) =   2
                l(6) =   2
     Q(r) pseudized with 0 coefficients

     PseudoPot. # 2 for Nb read from file:
     ../pseudo/Nb.pbe-spn-rrkjus_psl.1.0.0.UPF
     MD5 check sum: 6ee677a9f002bd3e3657f443f129faad
     Pseudo is Ultrasoft + core correction, Zval = 13.0
     Generated using "atomic" code by A. Dal Corso v.6.2.2
     Using radial grid of 1227 points,  6 beta functions with:
                l(1) =   0
                l(2) =   0
                l(3) =   1
                l(4) =   1
                l(5) =   2
                l(6) =   2
     Q(r) pseudized with 0 coefficients

     atomic species   valence    mass     pseudopotential
        Zn            12.00    65.38000     Zn( 1.00)
        Nb            13.00    92.90637     Nb( 1.00)

     No symmetry found

   Cartesian axes

     site n.     atom                  positions (alat units)
         1           Zn  tau(   1) = (   0.0000000   0.0000000  10.0000000  )
         2           Zn  tau(   2) = (   4.2466075   2.4659156  10.0000000  )
         3           Nb  tau(   3) = (   2.8392564   0.0000000  10.0000000  )
         4           Nb  tau(   4) = (   1.4073511   2.4659156  10.0000000  )
         5           Zn  tau(   5) = (   5.6785128   3.2973929  12.3215050  )
         6           Zn  tau(   6) = (   1.4319053   0.8314773  12.3215050  )
         7           Nb  tau(   7) = (   2.8392564   3.2973929  12.3215050  )
         8           Nb  tau(   8) = (   4.2711617   0.8314773  12.3215050  )
         9           Zn  tau(   9) = (   2.8371832   1.6475077  14.7490688  )
        10           Zn  tau(  10) = (   7.0837991   4.1134006  14.7490683  )
        11           Nb  tau(  11) = (   5.6831693   1.6514008  14.5508556  )
        12           Nb  tau(  12) = (   4.2512514   4.1173095  14.5508576  )

     number of k points=    74  Fermi-Dirac smearing, width (Ry)=  0.0100
                       cart. coord. in units 2pi/alat
        k(    1) = (   0.0000000   0.0000000   0.0000000), wk =   0.0138889
        k(    2) = (   0.0000000   0.0168970   0.0000000), wk =   0.0277778
        k(    3) = (   0.0000000   0.0337941   0.0000000), wk =   0.0277778
        k(    4) = (   0.0000000   0.0506911   0.0000000), wk =   0.0277778
        k(    5) = (   0.0000000   0.0675881   0.0000000), wk =   0.0277778
        k(    6) = (   0.0000000   0.0844852   0.0000000), wk =   0.0277778
        k(    7) = (   0.0000000  -0.1013822   0.0000000), wk =   0.0138889
        k(    8) = (   0.0146752  -0.0083755   0.0000000), wk =   0.0277778
        k(    9) = (   0.0146752   0.0085216   0.0000000), wk =   0.0277778
        k(   10) = (   0.0146752   0.0254186   0.0000000), wk =   0.0277778
        k(   11) = (   0.0146752   0.0423157   0.0000000), wk =   0.0277778
        k(   12) = (   0.0146752   0.0592127   0.0000000), wk =   0.0277778
        k(   13) = (   0.0146752   0.0761097   0.0000000), wk =   0.0277778
        k(   14) = (   0.0146752  -0.1097577   0.0000000), wk =   0.0277778
        k(   15) = (   0.0146752  -0.0928606   0.0000000), wk =   0.0277778
        k(   16) = (   0.0146752  -0.0759636   0.0000000), wk =   0.0277778
        k(   17) = (   0.0146752  -0.0590666   0.0000000), wk =   0.0277778
        k(   18) = (   0.0146752  -0.0421695   0.0000000), wk =   0.0277778
        k(   19) = (   0.0146752  -0.0252725   0.0000000), wk =   0.0277778
        k(   20) = (   0.0293504  -0.0167509   0.0000000), wk =   0.0277778
        k(   21) = (   0.0293504   0.0001461   0.0000000), wk =   0.0277778
        k(   22) = (   0.0293504   0.0170432   0.0000000), wk =   0.0277778
        k(   23) = (   0.0293504   0.0339402   0.0000000), wk =   0.0277778
        k(   24) = (   0.0293504   0.0508372   0.0000000), wk =   0.0277778
        k(   25) = (   0.0293504   0.0677343   0.0000000), wk =   0.0277778
        k(   26) = (   0.0293504  -0.1181331   0.0000000), wk =   0.0277778
        k(   27) = (   0.0293504  -0.1012361   0.0000000), wk =   0.0277778
        k(   28) = (   0.0293504  -0.0843391   0.0000000), wk =   0.0277778
        k(   29) = (   0.0293504  -0.0674420   0.0000000), wk =   0.0277778
        k(   30) = (   0.0293504  -0.0505450   0.0000000), wk =   0.0277778
        k(   31) = (   0.0293504  -0.0336479   0.0000000), wk =   0.0277778
        k(   32) = (   0.0440256  -0.0251264   0.0000000), wk =   0.0277778
        k(   33) = (   0.0440256  -0.0082293   0.0000000), wk =   0.0277778
        k(   34) = (   0.0440256   0.0086677   0.0000000), wk =   0.0277778
        k(   35) = (   0.0440256   0.0255648   0.0000000), wk =   0.0277778
        k(   36) = (   0.0440256   0.0424618   0.0000000), wk =   0.0277778
        k(   37) = (   0.0440256   0.0593588   0.0000000), wk =   0.0277778
        k(   38) = (   0.0440256  -0.1265086   0.0000000), wk =   0.0277778
        k(   39) = (   0.0440256  -0.1096115   0.0000000), wk =   0.0277778
        k(   40) = (   0.0440256  -0.0927145   0.0000000), wk =   0.0277778
        k(   41) = (   0.0440256  -0.0758175   0.0000000), wk =   0.0277778
        k(   42) = (   0.0440256  -0.0589204   0.0000000), wk =   0.0277778
        k(   43) = (   0.0440256  -0.0420234   0.0000000), wk =   0.0277778
        k(   44) = (   0.0587008  -0.0335018   0.0000000), wk =   0.0277778
        k(   45) = (   0.0587008  -0.0166048   0.0000000), wk =   0.0277778
        k(   46) = (   0.0587008   0.0002923   0.0000000), wk =   0.0277778
        k(   47) = (   0.0587008   0.0171893   0.0000000), wk =   0.0277778
        k(   48) = (   0.0587008   0.0340863   0.0000000), wk =   0.0277778
        k(   49) = (   0.0587008   0.0509834   0.0000000), wk =   0.0277778
        k(   50) = (   0.0587008  -0.1348840   0.0000000), wk =   0.0277778
        k(   51) = (   0.0587008  -0.1179870   0.0000000), wk =   0.0277778
        k(   52) = (   0.0587008  -0.1010900   0.0000000), wk =   0.0277778
        k(   53) = (   0.0587008  -0.0841929   0.0000000), wk =   0.0277778
        k(   54) = (   0.0587008  -0.0672959   0.0000000), wk =   0.0277778
        k(   55) = (   0.0587008  -0.0503989   0.0000000), wk =   0.0277778
        k(   56) = (   0.0733760  -0.0418773   0.0000000), wk =   0.0277778
        k(   57) = (   0.0733760  -0.0249802   0.0000000), wk =   0.0277778
        k(   58) = (   0.0733760  -0.0080832   0.0000000), wk =   0.0277778
        k(   59) = (   0.0733760   0.0088138   0.0000000), wk =   0.0277778
        k(   60) = (   0.0733760   0.0257109   0.0000000), wk =   0.0277778
        k(   61) = (   0.0733760   0.0426079   0.0000000), wk =   0.0277778
        k(   62) = (   0.0733760  -0.1432595   0.0000000), wk =   0.0277778
        k(   63) = (   0.0733760  -0.1263625   0.0000000), wk =   0.0277778
        k(   64) = (   0.0733760  -0.1094654   0.0000000), wk =   0.0277778
        k(   65) = (   0.0733760  -0.0925684   0.0000000), wk =   0.0277778
        k(   66) = (   0.0733760  -0.0756713   0.0000000), wk =   0.0277778
        k(   67) = (   0.0733760  -0.0587743   0.0000000), wk =   0.0277778
        k(   68) = (  -0.0880512   0.0502527   0.0000000), wk =   0.0138889
        k(   69) = (  -0.0880512   0.0671498   0.0000000), wk =   0.0277778
        k(   70) = (  -0.0880512   0.0840468   0.0000000), wk =   0.0277778
        k(   71) = (  -0.0880512   0.1009438   0.0000000), wk =   0.0277778
        k(   72) = (  -0.0880512   0.1178409   0.0000000), wk =   0.0277778
        k(   73) = (  -0.0880512   0.1347379   0.0000000), wk =   0.0277778
        k(   74) = (  -0.0880512  -0.0511295   0.0000000), wk =   0.0138889

     Initial potential from superposition of free atoms

     starting charge  149.96980, renormalised to  150.00000

     negative rho (up, down):  8.641E-04 0.000E+00

     %%%%%%%%%%%%%%%%%%%%%%%%%%%%%%%%%%%%%%%%%%%%%%%%%%%%%%%%%%%%%%%%%%%%%%%%
     %                                                                      %
     % You are using vdW-DF, which was implemented by the Thonhauser group. %
     % Please cite the following two papers that made this development      %
     % possible and the two reviews that describe the various versions:     %
     %                                                                      %
     %   T. Thonhauser et al., PRL 115, 136402 (2015).                      %
     %   T. Thonhauser et al., PRB 76, 125112 (2007).                       %
     %   K. Berland et al., Rep. Prog. Phys. 78, 066501 (2015).             %
     %   D.C. Langreth et al., J. Phys.: Condens. Matter 21, 084203 (2009). %
     %                                                                      %
     %                                                                      %
     % If you are calculating the stress with vdW-DF, please also cite:     %
     %                                                                      %
     %   R. Sabatini et al., J. Phys.: Condens. Matter 24, 424209 (2012).   %
     %                                                                      %
     %%%%%%%%%%%%%%%%%%%%%%%%%%%%%%%%%%%%%%%%%%%%%%%%%%%%%%%%%%%%%%%%%%%%%%%%

     Adding external electric field

     Computed dipole along edir(3) :
        Dipole                0.0010 Ry au,          0.0025 Debye
        Dipole field          0.0000 Ry au,

        Potential amp.       -0.0002 Ry
        Total length         45.4043 bohr

     Starting wfcs are  132 randomized atomic wfcs

     Self-consistent Calculation

     iteration #  1     ecut=    55.12 Ry     beta= 0.10
     Davidson diagonalization with overlap
     ethr =  1.00E-02,  avg # of iterations =  2.0

[...]

     total energy              =   -1609.38500031 Ry
     estimated scf accuracy    <       2.37113280 Ry

[...]

     iteration #  8     ecut=    55.12 Ry     beta= 0.10
     Davidson diagonalization with overlap
     c_bands:  2 eigenvalues not converged
     ethr =  6.98E-06,  avg # of iterations = 10.1

[...]

     iteration # 11     ecut=    55.12 Ry     beta= 0.10
     Davidson diagonalization with overlap
     c_bands:  1 eigenvalues not converged
     ethr =  1.27E-06,  avg # of iterations =  2.3

[...]

     total energy              =   -1609.53079975 Ry
     estimated scf accuracy    <       0.00002311 Ry

     iteration # 15     ecut=    55.12 Ry     beta= 0.10
     Davidson diagonalization with overlap
     ethr =  1.54E-08,  avg # of iterations =  2.1

[...]

     Adding external electric field

     Computed dipole along edir(3) :
        Dipole               -0.0308 Ry au,         -0.0782 Debye
        Dipole field         -0.0001 Ry au,

        Potential amp.        0.0075 Ry
        Total length         45.4043 bohr

     End of self-consistent calculation

          k = 0.0000 0.0000 0.0000 ( 32223 PWs)   bands (ev):

   -54.2608 -54.1799 -54.1580 -54.0760 -54.0272 -53.9235 -30.5661 -30.5435
   -30.5163 -30.4262 -30.4209 -30.3654 -30.2952 -30.2605 -30.2400 -30.1975
   -30.1617 -30.1362 -30.0400 -29.7498 -29.6741 -29.6578 -29.6175 -29.5342
    -6.8313  -6.5118  -6.5015  -6.4482  -6.3815  -6.3490  -6.3333  -6.3118
    -6.2849  -6.2827  -6.2639  -6.2119  -6.1726  -6.0744  -6.0728  -6.0282
    -6.0249  -6.0067  -6.0013  -5.9753  -5.9440  -5.9409  -5.9028  -5.8918
    -5.8353  -5.8313  -5.7814  -5.7483  -5.7041  -5.6946  -5.5776  -4.9384
    -3.6852  -3.1914  -2.4298  -2.1970  -1.1693  -1.1074  -0.8883  -0.7573
    -0.6996  -0.6628  -0.2808   0.0744   0.2188   0.3602   0.4114   0.4919
     1.0633   1.1385   1.2628   1.4244   1.5776   1.7824   1.9012   2.1173
     2.3037   2.3595   2.5465   2.9009   3.0286   3.2344   3.5093   3.5610
     3.6083   3.6546

[...]

          k = 0.0734-0.0588 0.0000 ( 32211 PWs)   bands (ev):

[...]

          k =-0.0881 0.0503 0.0000 ( 32166 PWs)   bands (ev):

[...]

          k =-0.0881-0.0511 0.0000 ( 32174 PWs)   bands (ev):

   -54.2606 -54.1795 -54.1580 -54.0761 -54.0276 -53.9229 -30.5698 -30.5492
   -30.5183 -30.4243 -30.4194 -30.3687 -30.3092 -30.2588 -30.2467 -30.1884
   -30.1487 -30.1338 -30.0523 -29.7488 -29.6741 -29.6593 -29.6173 -29.5352
    -6.5315  -6.4016  -6.3407  -6.3296  -6.3091  -6.2470  -6.2412  -6.2351
    -6.2077  -6.1456  -6.0994  -6.0661  -6.0126  -5.9987  -5.9939  -5.9850
    -5.9821  -5.9787  -5.9426  -5.9299  -5.8939  -5.8843  -5.8558  -5.7966
    -5.7868  -5.7562  -5.7430  -5.7085  -5.6933  -5.5700  -5.1015  -4.7482
    -3.1545  -2.9898  -2.4362  -2.3524  -2.1990  -1.8627  -1.7647  -1.4523
    -1.1659  -1.1148  -1.0134  -0.8622  -0.8040  -0.6474  -0.3215  -0.0665
     0.1059   0.2039   0.4040   0.4676   1.4135   1.9173   1.9379   2.2342
     2.2607   2.6666   2.8266   2.9903   3.0393   3.2619   3.3740   3.4574
     3.7032   3.8716

     the Fermi energy is     1.0129 ev

!    total energy              =   -1609.53080224 Ry
     estimated scf accuracy    <       0.00000165 Ry
     smearing contrib. (-TS)   =      -0.04899002 Ry
     internal energy E=F+TS    =   -1609.48181223 Ry

     The total energy is F=E-TS. E is the sum of the following terms:
     one-electron contribution =  -12063.92593863 Ry
     hartree contribution      =    6101.04342146 Ry
     xc contribution           =    -405.95045145 Ry
     ewald contribution        =    4759.35115383 Ry
     electric field correction =       0.00000255 Ry

     convergence has been achieved in  15 iterations

     negative rho (up, down):  8.966E-04 0.000E+00

     Forces acting on atoms (cartesian axes, Ry/au):

     atom    1 type  1   force =     0.00446120    0.00259432   -0.01243440
     atom    2 type  1   force =     0.00446574    0.00258859   -0.01242063
     atom    3 type  2   force =     0.00089195    0.00051618    0.02032978
     atom    4 type  2   force =     0.00089111    0.00051932    0.02032805
     atom    5 type  1   force =     0.00309201    0.00179568   -0.00976105
     atom    6 type  1   force =     0.00306568    0.00177795   -0.00975693
     atom    7 type  2   force =    -0.00790633   -0.00458840    0.00140623
     atom    8 type  2   force =    -0.00790258   -0.00459412    0.00140809
     atom    9 type  1   force =    -0.00007517   -0.00004019   -0.00018797
     atom   10 type  1   force =    -0.00008989   -0.00005077   -0.00018486
     atom   11 type  2   force =    -0.00045303   -0.00025844    0.00063754
     atom   12 type  2   force =    -0.00044068   -0.00026011    0.00063615

     Total force =     0.039739     Total SCF correction =     0.003631

     Writing output data file ./Zn2Nb2/Zn2Nb2_beef.save/

     General routines

     Parallel routines

   This run was terminated on:   4:36:57  10Jul2022

   JOB DONE.