     Program PWSCF v.6.6 starts on  9Jul2022 at 23: 5:10

     R & G space division:  proc/nbgrp/npool/nimage =      37
     Fft bands division:     nmany     =       1
     Reading input from Zn2Os2.in
Warning: card &CELL ignored
Warning: card / ignored

     Current dimensions of program PWSCF are:
     Max number of different atomic species (ntypx) = 10
     Max number of k-points (npk) =  40000
     Max angular momentum in pseudopotentials (lmaxx) =  3
     Presently stress not available with electric field and gates

     Message from routine cell_base_init:
     DEPRECATED: use true lattice parameter, not A to a.u. conversion factor
     file Zn.pbe-dnl-rrkjus_psl.1.0.0.UPF: wavefunction(s)  3D renormalized

     IMPORTANT: XC functional enforced from input :
     Exchange-correlation= BEEF-VDW
                           (   1   4  43  14   2   0   0)
     Any further DFT definition will be discarded
     Please, verify this is what you really want

     Subspace diagonalization in iterative solution of the eigenvalue problem:
     a serial algorithm will be used

     bravais-lattice index     =            0
     lattice parameter (alat)  =       1.8897  a.u.
     unit-cell volume          =    4298.0028 (a.u.)^3
     number of atoms/cell      =           12
     number of atomic types    =            2
     number of electrons       =       168.00
     number of Kohn-Sham states=          101
     kinetic-energy cutoff     =      55.1240  Ry
     charge density cutoff     =     551.2396  Ry
     convergence threshold     =      1.0E-05
     mixing beta               =       0.1000
     number of iterations used =           10  plain     mixing
     Exchange-correlation= BEEF-VDW
                           (   1   4  43  14   2   0   0)

     celldm(1)=   1.889726  celldm(2)=   0.000000  celldm(3)=   0.000000
     celldm(4)=   0.000000  celldm(5)=   0.000000  celldm(6)=   0.000000

     crystal axes: (cart. coord. in units of alat)
               a(1) = (   5.315639   0.000000   0.000000 )
               a(2) = (  -2.657819   4.897488   0.000000 )
               a(3) = (   0.000000   0.000000  24.464780 )

     reciprocal axes: (cart. coord. in units 2 pi/alat)
               b(1) = (  0.188124  0.102093 -0.000000 )
               b(2) = (  0.000000  0.204186  0.000000 )
               b(3) = (  0.000000 -0.000000  0.040875 )

     PseudoPot. # 1 for Zn read from file:
     ../pseudo/Zn.pbe-dnl-rrkjus_psl.1.0.0.UPF
     MD5 check sum: 7f56cabf9682ed8c977c2f7d0c5985c5
     Pseudo is Ultrasoft + core correction, Zval = 12.0
     Generated using "atomic" code by A. Dal Corso v.6.2.2
     Using radial grid of 1201 points,  6 beta functions with:
                l(1) =   0
                l(2) =   0
                l(3) =   1
                l(4) =   1
                l(5) =   2
                l(6) =   2
     Q(r) pseudized with 0 coefficients

     PseudoPot. # 2 for Os read from file:
     ../pseudo/Os.pbe-spn-rrkjus_psl.1.0.0.UPF
     MD5 check sum: 3e7416ed594f6513d36e5cb31ba709d9
     Pseudo is Ultrasoft + core correction, Zval = 16.0
     Generated using "atomic" code by A. Dal Corso v.6.2.2
     Using radial grid of 1275 points,  6 beta functions with:
                l(1) =   0
                l(2) =   0
                l(3) =   1
                l(4) =   1
                l(5) =   2
                l(6) =   2
     Q(r) pseudized with 0 coefficients

     atomic species   valence    mass     pseudopotential
        Zn            12.00    65.38000     Zn( 1.00)
        Os            16.00   190.23000     Os( 1.00)

     No symmetry found

   Cartesian axes

     site n.     atom                  positions (alat units)
         1           Zn  tau(   1) = (   0.0000000   0.0000000  10.0000000  )
         2           Zn  tau(   2) = (   2.6578195   0.0000000  10.0000000  )
         3           Os  tau(   3) = (   1.3289097   2.4487439  10.0000000  )
         4           Os  tau(   4) = (  -1.3289097   2.4487439  10.0000000  )
         5           Zn  tau(   5) = (   2.6578195   1.4423731  12.2323898  )
         6           Zn  tau(   6) = (  -0.0000000   1.4423731  12.2323898  )
         7           Os  tau(   7) = (  -1.3289097   3.8911169  12.2323898  )
         8           Os  tau(   8) = (   1.3289097   3.8911169  12.2323898  )
         9           Zn  tau(   9) = (  -0.0002666   2.6650526  14.6507602  )
        10           Zn  tau(  10) = (   2.6577001   2.6650547  14.6507621  )
        11           Os  tau(  11) = (   3.9866250   0.1806065  14.3326260  )
        12           Os  tau(  12) = (   1.3288067   0.1806801  14.3326549  )

     number of k points=    74  Fermi-Dirac smearing, width (Ry)=  0.0100
                       cart. coord. in units 2pi/alat
        k(    1) = (   0.0000000   0.0000000   0.0000000), wk =   0.0138889
        k(    2) = (   0.0000000   0.0170155   0.0000000), wk =   0.0277778
        k(    3) = (   0.0000000   0.0340311   0.0000000), wk =   0.0277778
        k(    4) = (   0.0000000   0.0510466   0.0000000), wk =   0.0277778
        k(    5) = (   0.0000000   0.0680621   0.0000000), wk =   0.0277778
        k(    6) = (   0.0000000   0.0850776   0.0000000), wk =   0.0277778
        k(    7) = (   0.0000000  -0.1020932   0.0000000), wk =   0.0138889
        k(    8) = (   0.0156770   0.0085078   0.0000000), wk =   0.0277778
        k(    9) = (   0.0156770   0.0255233   0.0000000), wk =   0.0277778
        k(   10) = (   0.0156770   0.0425388   0.0000000), wk =   0.0277778
        k(   11) = (   0.0156770   0.0595543   0.0000000), wk =   0.0277778
        k(   12) = (   0.0156770   0.0765699   0.0000000), wk =   0.0277778
        k(   13) = (   0.0156770   0.0935854   0.0000000), wk =   0.0277778
        k(   14) = (   0.0156770  -0.0935854   0.0000000), wk =   0.0277778
        k(   15) = (   0.0156770  -0.0765699   0.0000000), wk =   0.0277778
        k(   16) = (   0.0156770  -0.0595543   0.0000000), wk =   0.0277778
        k(   17) = (   0.0156770  -0.0425388   0.0000000), wk =   0.0277778
        k(   18) = (   0.0156770  -0.0255233   0.0000000), wk =   0.0277778
        k(   19) = (   0.0156770  -0.0085078   0.0000000), wk =   0.0277778
        k(   20) = (   0.0313540   0.0170155   0.0000000), wk =   0.0277778
        k(   21) = (   0.0313540   0.0340310   0.0000000), wk =   0.0277778
        k(   22) = (   0.0313540   0.0510466   0.0000000), wk =   0.0277778
        k(   23) = (   0.0313540   0.0680621   0.0000000), wk =   0.0277778
        k(   24) = (   0.0313540   0.0850776   0.0000000), wk =   0.0277778
        k(   25) = (   0.0313540   0.1020932   0.0000000), wk =   0.0277778
        k(   26) = (   0.0313540  -0.0850776   0.0000000), wk =   0.0277778
        k(   27) = (   0.0313540  -0.0680621   0.0000000), wk =   0.0277778
        k(   28) = (   0.0313540  -0.0510466   0.0000000), wk =   0.0277778
        k(   29) = (   0.0313540  -0.0340311   0.0000000), wk =   0.0277778
        k(   30) = (   0.0313540  -0.0170155   0.0000000), wk =   0.0277778
        k(   31) = (   0.0313540  -0.0000000   0.0000000), wk =   0.0277778
        k(   32) = (   0.0470310   0.0255233   0.0000000), wk =   0.0277778
        k(   33) = (   0.0470310   0.0425388   0.0000000), wk =   0.0277778
        k(   34) = (   0.0470310   0.0595543   0.0000000), wk =   0.0277778
        k(   35) = (   0.0470310   0.0765699   0.0000000), wk =   0.0277778
        k(   36) = (   0.0470310   0.0935854   0.0000000), wk =   0.0277778
        k(   37) = (   0.0470310   0.1106009   0.0000000), wk =   0.0277778
        k(   38) = (   0.0470310  -0.0765699   0.0000000), wk =   0.0277778
        k(   39) = (   0.0470310  -0.0595543   0.0000000), wk =   0.0277778
        k(   40) = (   0.0470310  -0.0425388   0.0000000), wk =   0.0277778
        k(   41) = (   0.0470310  -0.0255233   0.0000000), wk =   0.0277778
        k(   42) = (   0.0470310  -0.0085078   0.0000000), wk =   0.0277778
        k(   43) = (   0.0470310   0.0085078   0.0000000), wk =   0.0277778
        k(   44) = (   0.0627080   0.0340310   0.0000000), wk =   0.0277778
        k(   45) = (   0.0627080   0.0510466   0.0000000), wk =   0.0277778
        k(   46) = (   0.0627080   0.0680621   0.0000000), wk =   0.0277778
        k(   47) = (   0.0627080   0.0850776   0.0000000), wk =   0.0277778
        k(   48) = (   0.0627080   0.1020931   0.0000000), wk =   0.0277778
        k(   49) = (   0.0627080   0.1191087   0.0000000), wk =   0.0277778
        k(   50) = (   0.0627080  -0.0680621   0.0000000), wk =   0.0277778
        k(   51) = (   0.0627080  -0.0510466   0.0000000), wk =   0.0277778
        k(   52) = (   0.0627080  -0.0340311   0.0000000), wk =   0.0277778
        k(   53) = (   0.0627080  -0.0170155   0.0000000), wk =   0.0277778
        k(   54) = (   0.0627080  -0.0000000   0.0000000), wk =   0.0277778
        k(   55) = (   0.0627080   0.0170155   0.0000000), wk =   0.0277778
        k(   56) = (   0.0783851   0.0425388   0.0000000), wk =   0.0277778
        k(   57) = (   0.0783851   0.0595543   0.0000000), wk =   0.0277778
        k(   58) = (   0.0783851   0.0765699   0.0000000), wk =   0.0277778
        k(   59) = (   0.0783851   0.0935854   0.0000000), wk =   0.0277778
        k(   60) = (   0.0783851   0.1106009   0.0000000), wk =   0.0277778
        k(   61) = (   0.0783851   0.1276164   0.0000000), wk =   0.0277778
        k(   62) = (   0.0783851  -0.0595543   0.0000000), wk =   0.0277778
        k(   63) = (   0.0783851  -0.0425388   0.0000000), wk =   0.0277778
        k(   64) = (   0.0783851  -0.0255233   0.0000000), wk =   0.0277778
        k(   65) = (   0.0783851  -0.0085078   0.0000000), wk =   0.0277778
        k(   66) = (   0.0783851   0.0085078   0.0000000), wk =   0.0277778
        k(   67) = (   0.0783851   0.0255233   0.0000000), wk =   0.0277778
        k(   68) = (  -0.0940621  -0.0510466   0.0000000), wk =   0.0138889
        k(   69) = (  -0.0940621  -0.0340310   0.0000000), wk =   0.0277778
        k(   70) = (  -0.0940621  -0.0170155   0.0000000), wk =   0.0277778
        k(   71) = (  -0.0940621   0.0000000   0.0000000), wk =   0.0277778
        k(   72) = (  -0.0940621   0.0170155   0.0000000), wk =   0.0277778
        k(   73) = (  -0.0940621   0.0340311   0.0000000), wk =   0.0277778
        k(   74) = (  -0.0940621  -0.1531397   0.0000000), wk =   0.0138889

     Initial potential from superposition of free atoms

     starting charge  167.97619, renormalised to  168.00000

     negative rho (up, down):  3.931E-04 0.000E+00

     %%%%%%%%%%%%%%%%%%%%%%%%%%%%%%%%%%%%%%%%%%%%%%%%%%%%%%%%%%%%%%%%%%%%%%%%
     %                                                                      %
     % You are using vdW-DF, which was implemented by the Thonhauser group. %
     % Please cite the following two papers that made this development      %
     % possible and the two reviews that describe the various versions:     %
     %                                                                      %
     %   T. Thonhauser et al., PRL 115, 136402 (2015).                      %
     %   T. Thonhauser et al., PRB 76, 125112 (2007).                       %
     %   K. Berland et al., Rep. Prog. Phys. 78, 066501 (2015).             %
     %   D.C. Langreth et al., J. Phys.: Condens. Matter 21, 084203 (2009). %
     %                                                                      %
     %                                                                      %
     % If you are calculating the stress with vdW-DF, please also cite:     %
     %                                                                      %
     %   R. Sabatini et al., J. Phys.: Condens. Matter 24, 424209 (2012).   %
     %                                                                      %
     %%%%%%%%%%%%%%%%%%%%%%%%%%%%%%%%%%%%%%%%%%%%%%%%%%%%%%%%%%%%%%%%%%%%%%%%

     Adding external electric field

     Computed dipole along edir(3) :
        Dipole                0.0024 Ry au,          0.0062 Debye
        Dipole field          0.0000 Ry au,

        Potential amp.       -0.0006 Ry
        Total length         45.0759 bohr

     Starting wfcs are  114 randomized atomic wfcs

     Self-consistent Calculation

     iteration #  1     ecut=    55.12 Ry     beta= 0.10
     Davidson diagonalization with overlap
     ethr =  1.00E-02,  avg # of iterations =  3.3

     Threshold (ethr) on eigenvalues was too large:
     Diagonalizing with lowered threshold

     Davidson diagonalization with overlap
     ethr =  6.42E-04,  avg # of iterations =  2.1

[...]

     total energy              =   -2101.20528448 Ry
     estimated scf accuracy    <       1.13191942 Ry

[...]

     iteration #  5     ecut=    55.12 Ry     beta= 0.10
     Davidson diagonalization with overlap
     c_bands:  1 eigenvalues not converged
     c_bands:  1 eigenvalues not converged
     ethr =  9.85E-05,  avg # of iterations =  8.7

[...]

     iteration #  8     ecut=    55.12 Ry     beta= 0.10
     Davidson diagonalization with overlap
     c_bands:  1 eigenvalues not converged
     c_bands:  1 eigenvalues not converged
     c_bands:  1 eigenvalues not converged
     c_bands:  1 eigenvalues not converged
     c_bands:  1 eigenvalues not converged
     c_bands:  1 eigenvalues not converged
     ethr =  3.49E-06,  avg # of iterations =  9.6

[...]

     total energy              =   -2101.24635734 Ry
     estimated scf accuracy    <       0.00001504 Ry

     iteration # 13     ecut=    55.12 Ry     beta= 0.10
     Davidson diagonalization with overlap
     ethr =  8.95E-09,  avg # of iterations =  2.7

[...]

     Adding external electric field

     Computed dipole along edir(3) :
        Dipole                0.0943 Ry au,          0.2396 Debye
        Dipole field          0.0003 Ry au,

        Potential amp.       -0.0248 Ry
        Total length         45.0759 bohr

     End of self-consistent calculation

          k = 0.0000 0.0000 0.0000 ( 29719 PWs)   bands (ev):

   -85.3807 -85.3403 -85.0694 -85.0288 -84.8188 -84.7779 -45.1209 -45.0463
   -44.9245 -44.6968 -44.5494 -44.5382 -44.4807 -44.3087 -44.2741 -44.2409
   -44.2134 -44.1494 -44.0701 -44.0551 -44.0033 -43.9618 -43.8973 -43.8917
    -8.1645  -6.6666  -6.6311  -6.6225  -6.5486  -6.5417  -6.4278  -6.3600
    -6.3437  -6.2805  -6.2602  -6.2251  -6.2077  -6.2042  -6.0192  -5.9236
    -5.9035  -5.8716  -5.8640  -5.8329  -5.8132  -5.7824  -5.7237  -5.7212
    -5.6326  -5.5286  -5.5187  -5.5155  -5.4932  -5.4794  -5.4571  -5.2874
    -4.0516  -3.7742  -3.5791  -3.4578  -3.1034  -3.0774  -2.8841  -2.7131
    -2.6692  -2.1943  -1.4584  -1.4397  -1.2564  -1.1704  -0.8424  -0.5655
    -0.2285  -0.1650   0.3984   0.4099   0.5245   0.7068   0.7231   0.7942
     1.1824   1.3137   1.4056   1.5306   1.6601   1.6890   1.9365   2.0658
     2.1073   2.2596   2.6044   2.7945   3.0224   3.1537   3.1878   4.1087
     4.5997   4.8508   5.0051   5.2895   5.4745

[...]

          k = 0.0784 0.0255 0.0000 ( 29760 PWs)   bands (ev):

[...]

          k =-0.0941-0.0510 0.0000 ( 29706 PWs)   bands (ev):

[...]

          k =-0.0941-0.1531 0.0000 ( 29706 PWs)   bands (ev):

   -85.3606 -85.3604 -85.0491 -85.0491 -84.7985 -84.7982 -45.0840 -45.0838
   -44.6054 -44.6052 -44.5154 -44.5152 -44.3819 -44.3819 -44.2750 -44.2750
   -44.2211 -44.2208 -44.1814 -44.1813 -44.0371 -44.0368 -43.9298 -43.9295
    -6.5878  -6.5878  -6.3179  -6.3179  -6.2713  -6.2713  -6.2173  -6.2173
    -6.1341  -6.1341  -6.0515  -6.0515  -5.9622  -5.9622  -5.8652  -5.8651
    -5.8267  -5.8266  -5.8107  -5.8106  -5.7753  -5.7753  -5.7607  -5.7607
    -5.7306  -5.7305  -5.6836  -5.6836  -5.6587  -5.6587  -5.5110  -5.5109
    -4.4149  -4.4148  -3.6189  -3.6188  -3.0487  -3.0486  -2.5954  -2.5953
    -1.9186  -1.9185  -1.4407  -1.4406  -0.9925  -0.9924  -0.8413  -0.8413
    -0.7305  -0.7305  -0.4297  -0.4296  -0.3271  -0.3270  -0.0942  -0.0942
     0.1496   0.1497   0.4916   0.4916   1.2233   1.2234   1.6192   1.6192
     2.1030   2.1031   2.2930   2.2930   3.0552   3.0552   4.3615   4.3616
     4.9362   4.9363   6.5769   6.5771   7.0097

     the Fermi energy is     1.3314 ev

!    total energy              =   -2101.24635985 Ry
     estimated scf accuracy    <       0.00000294 Ry
     smearing contrib. (-TS)   =      -0.04502392 Ry
     internal energy E=F+TS    =   -2101.20133593 Ry

     The total energy is F=E-TS. E is the sum of the following terms:
     one-electron contribution =  -16446.88013991 Ry
     hartree contribution      =    8286.29346018 Ry
     xc contribution           =    -526.86431576 Ry
     ewald contribution        =    6586.24963358 Ry
     electric field correction =       0.00002598 Ry

     convergence has been achieved in  13 iterations

     negative rho (up, down):  2.177E-04 0.000E+00

     Forces acting on atoms (cartesian axes, Ry/au):

     atom    1 type  1   force =     0.00001696    0.00184027   -0.01781997
     atom    2 type  1   force =    -0.00002050    0.00183908   -0.01780979
     atom    3 type  2   force =     0.00000151    0.00890431    0.03162297
     atom    4 type  2   force =     0.00000078    0.00889252    0.03161667
     atom    5 type  1   force =     0.00003861    0.01060092   -0.00445469
     atom    6 type  1   force =    -0.00004277    0.01059993   -0.00445580
     atom    7 type  2   force =    -0.00000016   -0.02122997   -0.00845330
     atom    8 type  2   force =    -0.00000390   -0.02126361   -0.00848608
     atom    9 type  1   force =     0.00000320   -0.00070500   -0.00029264
     atom   10 type  1   force =     0.00000722   -0.00073506   -0.00029432
     atom   11 type  2   force =    -0.00000254    0.00062262   -0.00059497
     atom   12 type  2   force =     0.00000158    0.00063400   -0.00057808

     Total force =     0.064132     Total SCF correction =     0.007743
     SCF correction compared to forces is large: reduce conv_thr to get better values

     Writing output data file ./Zn2Os2/Zn2Os2_beef.save/

     General routines

     Parallel routines

   This run was terminated on:   0:24:55  10Jul2022

   JOB DONE.