     Program PWSCF v.6.6 starts on 10Jul2022 at  1:16:14

     R & G space division:  proc/nbgrp/npool/nimage =      37
     Fft bands division:     nmany     =       1
     Reading input from Zn2Pt2.in
Warning: card &CELL ignored
Warning: card / ignored

     Current dimensions of program PWSCF are:
     Max number of different atomic species (ntypx) = 10
     Max number of k-points (npk) =  40000
     Max angular momentum in pseudopotentials (lmaxx) =  3
     Presently stress not available with electric field and gates

     Message from routine cell_base_init:
     DEPRECATED: use true lattice parameter, not A to a.u. conversion factor
     file Zn.pbe-dnl-rrkjus_psl.1.0.0.UPF: wavefunction(s)  3D renormalized
     file Pt.pbe-n-rrkjus_psl.1.0.0.UPF: wavefunction(s)  6S renormalized

     IMPORTANT: XC functional enforced from input :
     Exchange-correlation= BEEF-VDW
                           (   1   4  43  14   2   0   0)
     Any further DFT definition will be discarded
     Please, verify this is what you really want

     Subspace diagonalization in iterative solution of the eigenvalue problem:
     a serial algorithm will be used

     Found symmetry operation: I + (  0.5000 -0.5000  0.0000)
     This is a supercell, fractional translations are disabled

     bravais-lattice index     =            0
     lattice parameter (alat)  =       1.8897  a.u.
     unit-cell volume          =    4388.5649 (a.u.)^3
     number of atoms/cell      =           12
     number of atomic types    =            2
     number of electrons       =       132.00
     number of Kohn-Sham states=           79
     kinetic-energy cutoff     =      55.1240  Ry
     charge density cutoff     =     551.2396  Ry
     convergence threshold     =      1.0E-05
     mixing beta               =       0.1000
     number of iterations used =           10  plain     mixing
     Exchange-correlation= BEEF-VDW
                           (   1   4  43  14   2   0   0)

     celldm(1)=   1.889726  celldm(2)=   0.000000  celldm(3)=   0.000000
     celldm(4)=   0.000000  celldm(5)=   0.000000  celldm(6)=   0.000000

     crystal axes: (cart. coord. in units of alat)
               a(1) = (   5.413541   0.000000   0.000000 )
               a(2) = (   2.287772   4.906376   0.000000 )
               a(3) = (   0.000000   0.000000  24.484078 )

     reciprocal axes: (cart. coord. in units 2 pi/alat)
               b(1) = (  0.184722 -0.086133  0.000000 )
               b(2) = (  0.000000  0.203816  0.000000 )
               b(3) = (  0.000000  0.000000  0.040843 )

     PseudoPot. # 1 for Zn read from file:
     ../pseudo/Zn.pbe-dnl-rrkjus_psl.1.0.0.UPF
     MD5 check sum: 7f56cabf9682ed8c977c2f7d0c5985c5
     Pseudo is Ultrasoft + core correction, Zval = 12.0
     Generated using "atomic" code by A. Dal Corso v.6.2.2
     Using radial grid of 1201 points,  6 beta functions with:
                l(1) =   0
                l(2) =   0
                l(3) =   1
                l(4) =   1
                l(5) =   2
                l(6) =   2
     Q(r) pseudized with 0 coefficients

     PseudoPot. # 2 for Pt read from file:
     ../pseudo/Pt.pbe-n-rrkjus_psl.1.0.0.UPF
     MD5 check sum: 6bc887cfe28d63a5fc1f72d35a7d3ef7
     Pseudo is Ultrasoft + core correction, Zval = 10.0
     Generated using "atomic" code by A. Dal Corso v.6.3
     Using radial grid of 1277 points,  6 beta functions with:
                l(1) =   0
                l(2) =   0
                l(3) =   1
                l(4) =   1
                l(5) =   2
                l(6) =   2
     Q(r) pseudized with 0 coefficients

     atomic species   valence    mass     pseudopotential
        Zn            12.00    65.38000     Zn( 1.00)
        Pt            10.00   195.08400     Pt( 1.00)

     No symmetry found

   Cartesian axes

     site n.     atom                  positions (alat units)
         1           Zn  tau(   1) = (   0.0000000   0.0000000  10.0000000  )
         2           Zn  tau(   2) = (   3.8506563   2.4531882  10.0000000  )
         3           Pt  tau(   3) = (   2.7067705   0.0000000  10.0000000  )
         4           Pt  tau(   4) = (   1.1438858   2.4531882  10.0000000  )
         5           Zn  tau(   5) = (   5.4135411   3.4488757  12.2420389  )
         6           Zn  tau(   6) = (   1.5628848   0.9956875  12.2420389  )
         7           Pt  tau(   7) = (   2.7067705   3.4488757  12.2420389  )
         8           Pt  tau(   8) = (   4.2696553   0.9956875  12.2420389  )
         9           Zn  tau(   9) = (   3.2522155   2.0719241  14.5911679  )
        10           Zn  tau(  10) = (   7.1028676   4.5251198  14.5911626  )
        11           Pt  tau(  11) = (   5.9691221   2.0783890  14.3978774  )
        12           Pt  tau(  12) = (   4.4062347   4.5315741  14.3978788  )

     number of k points=    74  Fermi-Dirac smearing, width (Ry)=  0.0100
                       cart. coord. in units 2pi/alat
        k(    1) = (   0.0000000   0.0000000   0.0000000), wk =   0.0138889
        k(    2) = (   0.0000000   0.0169847   0.0000000), wk =   0.0277778
        k(    3) = (   0.0000000   0.0339694   0.0000000), wk =   0.0277778
        k(    4) = (   0.0000000   0.0509541   0.0000000), wk =   0.0277778
        k(    5) = (   0.0000000   0.0679388   0.0000000), wk =   0.0277778
        k(    6) = (   0.0000000   0.0849235   0.0000000), wk =   0.0277778
        k(    7) = (   0.0000000  -0.1019082   0.0000000), wk =   0.0138889
        k(    8) = (   0.0153935  -0.0071778   0.0000000), wk =   0.0277778
        k(    9) = (   0.0153935   0.0098069   0.0000000), wk =   0.0277778
        k(   10) = (   0.0153935   0.0267916   0.0000000), wk =   0.0277778
        k(   11) = (   0.0153935   0.0437763   0.0000000), wk =   0.0277778
        k(   12) = (   0.0153935   0.0607610   0.0000000), wk =   0.0277778
        k(   13) = (   0.0153935   0.0777457   0.0000000), wk =   0.0277778
        k(   14) = (   0.0153935  -0.1090860   0.0000000), wk =   0.0277778
        k(   15) = (   0.0153935  -0.0921013   0.0000000), wk =   0.0277778
        k(   16) = (   0.0153935  -0.0751166   0.0000000), wk =   0.0277778
        k(   17) = (   0.0153935  -0.0581319   0.0000000), wk =   0.0277778
        k(   18) = (   0.0153935  -0.0411472   0.0000000), wk =   0.0277778
        k(   19) = (   0.0153935  -0.0241625   0.0000000), wk =   0.0277778
        k(   20) = (   0.0307870  -0.0143555   0.0000000), wk =   0.0277778
        k(   21) = (   0.0307870   0.0026292   0.0000000), wk =   0.0277778
        k(   22) = (   0.0307870   0.0196139   0.0000000), wk =   0.0277778
        k(   23) = (   0.0307870   0.0365986   0.0000000), wk =   0.0277778
        k(   24) = (   0.0307870   0.0535833   0.0000000), wk =   0.0277778
        k(   25) = (   0.0307870   0.0705680   0.0000000), wk =   0.0277778
        k(   26) = (   0.0307870  -0.1162637   0.0000000), wk =   0.0277778
        k(   27) = (   0.0307870  -0.0992790   0.0000000), wk =   0.0277778
        k(   28) = (   0.0307870  -0.0822943   0.0000000), wk =   0.0277778
        k(   29) = (   0.0307870  -0.0653096   0.0000000), wk =   0.0277778
        k(   30) = (   0.0307870  -0.0483249   0.0000000), wk =   0.0277778
        k(   31) = (   0.0307870  -0.0313402   0.0000000), wk =   0.0277778
        k(   32) = (   0.0461805  -0.0215333   0.0000000), wk =   0.0277778
        k(   33) = (   0.0461805  -0.0045486   0.0000000), wk =   0.0277778
        k(   34) = (   0.0461805   0.0124361   0.0000000), wk =   0.0277778
        k(   35) = (   0.0461805   0.0294208   0.0000000), wk =   0.0277778
        k(   36) = (   0.0461805   0.0464055   0.0000000), wk =   0.0277778
        k(   37) = (   0.0461805   0.0633902   0.0000000), wk =   0.0277778
        k(   38) = (   0.0461805  -0.1234415   0.0000000), wk =   0.0277778
        k(   39) = (   0.0461805  -0.1064568   0.0000000), wk =   0.0277778
        k(   40) = (   0.0461805  -0.0894721   0.0000000), wk =   0.0277778
        k(   41) = (   0.0461805  -0.0724874   0.0000000), wk =   0.0277778
        k(   42) = (   0.0461805  -0.0555027   0.0000000), wk =   0.0277778
        k(   43) = (   0.0461805  -0.0385180   0.0000000), wk =   0.0277778
        k(   44) = (   0.0615740  -0.0287111   0.0000000), wk =   0.0277778
        k(   45) = (   0.0615740  -0.0117264   0.0000000), wk =   0.0277778
        k(   46) = (   0.0615740   0.0052583   0.0000000), wk =   0.0277778
        k(   47) = (   0.0615740   0.0222430   0.0000000), wk =   0.0277778
        k(   48) = (   0.0615740   0.0392277   0.0000000), wk =   0.0277778
        k(   49) = (   0.0615740   0.0562124   0.0000000), wk =   0.0277778
        k(   50) = (   0.0615740  -0.1306193   0.0000000), wk =   0.0277778
        k(   51) = (   0.0615740  -0.1136346   0.0000000), wk =   0.0277778
        k(   52) = (   0.0615740  -0.0966499   0.0000000), wk =   0.0277778
        k(   53) = (   0.0615740  -0.0796652   0.0000000), wk =   0.0277778
        k(   54) = (   0.0615740  -0.0626805   0.0000000), wk =   0.0277778
        k(   55) = (   0.0615740  -0.0456958   0.0000000), wk =   0.0277778
        k(   56) = (   0.0769675  -0.0358888   0.0000000), wk =   0.0277778
        k(   57) = (   0.0769675  -0.0189041   0.0000000), wk =   0.0277778
        k(   58) = (   0.0769675  -0.0019194   0.0000000), wk =   0.0277778
        k(   59) = (   0.0769675   0.0150653   0.0000000), wk =   0.0277778
        k(   60) = (   0.0769675   0.0320500   0.0000000), wk =   0.0277778
        k(   61) = (   0.0769675   0.0490347   0.0000000), wk =   0.0277778
        k(   62) = (   0.0769675  -0.1377970   0.0000000), wk =   0.0277778
        k(   63) = (   0.0769675  -0.1208123   0.0000000), wk =   0.0277778
        k(   64) = (   0.0769675  -0.1038276   0.0000000), wk =   0.0277778
        k(   65) = (   0.0769675  -0.0868429   0.0000000), wk =   0.0277778
        k(   66) = (   0.0769675  -0.0698582   0.0000000), wk =   0.0277778
        k(   67) = (   0.0769675  -0.0528735   0.0000000), wk =   0.0277778
        k(   68) = (  -0.0923610   0.0430666   0.0000000), wk =   0.0138889
        k(   69) = (  -0.0923610   0.0600513   0.0000000), wk =   0.0277778
        k(   70) = (  -0.0923610   0.0770360   0.0000000), wk =   0.0277778
        k(   71) = (  -0.0923610   0.0940207   0.0000000), wk =   0.0277778
        k(   72) = (  -0.0923610   0.1110054   0.0000000), wk =   0.0277778
        k(   73) = (  -0.0923610   0.1279901   0.0000000), wk =   0.0277778
        k(   74) = (  -0.0923610  -0.0588416   0.0000000), wk =   0.0138889

     Initial potential from superposition of free atoms

     starting charge  131.97663, renormalised to  132.00000

     negative rho (up, down):  6.428E-04 0.000E+00

     %%%%%%%%%%%%%%%%%%%%%%%%%%%%%%%%%%%%%%%%%%%%%%%%%%%%%%%%%%%%%%%%%%%%%%%%
     %                                                                      %
     % You are using vdW-DF, which was implemented by the Thonhauser group. %
     % Please cite the following two papers that made this development      %
     % possible and the two reviews that describe the various versions:     %
     %                                                                      %
     %   T. Thonhauser et al., PRL 115, 136402 (2015).                      %
     %   T. Thonhauser et al., PRB 76, 125112 (2007).                       %
     %   K. Berland et al., Rep. Prog. Phys. 78, 066501 (2015).             %
     %   D.C. Langreth et al., J. Phys.: Condens. Matter 21, 084203 (2009). %
     %                                                                      %
     %                                                                      %
     % If you are calculating the stress with vdW-DF, please also cite:     %
     %                                                                      %
     %   R. Sabatini et al., J. Phys.: Condens. Matter 24, 424209 (2012).   %
     %                                                                      %
     %%%%%%%%%%%%%%%%%%%%%%%%%%%%%%%%%%%%%%%%%%%%%%%%%%%%%%%%%%%%%%%%%%%%%%%%

     Adding external electric field

     Computed dipole along edir(3) :
        Dipole                0.0012 Ry au,          0.0030 Debye
        Dipole field          0.0000 Ry au,

        Potential amp.       -0.0003 Ry
        Total length         45.1115 bohr

     Starting wfcs are  108 randomized atomic wfcs

     Self-consistent Calculation

     iteration #  1     ecut=    55.12 Ry     beta= 0.10
     Davidson diagonalization with overlap
     ethr =  1.00E-02,  avg # of iterations =  3.1

     Threshold (ethr) on eigenvalues was too large:
     Diagonalizing with lowered threshold

     Davidson diagonalization with overlap
     ethr =  2.13E-04,  avg # of iterations =  7.6

[...]

     total energy              =   -1295.09658995 Ry
     estimated scf accuracy    <       0.37260150 Ry

[...]

     iteration #  3     ecut=    55.12 Ry     beta= 0.10
     Davidson diagonalization with overlap
     c_bands:  1 eigenvalues not converged
     ethr =  1.29E-04,  avg # of iterations =  4.3

[...]

     iteration #  8     ecut=    55.12 Ry     beta= 0.10
     Davidson diagonalization with overlap
     c_bands:  1 eigenvalues not converged
     ethr =  6.09E-07,  avg # of iterations =  3.1

[...]

     total energy              =   -1295.08549183 Ry
     estimated scf accuracy    <       0.00001877 Ry

     iteration # 12     ecut=    55.12 Ry     beta= 0.10
     Davidson diagonalization with overlap
     ethr =  1.42E-08,  avg # of iterations =  2.3

[...]

     Adding external electric field

     Computed dipole along edir(3) :
        Dipole                0.0269 Ry au,          0.0685 Debye
        Dipole field          0.0001 Ry au,

        Potential amp.       -0.0070 Ry
        Total length         45.1115 bohr

     End of self-consistent calculation

          k = 0.0000 0.0000 0.0000 ( 30193 PWs)   bands (ev):

    -8.9099  -7.4659  -7.4503  -7.4243  -7.3756  -7.3529  -7.2304  -7.2126
    -7.1991  -7.1647  -7.1614  -7.1251  -7.0804  -7.0715  -6.9243  -6.9105
    -6.9095  -6.8596  -6.8387  -6.8058  -6.8006  -6.7708  -6.7272  -6.6908
    -6.6701  -6.6050  -6.5872  -6.5808  -6.5766  -6.5503  -6.4167  -6.3434
    -5.2132  -4.9620  -4.5892  -4.2440  -3.9583  -3.6882  -3.6123  -3.3003
    -3.2656  -3.2003  -3.0762  -2.7401  -2.6177  -2.5080  -2.3167  -2.1446
    -2.1308  -1.8748  -1.7822  -1.5742  -1.4733  -1.3968  -1.3911  -1.3613
    -1.1586  -1.0571  -1.0453  -1.0281  -0.9579  -0.7327  -0.2833  -0.0620
    -0.0336   0.2845   0.2995   0.8197   1.0343   1.3009   1.3984   2.0522
     3.2086   3.4063   3.7761   3.7976   3.9159   4.2206   4.5219

[...]

          k = 0.0770-0.0529 0.0000 ( 30350 PWs)   bands (ev):

[...]

          k =-0.0924 0.0431 0.0000 ( 30320 PWs)   bands (ev):

[...]

          k =-0.0924-0.0588 0.0000 ( 30344 PWs)   bands (ev):

    -7.4447  -7.2862  -7.2110  -7.1766  -7.0971  -7.0777  -7.0760  -7.0621
    -7.0364  -7.0260  -6.9714  -6.9043  -6.8775  -6.8541  -6.8495  -6.8274
    -6.8213  -6.8147  -6.7793  -6.7254  -6.7193  -6.7142  -6.6751  -6.6334
    -6.5784  -6.5738  -6.5685  -6.5561  -6.5434  -6.4831  -6.4095  -6.2352
    -5.4964  -4.9875  -4.6274  -4.4796  -4.3492  -4.2840  -4.1216  -3.9381
    -3.8126  -3.7169  -3.5485  -3.4777  -3.4184  -3.3483  -3.1480  -2.7333
    -2.7033  -2.6418  -2.5436  -2.0177  -1.9695  -1.9076  -1.9005  -1.7463
    -1.3737  -1.3144  -1.3058  -1.0960  -0.9858  -0.9536  -0.9331  -0.7666
    -0.1310  -0.0338   0.0653   0.9867   1.4548   1.8807   2.3457   3.0954
     3.2443   3.3560   4.7756   5.4310   5.7765   5.7890   5.9889

     the Fermi energy is     0.0861 ev

!    total energy              =   -1295.08548829 Ry
     estimated scf accuracy    <       0.00000719 Ry
     smearing contrib. (-TS)   =      -0.02113149 Ry
     internal energy E=F+TS    =   -1295.06435680 Ry

     The total energy is F=E-TS. E is the sum of the following terms:
     one-electron contribution =   -9855.01870306 Ry
     hartree contribution      =    5038.80307722 Ry
     xc contribution           =    -439.67239447 Ry
     ewald contribution        =    3960.82366143 Ry
     electric field correction =       0.00000208 Ry

     convergence has been achieved in  12 iterations

     negative rho (up, down):  6.156E-04 0.000E+00

     Forces acting on atoms (cartesian axes, Ry/au):

     atom    1 type  1   force =     0.00328778    0.00209875   -0.00993949
     atom    2 type  1   force =     0.00329678    0.00209159   -0.00993706
     atom    3 type  2   force =    -0.00618291   -0.00394266    0.01811224
     atom    4 type  2   force =    -0.00619397   -0.00394633    0.01814190
     atom    5 type  1   force =     0.00267024    0.00168946   -0.01326746
     atom    6 type  1   force =     0.00267035    0.00170045   -0.01324903
     atom    7 type  2   force =     0.00030912    0.00020466    0.00772253
     atom    8 type  2   force =     0.00030452    0.00019563    0.00771780
     atom    9 type  1   force =    -0.00080534   -0.00050753   -0.00159572
     atom   10 type  1   force =    -0.00079958   -0.00050894   -0.00159876
     atom   11 type  2   force =     0.00071830    0.00045260   -0.00105201
     atom   12 type  2   force =     0.00072471    0.00047233   -0.00105492

     Total force =     0.038659     Total SCF correction =     0.011723
     SCF correction compared to forces is large: reduce conv_thr to get better values

     Writing output data file ./Zn2Pt2/Zn2Pt2_beef.save/

     General routines

     Parallel routines

   This run was terminated on:   2:17:39  10Jul2022

   JOB DONE.