     Program PWSCF v.6.6 starts on 10Jul2022 at  2:17:44

     R & G space division:  proc/nbgrp/npool/nimage =      37
     Fft bands division:     nmany     =       1
     Reading input from Zn2Re2.in
Warning: card &CELL ignored
Warning: card / ignored

     Current dimensions of program PWSCF are:
     Max number of different atomic species (ntypx) = 10
     Max number of k-points (npk) =  40000
     Max angular momentum in pseudopotentials (lmaxx) =  3
     Presently stress not available with electric field and gates

     Message from routine cell_base_init:
     DEPRECATED: use true lattice parameter, not A to a.u. conversion factor
     file Zn.pbe-dnl-rrkjus_psl.1.0.0.UPF: wavefunction(s)  3D renormalized

     IMPORTANT: XC functional enforced from input :
     Exchange-correlation= BEEF-VDW
                           (   1   4  43  14   2   0   0)
     Any further DFT definition will be discarded
     Please, verify this is what you really want

     Subspace diagonalization in iterative solution of the eigenvalue problem:
     a serial algorithm will be used

     Found symmetry operation: I + ( -0.5000  0.0000  0.0000)
     This is a supercell, fractional translations are disabled

     bravais-lattice index     =            0
     lattice parameter (alat)  =       1.8897  a.u.
     unit-cell volume          =    4349.5545 (a.u.)^3
     number of atoms/cell      =           12
     number of atomic types    =            2
     number of electrons       =       162.00
     number of Kohn-Sham states=           97
     kinetic-energy cutoff     =      55.1240  Ry
     charge density cutoff     =     551.2396  Ry
     convergence threshold     =      1.0E-05
     mixing beta               =       0.1000
     number of iterations used =           10  plain     mixing
     Exchange-correlation= BEEF-VDW
                           (   1   4  43  14   2   0   0)

     celldm(1)=   1.889726  celldm(2)=   0.000000  celldm(3)=   0.000000
     celldm(4)=   0.000000  celldm(5)=   0.000000  celldm(6)=   0.000000

     crystal axes: (cart. coord. in units of alat)
               a(1) = (   5.260283   0.000000   0.000000 )
               a(2) = (  -2.630142   5.006133   0.000000 )
               a(3) = (   0.000000   0.000000  24.475793 )

     reciprocal axes: (cart. coord. in units 2 pi/alat)
               b(1) = (  0.190104  0.099878 -0.000000 )
               b(2) = (  0.000000  0.199755  0.000000 )
               b(3) = (  0.000000 -0.000000  0.040857 )

     PseudoPot. # 1 for Zn read from file:
     ../pseudo/Zn.pbe-dnl-rrkjus_psl.1.0.0.UPF
     MD5 check sum: 7f56cabf9682ed8c977c2f7d0c5985c5
     Pseudo is Ultrasoft + core correction, Zval = 12.0
     Generated using "atomic" code by A. Dal Corso v.6.2.2
     Using radial grid of 1201 points,  6 beta functions with:
                l(1) =   0
                l(2) =   0
                l(3) =   1
                l(4) =   1
                l(5) =   2
                l(6) =   2
     Q(r) pseudized with 0 coefficients

     PseudoPot. # 2 for Re read from file:
     ../pseudo/Re.pbe-spn-rrkjus_psl.1.0.0.UPF
     MD5 check sum: 1282f1ec51ad523723a04c61ae80a9e6
     Pseudo is Ultrasoft + core correction, Zval = 15.0
     Generated using "atomic" code by A. Dal Corso v.6.2.2
     Using radial grid of 1275 points,  6 beta functions with:
                l(1) =   0
                l(2) =   0
                l(3) =   1
                l(4) =   1
                l(5) =   2
                l(6) =   2
     Q(r) pseudized with 0 coefficients

     atomic species   valence    mass     pseudopotential
        Zn            12.00    65.38000     Zn( 1.00)
        Re            15.00   186.20700     Re( 1.00)

     No symmetry found

   Cartesian axes

     site n.     atom                  positions (alat units)
         1           Zn  tau(   1) = (   0.0000000   0.0000000  10.0000000  )
         2           Zn  tau(   2) = (   2.6301417   0.0000000  10.0000000  )
         3           Re  tau(   3) = (   1.3150709   2.5030663  10.0000000  )
         4           Re  tau(   4) = (  -1.3150709   2.5030663  10.0000000  )
         5           Zn  tau(   5) = (   2.6301417   1.3818343  12.2378963  )
         6           Zn  tau(   6) = (  -0.0000000   1.3818343  12.2378963  )
         7           Re  tau(   7) = (  -1.3150709   3.8849006  12.2378963  )
         8           Re  tau(   8) = (   1.3150709   3.8849006  12.2378963  )
         9           Zn  tau(   9) = (  -0.0000835   2.7186988  14.6721875  )
        10           Zn  tau(  10) = (   2.6300937   2.7186979  14.6721626  )
        11           Re  tau(  11) = (   3.9452161   0.1771764  14.3698145  )
        12           Re  tau(  12) = (   1.3150834   0.1772009  14.3698393  )

     number of k points=    74  Fermi-Dirac smearing, width (Ry)=  0.0100
                       cart. coord. in units 2pi/alat
        k(    1) = (   0.0000000   0.0000000   0.0000000), wk =   0.0138889
        k(    2) = (   0.0000000   0.0166462   0.0000000), wk =   0.0277778
        k(    3) = (   0.0000000   0.0332925   0.0000000), wk =   0.0277778
        k(    4) = (   0.0000000   0.0499387   0.0000000), wk =   0.0277778
        k(    5) = (   0.0000000   0.0665850   0.0000000), wk =   0.0277778
        k(    6) = (   0.0000000   0.0832312   0.0000000), wk =   0.0277778
        k(    7) = (   0.0000000  -0.0998775   0.0000000), wk =   0.0138889
        k(    8) = (   0.0158420   0.0083231   0.0000000), wk =   0.0277778
        k(    9) = (   0.0158420   0.0249694   0.0000000), wk =   0.0277778
        k(   10) = (   0.0158420   0.0416156   0.0000000), wk =   0.0277778
        k(   11) = (   0.0158420   0.0582619   0.0000000), wk =   0.0277778
        k(   12) = (   0.0158420   0.0749081   0.0000000), wk =   0.0277778
        k(   13) = (   0.0158420   0.0915544   0.0000000), wk =   0.0277778
        k(   14) = (   0.0158420  -0.0915544   0.0000000), wk =   0.0277778
        k(   15) = (   0.0158420  -0.0749081   0.0000000), wk =   0.0277778
        k(   16) = (   0.0158420  -0.0582619   0.0000000), wk =   0.0277778
        k(   17) = (   0.0158420  -0.0416156   0.0000000), wk =   0.0277778
        k(   18) = (   0.0158420  -0.0249694   0.0000000), wk =   0.0277778
        k(   19) = (   0.0158420  -0.0083231   0.0000000), wk =   0.0277778
        k(   20) = (   0.0316840   0.0166463   0.0000000), wk =   0.0277778
        k(   21) = (   0.0316840   0.0332925   0.0000000), wk =   0.0277778
        k(   22) = (   0.0316840   0.0499387   0.0000000), wk =   0.0277778
        k(   23) = (   0.0316840   0.0665850   0.0000000), wk =   0.0277778
        k(   24) = (   0.0316840   0.0832312   0.0000000), wk =   0.0277778
        k(   25) = (   0.0316840   0.0998775   0.0000000), wk =   0.0277778
        k(   26) = (   0.0316840  -0.0832312   0.0000000), wk =   0.0277778
        k(   27) = (   0.0316840  -0.0665850   0.0000000), wk =   0.0277778
        k(   28) = (   0.0316840  -0.0499387   0.0000000), wk =   0.0277778
        k(   29) = (   0.0316840  -0.0332925   0.0000000), wk =   0.0277778
        k(   30) = (   0.0316840  -0.0166462   0.0000000), wk =   0.0277778
        k(   31) = (   0.0316840   0.0000000   0.0000000), wk =   0.0277778
        k(   32) = (   0.0475260   0.0249694   0.0000000), wk =   0.0277778
        k(   33) = (   0.0475260   0.0416156   0.0000000), wk =   0.0277778
        k(   34) = (   0.0475260   0.0582619   0.0000000), wk =   0.0277778
        k(   35) = (   0.0475260   0.0749081   0.0000000), wk =   0.0277778
        k(   36) = (   0.0475260   0.0915544   0.0000000), wk =   0.0277778
        k(   37) = (   0.0475260   0.1082006   0.0000000), wk =   0.0277778
        k(   38) = (   0.0475260  -0.0749081   0.0000000), wk =   0.0277778
        k(   39) = (   0.0475260  -0.0582619   0.0000000), wk =   0.0277778
        k(   40) = (   0.0475260  -0.0416156   0.0000000), wk =   0.0277778
        k(   41) = (   0.0475260  -0.0249694   0.0000000), wk =   0.0277778
        k(   42) = (   0.0475260  -0.0083231   0.0000000), wk =   0.0277778
        k(   43) = (   0.0475260   0.0083231   0.0000000), wk =   0.0277778
        k(   44) = (   0.0633679   0.0332925   0.0000000), wk =   0.0277778
        k(   45) = (   0.0633679   0.0499388   0.0000000), wk =   0.0277778
        k(   46) = (   0.0633679   0.0665850   0.0000000), wk =   0.0277778
        k(   47) = (   0.0633679   0.0832312   0.0000000), wk =   0.0277778
        k(   48) = (   0.0633679   0.0998775   0.0000000), wk =   0.0277778
        k(   49) = (   0.0633679   0.1165237   0.0000000), wk =   0.0277778
        k(   50) = (   0.0633679  -0.0665850   0.0000000), wk =   0.0277778
        k(   51) = (   0.0633679  -0.0499387   0.0000000), wk =   0.0277778
        k(   52) = (   0.0633679  -0.0332925   0.0000000), wk =   0.0277778
        k(   53) = (   0.0633679  -0.0166462   0.0000000), wk =   0.0277778
        k(   54) = (   0.0633679   0.0000000   0.0000000), wk =   0.0277778
        k(   55) = (   0.0633679   0.0166463   0.0000000), wk =   0.0277778
        k(   56) = (   0.0792099   0.0416156   0.0000000), wk =   0.0277778
        k(   57) = (   0.0792099   0.0582619   0.0000000), wk =   0.0277778
        k(   58) = (   0.0792099   0.0749081   0.0000000), wk =   0.0277778
        k(   59) = (   0.0792099   0.0915544   0.0000000), wk =   0.0277778
        k(   60) = (   0.0792099   0.1082006   0.0000000), wk =   0.0277778
        k(   61) = (   0.0792099   0.1248469   0.0000000), wk =   0.0277778
        k(   62) = (   0.0792099  -0.0582619   0.0000000), wk =   0.0277778
        k(   63) = (   0.0792099  -0.0416156   0.0000000), wk =   0.0277778
        k(   64) = (   0.0792099  -0.0249694   0.0000000), wk =   0.0277778
        k(   65) = (   0.0792099  -0.0083231   0.0000000), wk =   0.0277778
        k(   66) = (   0.0792099   0.0083231   0.0000000), wk =   0.0277778
        k(   67) = (   0.0792099   0.0249694   0.0000000), wk =   0.0277778
        k(   68) = (  -0.0950519  -0.0499388   0.0000000), wk =   0.0138889
        k(   69) = (  -0.0950519  -0.0332925   0.0000000), wk =   0.0277778
        k(   70) = (  -0.0950519  -0.0166463   0.0000000), wk =   0.0277778
        k(   71) = (  -0.0950519  -0.0000000   0.0000000), wk =   0.0277778
        k(   72) = (  -0.0950519   0.0166462   0.0000000), wk =   0.0277778
        k(   73) = (  -0.0950519   0.0332925   0.0000000), wk =   0.0277778
        k(   74) = (  -0.0950519  -0.1498162   0.0000000), wk =   0.0138889

     Initial potential from superposition of free atoms

     starting charge  161.97585, renormalised to  162.00000

     negative rho (up, down):  2.982E-04 0.000E+00

     %%%%%%%%%%%%%%%%%%%%%%%%%%%%%%%%%%%%%%%%%%%%%%%%%%%%%%%%%%%%%%%%%%%%%%%%
     %                                                                      %
     % You are using vdW-DF, which was implemented by the Thonhauser group. %
     % Please cite the following two papers that made this development      %
     % possible and the two reviews that describe the various versions:     %
     %                                                                      %
     %   T. Thonhauser et al., PRL 115, 136402 (2015).                      %
     %   T. Thonhauser et al., PRB 76, 125112 (2007).                       %
     %   K. Berland et al., Rep. Prog. Phys. 78, 066501 (2015).             %
     %   D.C. Langreth et al., J. Phys.: Condens. Matter 21, 084203 (2009). %
     %                                                                      %
     %                                                                      %
     % If you are calculating the stress with vdW-DF, please also cite:     %
     %                                                                      %
     %   R. Sabatini et al., J. Phys.: Condens. Matter 24, 424209 (2012).   %
     %                                                                      %
     %%%%%%%%%%%%%%%%%%%%%%%%%%%%%%%%%%%%%%%%%%%%%%%%%%%%%%%%%%%%%%%%%%%%%%%%

     Adding external electric field

     Computed dipole along edir(3) :
        Dipole                0.0022 Ry au,          0.0056 Debye
        Dipole field          0.0000 Ry au,

        Potential amp.       -0.0006 Ry
        Total length         45.0962 bohr

     Starting wfcs are  114 randomized atomic wfcs

     Self-consistent Calculation

     iteration #  1     ecut=    55.12 Ry     beta= 0.10
     Davidson diagonalization with overlap
     ethr =  1.00E-02,  avg # of iterations =  2.9

     Threshold (ethr) on eigenvalues was too large:
     Diagonalizing with lowered threshold

     Davidson diagonalization with overlap
     ethr =  5.50E-04,  avg # of iterations =  2.5

[...]

     total energy              =   -1973.25561526 Ry
     estimated scf accuracy    <       0.99338279 Ry

[...]

     iteration #  7     ecut=    55.12 Ry     beta= 0.10
     Davidson diagonalization with overlap
     c_bands:  1 eigenvalues not converged
     ethr =  9.09E-06,  avg # of iterations =  7.8

[...]

     iteration #  9     ecut=    55.12 Ry     beta= 0.10
     Davidson diagonalization with overlap
     c_bands:  1 eigenvalues not converged
     ethr =  7.91E-07,  avg # of iterations =  3.4

[...]

     total energy              =   -1973.27811109 Ry
     estimated scf accuracy    <       0.00001239 Ry

     iteration # 13     ecut=    55.12 Ry     beta= 0.10
     Davidson diagonalization with overlap
     ethr =  7.65E-09,  avg # of iterations =  2.6

[...]

     Adding external electric field

     Computed dipole along edir(3) :
        Dipole                0.0395 Ry au,          0.1004 Debye
        Dipole field          0.0001 Ry au,

        Potential amp.       -0.0103 Ry
        Total length         45.0962 bohr

     End of self-consistent calculation

          k = 0.0000 0.0000 0.0000 ( 30101 PWs)   bands (ev):

   -79.5167 -79.4509 -79.0865 -79.0267 -79.0205 -78.9607 -41.6473 -41.5767
   -41.4633 -41.2670 -41.2313 -41.2247 -41.1279 -40.8552 -40.7962 -40.7526
   -40.7292 -40.7151 -40.6936 -40.6273 -40.5123 -40.4228 -40.3421 -40.2991
    -8.1768  -6.8008  -6.7502  -6.6988  -6.6759  -6.6325  -6.5407  -6.4777
    -6.4407  -6.3761  -6.3673  -6.3133  -6.2794  -6.2723  -6.1293  -6.0320
    -5.9959  -5.9753  -5.9316  -5.9305  -5.9186  -5.9063  -5.8277  -5.8052
    -5.7292  -5.6357  -5.6011  -5.5982  -5.5658  -5.5513  -5.5374  -5.3924
    -4.0501  -3.6105  -3.4680  -3.3169  -2.9856  -2.8024  -2.6018  -2.5329
    -2.0418  -1.9808  -1.2415  -1.2251  -0.9504  -0.8866  -0.6089  -0.3457
     0.1352   0.2353   0.5027   0.8245   0.9926   1.0598   1.1408   1.2870
     1.4500   1.6555   1.7033   1.8972   2.1380   2.1442   2.6603   2.7433
     2.9580   3.1076   3.1492   3.2580   3.2840   3.5712   4.3151   4.4226
     4.9910

[...]

          k = 0.0792 0.0250 0.0000 ( 30078 PWs)   bands (ev):

[...]

          k =-0.0951-0.0499 0.0000 ( 30058 PWs)   bands (ev):

[...]

          k =-0.0951-0.1498 0.0000 ( 30058 PWs)   bands (ev):

   -79.4838 -79.4838 -79.0536 -79.0535 -78.9940 -78.9935 -41.5206 -41.5205
   -41.1936 -41.1936 -41.1801 -41.1801 -40.8168 -40.8167 -40.8041 -40.8041
   -40.7743 -40.7739 -40.7455 -40.7451 -40.6783 -40.6781 -40.4678 -40.4677
    -6.6271  -6.6271  -6.4352  -6.4352  -6.3826  -6.3826  -6.3472  -6.3472
    -6.2702  -6.2702  -6.1656  -6.1656  -6.0498  -6.0498  -5.9637  -5.9637
    -5.9319  -5.9319  -5.9002  -5.9002  -5.8756  -5.8756  -5.8653  -5.8652
    -5.8145  -5.8145  -5.7874  -5.7874  -5.7675  -5.7675  -5.5909  -5.5908
    -4.4113  -4.4112  -3.4899  -3.4899  -2.8058  -2.8058  -2.2121  -2.2120
    -1.4285  -1.4284  -1.1800  -1.1800  -0.5695  -0.5694  -0.5169  -0.5168
    -0.3378  -0.3378   0.0858   0.0858   0.1432   0.1432   0.4019   0.4020
     0.6632   0.6633   0.9088   0.9088   1.7721   1.7721   2.2040   2.2040
     2.6256   2.6257   2.7489   2.7490   3.4279   3.4279   4.5521   4.5522
     5.1320

     the Fermi energy is     1.1824 ev

!    total energy              =   -1973.27811188 Ry
     estimated scf accuracy    <       0.00000287 Ry
     smearing contrib. (-TS)   =      -0.04654199 Ry
     internal energy E=F+TS    =   -1973.23156989 Ry

     The total energy is F=E-TS. E is the sum of the following terms:
     one-electron contribution =  -15033.68398167 Ry
     hartree contribution      =    7579.55241210 Ry
     xc contribution           =    -536.48460621 Ry
     ewald contribution        =    6017.38460138 Ry
     electric field correction =       0.00000451 Ry

     convergence has been achieved in  13 iterations

     negative rho (up, down):  1.475E-04 0.000E+00

     Forces acting on atoms (cartesian axes, Ry/au):

     atom    1 type  1   force =    -0.00000366    0.00028670   -0.02166668
     atom    2 type  1   force =     0.00000942    0.00027947   -0.02166572
     atom    3 type  2   force =     0.00000124    0.00929284    0.03665572
     atom    4 type  2   force =    -0.00000012    0.00928882    0.03665778
     atom    5 type  1   force =     0.00002987    0.01081981   -0.00005347
     atom    6 type  1   force =    -0.00003133    0.01080956   -0.00005037
     atom    7 type  2   force =    -0.00000101   -0.01619569   -0.01236230
     atom    8 type  2   force =    -0.00000378   -0.01623192   -0.01241246
     atom    9 type  1   force =     0.00000688   -0.00146337   -0.00022175
     atom   10 type  1   force =    -0.00000156   -0.00148261   -0.00022801
     atom   11 type  2   force =     0.00000106   -0.00270268   -0.00231879
     atom   12 type  2   force =    -0.00000700   -0.00270093   -0.00233396

     Total force =     0.069968     Total SCF correction =     0.007373
     SCF correction compared to forces is large: reduce conv_thr to get better values

     Writing output data file ./Zn2Re2/Zn2Re2_beef.save/

     General routines

     Parallel routines

   This run was terminated on:   3:33:28  10Jul2022

   JOB DONE.