     Program PWSCF v.6.6 starts on 10Jul2022 at  3:33:34

     R & G space division:  proc/nbgrp/npool/nimage =      37
     Fft bands division:     nmany     =       1
     Reading input from Zn2Rh2.in
Warning: card &CELL ignored
Warning: card / ignored

     Current dimensions of program PWSCF are:
     Max number of different atomic species (ntypx) = 10
     Max number of k-points (npk) =  40000
     Max angular momentum in pseudopotentials (lmaxx) =  3
     Presently stress not available with electric field and gates

     Message from routine cell_base_init:
     DEPRECATED: use true lattice parameter, not A to a.u. conversion factor
     file Zn.pbe-dnl-rrkjus_psl.1.0.0.UPF: wavefunction(s)  3D renormalized
     file Rh.pbe-spn-rrkjus_psl.1.0.0.UPF: wavefunction(s)  4S 5S renormalized

     IMPORTANT: XC functional enforced from input :
     Exchange-correlation= BEEF-VDW
                           (   1   4  43  14   2   0   0)
     Any further DFT definition will be discarded
     Please, verify this is what you really want

     Subspace diagonalization in iterative solution of the eigenvalue problem:
     a serial algorithm will be used

     bravais-lattice index     =            0
     lattice parameter (alat)  =       1.8897  a.u.
     unit-cell volume          =    4277.6614 (a.u.)^3
     number of atoms/cell      =           12
     number of atomic types    =            2
     number of electrons       =       174.00
     number of Kohn-Sham states=          104
     kinetic-energy cutoff     =      55.1240  Ry
     charge density cutoff     =     551.2396  Ry
     convergence threshold     =      1.0E-05
     mixing beta               =       0.1000
     number of iterations used =           10  plain     mixing
     Exchange-correlation= BEEF-VDW
                           (   1   4  43  14   2   0   0)

     celldm(1)=   1.889726  celldm(2)=   0.000000  celldm(3)=   0.000000
     celldm(4)=   0.000000  celldm(5)=   0.000000  celldm(6)=   0.000000

     crystal axes: (cart. coord. in units of alat)
               a(1) = (   5.260573   0.000000   0.000000 )
               a(2) = (   1.753568   4.959700   0.000000 )
               a(3) = (   0.000000   0.000000  24.295253 )

     reciprocal axes: (cart. coord. in units 2 pi/alat)
               b(1) = (  0.190093 -0.067210  0.000000 )
               b(2) = (  0.000000  0.201625  0.000000 )
               b(3) = (  0.000000  0.000000  0.041160 )

     PseudoPot. # 1 for Zn read from file:
     ../pseudo/Zn.pbe-dnl-rrkjus_psl.1.0.0.UPF
     MD5 check sum: 7f56cabf9682ed8c977c2f7d0c5985c5
     Pseudo is Ultrasoft + core correction, Zval = 12.0
     Generated using "atomic" code by A. Dal Corso v.6.2.2
     Using radial grid of 1201 points,  6 beta functions with:
                l(1) =   0
                l(2) =   0
                l(3) =   1
                l(4) =   1
                l(5) =   2
                l(6) =   2
     Q(r) pseudized with 0 coefficients

     PseudoPot. # 2 for Rh read from file:
     ../pseudo/Rh.pbe-spn-rrkjus_psl.1.0.0.UPF
     MD5 check sum: 912a852783f0c9b7bd5e9eb06cc0cc10
     Pseudo is Ultrasoft + core correction, Zval = 17.0
     Generated using "atomic" code by A. Dal Corso v.6.3
     Using radial grid of 1233 points,  6 beta functions with:
                l(1) =   0
                l(2) =   0
                l(3) =   1
                l(4) =   1
                l(5) =   2
                l(6) =   2
     Q(r) pseudized with 0 coefficients

     atomic species   valence    mass     pseudopotential
        Zn            12.00    65.38000     Zn( 1.00)
        Rh            17.00   102.90550     Rh( 1.00)

     No symmetry found

   Cartesian axes

     site n.     atom                  positions (alat units)
         1           Zn  tau(   1) = (   0.0000000   0.0000000  10.0000000  )
         2           Zn  tau(   2) = (   3.5070702   2.4798501  10.0000000  )
         3           Rh  tau(   3) = (   2.6302864   0.0000000  10.0000000  )
         4           Rh  tau(   4) = (   0.8767838   2.4798501  10.0000000  )
         5           Zn  tau(   5) = (   5.2605728   3.7197522  12.1476265  )
         6           Zn  tau(   6) = (   1.7535026   1.2399021  12.1476265  )
         7           Rh  tau(   7) = (   2.6302864   3.7197522  12.1476265  )
         8           Rh  tau(   8) = (   4.3837890   1.2399021  12.1476265  )
         9           Zn  tau(   9) = (   3.5068884   2.4799831  14.3758363  )
        10           Zn  tau(  10) = (   1.7536301   4.9594839  14.3758337  )
        11           Rh  tau(  11) = (   0.8768834   2.4799220  14.2209885  )
        12           Rh  tau(  12) = (   4.3836353   4.9595428  14.2209983  )

     number of k points=    74  Fermi-Dirac smearing, width (Ry)=  0.0100
                       cart. coord. in units 2pi/alat
        k(    1) = (   0.0000000   0.0000000   0.0000000), wk =   0.0138889
        k(    2) = (   0.0000000   0.0168021   0.0000000), wk =   0.0277778
        k(    3) = (   0.0000000   0.0336042   0.0000000), wk =   0.0277778
        k(    4) = (   0.0000000   0.0504063   0.0000000), wk =   0.0277778
        k(    5) = (   0.0000000   0.0672084   0.0000000), wk =   0.0277778
        k(    6) = (   0.0000000   0.0840105   0.0000000), wk =   0.0277778
        k(    7) = (   0.0000000  -0.1008125   0.0000000), wk =   0.0138889
        k(    8) = (   0.0158411  -0.0056008   0.0000000), wk =   0.0277778
        k(    9) = (   0.0158411   0.0112013   0.0000000), wk =   0.0277778
        k(   10) = (   0.0158411   0.0280033   0.0000000), wk =   0.0277778
        k(   11) = (   0.0158411   0.0448054   0.0000000), wk =   0.0277778
        k(   12) = (   0.0158411   0.0616075   0.0000000), wk =   0.0277778
        k(   13) = (   0.0158411   0.0784096   0.0000000), wk =   0.0277778
        k(   14) = (   0.0158411  -0.1064134   0.0000000), wk =   0.0277778
        k(   15) = (   0.0158411  -0.0896113   0.0000000), wk =   0.0277778
        k(   16) = (   0.0158411  -0.0728092   0.0000000), wk =   0.0277778
        k(   17) = (   0.0158411  -0.0560071   0.0000000), wk =   0.0277778
        k(   18) = (   0.0158411  -0.0392050   0.0000000), wk =   0.0277778
        k(   19) = (   0.0158411  -0.0224029   0.0000000), wk =   0.0277778
        k(   20) = (   0.0316822  -0.0112017   0.0000000), wk =   0.0277778
        k(   21) = (   0.0316822   0.0056004   0.0000000), wk =   0.0277778
        k(   22) = (   0.0316822   0.0224025   0.0000000), wk =   0.0277778
        k(   23) = (   0.0316822   0.0392046   0.0000000), wk =   0.0277778
        k(   24) = (   0.0316822   0.0560067   0.0000000), wk =   0.0277778
        k(   25) = (   0.0316822   0.0728088   0.0000000), wk =   0.0277778
        k(   26) = (   0.0316822  -0.1120142   0.0000000), wk =   0.0277778
        k(   27) = (   0.0316822  -0.0952121   0.0000000), wk =   0.0277778
        k(   28) = (   0.0316822  -0.0784100   0.0000000), wk =   0.0277778
        k(   29) = (   0.0316822  -0.0616079   0.0000000), wk =   0.0277778
        k(   30) = (   0.0316822  -0.0448059   0.0000000), wk =   0.0277778
        k(   31) = (   0.0316822  -0.0280038   0.0000000), wk =   0.0277778
        k(   32) = (   0.0475233  -0.0168025   0.0000000), wk =   0.0277778
        k(   33) = (   0.0475233  -0.0000004   0.0000000), wk =   0.0277778
        k(   34) = (   0.0475233   0.0168017   0.0000000), wk =   0.0277778
        k(   35) = (   0.0475233   0.0336038   0.0000000), wk =   0.0277778
        k(   36) = (   0.0475233   0.0504059   0.0000000), wk =   0.0277778
        k(   37) = (   0.0475233   0.0672079   0.0000000), wk =   0.0277778
        k(   38) = (   0.0475233  -0.1176151   0.0000000), wk =   0.0277778
        k(   39) = (   0.0475233  -0.1008130   0.0000000), wk =   0.0277778
        k(   40) = (   0.0475233  -0.0840109   0.0000000), wk =   0.0277778
        k(   41) = (   0.0475233  -0.0672088   0.0000000), wk =   0.0277778
        k(   42) = (   0.0475233  -0.0504067   0.0000000), wk =   0.0277778
        k(   43) = (   0.0475233  -0.0336046   0.0000000), wk =   0.0277778
        k(   44) = (   0.0633645  -0.0224033   0.0000000), wk =   0.0277778
        k(   45) = (   0.0633645  -0.0056013   0.0000000), wk =   0.0277778
        k(   46) = (   0.0633645   0.0112008   0.0000000), wk =   0.0277778
        k(   47) = (   0.0633645   0.0280029   0.0000000), wk =   0.0277778
        k(   48) = (   0.0633645   0.0448050   0.0000000), wk =   0.0277778
        k(   49) = (   0.0633645   0.0616071   0.0000000), wk =   0.0277778
        k(   50) = (   0.0633645  -0.1232159   0.0000000), wk =   0.0277778
        k(   51) = (   0.0633645  -0.1064138   0.0000000), wk =   0.0277778
        k(   52) = (   0.0633645  -0.0896117   0.0000000), wk =   0.0277778
        k(   53) = (   0.0633645  -0.0728096   0.0000000), wk =   0.0277778
        k(   54) = (   0.0633645  -0.0560075   0.0000000), wk =   0.0277778
        k(   55) = (   0.0633645  -0.0392054   0.0000000), wk =   0.0277778
        k(   56) = (   0.0792056  -0.0280042   0.0000000), wk =   0.0277778
        k(   57) = (   0.0792056  -0.0112021   0.0000000), wk =   0.0277778
        k(   58) = (   0.0792056   0.0056000   0.0000000), wk =   0.0277778
        k(   59) = (   0.0792056   0.0224021   0.0000000), wk =   0.0277778
        k(   60) = (   0.0792056   0.0392042   0.0000000), wk =   0.0277778
        k(   61) = (   0.0792056   0.0560063   0.0000000), wk =   0.0277778
        k(   62) = (   0.0792056  -0.1288167   0.0000000), wk =   0.0277778
        k(   63) = (   0.0792056  -0.1120146   0.0000000), wk =   0.0277778
        k(   64) = (   0.0792056  -0.0952125   0.0000000), wk =   0.0277778
        k(   65) = (   0.0792056  -0.0784105   0.0000000), wk =   0.0277778
        k(   66) = (   0.0792056  -0.0616084   0.0000000), wk =   0.0277778
        k(   67) = (   0.0792056  -0.0448063   0.0000000), wk =   0.0277778
        k(   68) = (  -0.0950467   0.0336050   0.0000000), wk =   0.0138889
        k(   69) = (  -0.0950467   0.0504071   0.0000000), wk =   0.0277778
        k(   70) = (  -0.0950467   0.0672092   0.0000000), wk =   0.0277778
        k(   71) = (  -0.0950467   0.0840113   0.0000000), wk =   0.0277778
        k(   72) = (  -0.0950467   0.1008134   0.0000000), wk =   0.0277778
        k(   73) = (  -0.0950467   0.1176155   0.0000000), wk =   0.0277778
        k(   74) = (  -0.0950467  -0.0672075   0.0000000), wk =   0.0138889

     Initial potential from superposition of free atoms

     starting charge  173.97471, renormalised to  174.00000

     negative rho (up, down):  1.059E-03 0.000E+00

     %%%%%%%%%%%%%%%%%%%%%%%%%%%%%%%%%%%%%%%%%%%%%%%%%%%%%%%%%%%%%%%%%%%%%%%%
     %                                                                      %
     % You are using vdW-DF, which was implemented by the Thonhauser group. %
     % Please cite the following two papers that made this development      %
     % possible and the two reviews that describe the various versions:     %
     %                                                                      %
     %   T. Thonhauser et al., PRL 115, 136402 (2015).                      %
     %   T. Thonhauser et al., PRB 76, 125112 (2007).                       %
     %   K. Berland et al., Rep. Prog. Phys. 78, 066501 (2015).             %
     %   D.C. Langreth et al., J. Phys.: Condens. Matter 21, 084203 (2009). %
     %                                                                      %
     %                                                                      %
     % If you are calculating the stress with vdW-DF, please also cite:     %
     %                                                                      %
     %   R. Sabatini et al., J. Phys.: Condens. Matter 24, 424209 (2012).   %
     %                                                                      %
     %%%%%%%%%%%%%%%%%%%%%%%%%%%%%%%%%%%%%%%%%%%%%%%%%%%%%%%%%%%%%%%%%%%%%%%%

     Adding external electric field

     Computed dipole along edir(3) :
        Dipole                0.0012 Ry au,          0.0029 Debye
        Dipole field          0.0000 Ry au,

        Potential amp.       -0.0003 Ry
        Total length         44.7636 bohr

     Starting wfcs are  114 randomized atomic wfcs

     Self-consistent Calculation

     iteration #  1     ecut=    55.12 Ry     beta= 0.10
     Davidson diagonalization with overlap
     ethr =  1.00E-02,  avg # of iterations =  3.8

[...]

     total energy              =   -2262.83083752 Ry
     estimated scf accuracy    <       4.31108067 Ry

[...]

     iteration #  8     ecut=    55.12 Ry     beta= 0.10
     Davidson diagonalization with overlap
     c_bands:  2 eigenvalues not converged
     ethr =  4.35E-06,  avg # of iterations =  9.8

[...]

     total energy              =   -2262.80001425 Ry
     estimated scf accuracy    <       0.00001514 Ry

     iteration # 14     ecut=    55.12 Ry     beta= 0.10
     Davidson diagonalization with overlap
     ethr =  8.70E-09,  avg # of iterations =  2.0

[...]

     Adding external electric field

     Computed dipole along edir(3) :
        Dipole                0.0041 Ry au,          0.0105 Debye
        Dipole field          0.0000 Ry au,

        Potential amp.       -0.0011 Ry
        Total length         44.7636 bohr

     End of self-consistent calculation

          k = 0.0000 0.0000 0.0000 ( 29623 PWs)   bands (ev):

   -77.2057 -77.1982 -76.9311 -76.9238 -76.8943 -76.8870 -45.1382 -45.1138
   -45.1067 -45.1051 -45.0996 -45.0299 -44.9214 -44.8818 -44.8367 -44.8267
   -44.8139 -44.8056 -44.7954 -44.7748 -44.7691 -44.7577 -44.7292 -44.7186
    -7.1583  -6.3583  -6.3500  -6.3430  -6.3187  -6.2946  -6.2935  -6.2858
    -6.2176  -6.2082  -6.2081  -6.1174  -6.0420  -6.0406  -6.0296  -6.0273
    -6.0248  -6.0148  -6.0124  -5.9480  -5.9368  -5.9296  -5.9063  -5.8286
    -5.8069  -5.7680  -5.7362  -5.7192  -5.6195  -5.5580  -5.5477  -5.0357
    -3.7199  -3.6820  -3.3714  -3.1616  -1.8562  -1.6539  -1.5873  -1.5416
    -1.5077  -1.4402  -1.4031  -1.1275  -0.8937  -0.7045  -0.6886  -0.5091
    -0.4106  -0.3610  -0.1822  -0.0802  -0.0021   0.0861   0.0889   0.2778
     0.2950   0.3569   0.4548   0.4931   0.5089   0.5870   1.0352   1.0631
     1.0639   1.6224   1.6241   1.8924   2.1950   2.3884   2.4191   4.3549
     4.3824   4.6621   4.7179   4.9784   5.4797   6.0605   6.3542   6.4398

[...]

          k = 0.0792-0.0448 0.0000 ( 29555 PWs)   bands (ev):

[...]

          k =-0.0950 0.0336 0.0000 ( 29626 PWs)   bands (ev):

[...]

          k =-0.0950-0.0672 0.0000 ( 29502 PWs)   bands (ev):

   -77.2054 -77.1983 -76.9311 -76.9237 -76.8942 -76.8870 -45.1391 -45.1166
   -45.1104 -45.1038 -45.0961 -45.0298 -44.9217 -44.8822 -44.8376 -44.8270
   -44.8141 -44.8063 -44.7959 -44.7750 -44.7675 -44.7591 -44.7284 -44.7194
    -6.2143  -6.1920  -6.1365  -6.1312  -6.1157  -6.1135  -6.0861  -6.0815
    -6.0661  -6.0393  -6.0138  -6.0123  -5.9728  -5.9577  -5.9465  -5.9271
    -5.9165  -5.9164  -5.8890  -5.8690  -5.8633  -5.8349  -5.8198  -5.7879
    -5.7807  -5.7483  -5.7314  -5.6996  -5.6062  -5.5298  -4.9577  -4.6378
    -3.3777  -3.2843  -3.2806  -3.2689  -3.1356  -2.7113  -2.5909  -2.2304
    -2.0012  -1.8060  -1.7650  -1.7594  -1.7175  -1.5973  -1.3079  -1.1480
    -1.0650  -0.9571  -0.7085  -0.6838  -0.6536  -0.6474  -0.5998  -0.3367
    -0.1495   0.2385   0.3136   0.3852   0.4062   0.4615   0.8368   0.9944
     1.0277   1.2188   1.7585   2.3561   2.9363   2.9891   3.4068   4.3931
     4.4652   4.6158   6.1157   6.3570   6.6170   6.6875   6.8738   7.0831

     the Fermi energy is     0.6613 ev

!    total energy              =   -2262.80001594 Ry
     estimated scf accuracy    <       0.00000167 Ry
     smearing contrib. (-TS)   =      -0.05311523 Ry
     internal energy E=F+TS    =   -2262.74690070 Ry

     The total energy is F=E-TS. E is the sum of the following terms:
     one-electron contribution =  -18054.17592391 Ry
     hartree contribution      =    9103.32028288 Ry
     xc contribution           =    -475.90692410 Ry
     ewald contribution        =    7164.01566437 Ry
     electric field correction =       0.00000005 Ry

     convergence has been achieved in  14 iterations

     negative rho (up, down):  1.171E-03 0.000E+00

     Forces acting on atoms (cartesian axes, Ry/au):

     atom    1 type  1   force =    -0.00000028    0.00000348   -0.01078248
     atom    2 type  1   force =    -0.00000016   -0.00000507   -0.01079587
     atom    3 type  2   force =    -0.00000273   -0.00000258    0.01727058
     atom    4 type  2   force =     0.00000212    0.00000106    0.01727039
     atom    5 type  1   force =    -0.00008016   -0.00001962   -0.01159098
     atom    6 type  1   force =     0.00007996    0.00001943   -0.01159211
     atom    7 type  2   force =    -0.00000347    0.00000058    0.00583820
     atom    8 type  2   force =     0.00000364   -0.00000134    0.00588826
     atom    9 type  1   force =     0.00004434   -0.00006399    0.00037741
     atom   10 type  1   force =    -0.00004525    0.00006749    0.00037709
     atom   11 type  2   force =    -0.00006499   -0.00004668   -0.00112962
     atom   12 type  2   force =     0.00006696    0.00004724   -0.00113088

     Total force =     0.034201     Total SCF correction =     0.002824

     Writing output data file ./Zn2Rh2/Zn2Rh2_beef.save/

     General routines

     Parallel routines

   This run was terminated on:   4:58:54  10Jul2022

   JOB DONE.