     Program PWSCF v.6.6 starts on 10Jul2022 at  4:58:59

     R & G space division:  proc/nbgrp/npool/nimage =      37
     Fft bands division:     nmany     =       1
     Reading input from Zn2Ta2.in
Warning: card &CELL ignored
Warning: card / ignored

     Current dimensions of program PWSCF are:
     Max number of different atomic species (ntypx) = 10
     Max number of k-points (npk) =  40000
     Max angular momentum in pseudopotentials (lmaxx) =  3
     Presently stress not available with electric field and gates

     Message from routine cell_base_init:
     DEPRECATED: use true lattice parameter, not A to a.u. conversion factor
     file Zn.pbe-dnl-rrkjus_psl.1.0.0.UPF: wavefunction(s)  3D renormalized
     file Ta.pbe-spfn-rrkjus_psl.1.0.0.UPF: wavefunction(s)  5S 5P renormalized

     IMPORTANT: XC functional enforced from input :
     Exchange-correlation= BEEF-VDW
                           (   1   4  43  14   2   0   0)
     Any further DFT definition will be discarded
     Please, verify this is what you really want

     Subspace diagonalization in iterative solution of the eigenvalue problem:
     a serial algorithm will be used

     Found symmetry operation: I + ( -0.5000 -0.5000  0.0000)
     This is a supercell, fractional translations are disabled

     bravais-lattice index     =            0
     lattice parameter (alat)  =       1.8897  a.u.
     unit-cell volume          =    4638.5203 (a.u.)^3
     number of atoms/cell      =           12
     number of atomic types    =            2
     number of electrons       =       234.00
     number of Kohn-Sham states=          140
     kinetic-energy cutoff     =      55.1240  Ry
     charge density cutoff     =     551.2396  Ry
     convergence threshold     =      1.0E-05
     mixing beta               =       0.1000
     number of iterations used =           10  plain     mixing
     Exchange-correlation= BEEF-VDW
                           (   1   4  43  14   2   0   0)

     celldm(1)=   1.889726  celldm(2)=   0.000000  celldm(3)=   0.000000
     celldm(4)=   0.000000  celldm(5)=   0.000000  celldm(6)=   0.000000

     crystal axes: (cart. coord. in units of alat)
               a(1) = (   5.669136   0.000000   0.000000 )
               a(2) = (   2.813383   4.921786   0.000000 )
               a(3) = (   0.000000   0.000000  24.634477 )

     reciprocal axes: (cart. coord. in units 2 pi/alat)
               b(1) = (  0.176394 -0.100830  0.000000 )
               b(2) = (  0.000000  0.203178  0.000000 )
               b(3) = (  0.000000  0.000000  0.040594 )

     PseudoPot. # 1 for Zn read from file:
     ../pseudo/Zn.pbe-dnl-rrkjus_psl.1.0.0.UPF
     MD5 check sum: 7f56cabf9682ed8c977c2f7d0c5985c5
     Pseudo is Ultrasoft + core correction, Zval = 12.0
     Generated using "atomic" code by A. Dal Corso v.6.2.2
     Using radial grid of 1201 points,  6 beta functions with:
                l(1) =   0
                l(2) =   0
                l(3) =   1
                l(4) =   1
                l(5) =   2
                l(6) =   2
     Q(r) pseudized with 0 coefficients

     PseudoPot. # 2 for Ta read from file:
     ../pseudo/Ta.pbe-spfn-rrkjus_psl.1.0.0.UPF
     MD5 check sum: 39d7d349fe394e56adf8454eb9315fbb
     Pseudo is Ultrasoft + core correction, Zval = 27.0
     Generated using "atomic" code by A. Dal Corso v.6.3
     Using radial grid of 1273 points,  8 beta functions with:
                l(1) =   0
                l(2) =   0
                l(3) =   1
                l(4) =   1
                l(5) =   2
                l(6) =   2
                l(7) =   3
                l(8) =   3
     Q(r) pseudized with 0 coefficients

     atomic species   valence    mass     pseudopotential
        Zn            12.00    65.38000     Zn( 1.00)
        Ta            27.00   180.94788     Ta( 1.00)

     No symmetry found

   Cartesian axes

     site n.     atom                  positions (alat units)
         1           Zn  tau(   1) = (   0.0000000   0.0000000  10.0000000  )
         2           Zn  tau(   2) = (   4.2412595   2.4608930  10.0000000  )
         3           Ta  tau(   3) = (   2.8345679   0.0000000  10.0000000  )
         4           Ta  tau(   4) = (   1.4066916   2.4608930  10.0000000  )
         5           Zn  tau(   5) = (   5.6691359   3.2893853  12.3172386  )
         6           Zn  tau(   6) = (   1.4278764   0.8284923  12.3172386  )
         7           Ta  tau(   7) = (   2.8345679   3.2893853  12.3172386  )
         8           Ta  tau(   8) = (   4.2624443   0.8284923  12.3172386  )
         9           Zn  tau(   9) = (   2.8282018   1.6409787  14.7548942  )
        10           Zn  tau(  10) = (   7.0694393   4.1019018  14.7548909  )
        11           Ta  tau(  11) = (   5.6669624   1.6434316  14.5601341  )
        12           Ta  tau(  12) = (   4.2390687   4.1043135  14.5601292  )

     number of k points=    74  Fermi-Dirac smearing, width (Ry)=  0.0100
                       cart. coord. in units 2pi/alat
        k(    1) = (   0.0000000   0.0000000   0.0000000), wk =   0.0138889
        k(    2) = (   0.0000000   0.0169315   0.0000000), wk =   0.0277778
        k(    3) = (   0.0000000   0.0338630   0.0000000), wk =   0.0277778
        k(    4) = (   0.0000000   0.0507946   0.0000000), wk =   0.0277778
        k(    5) = (   0.0000000   0.0677261   0.0000000), wk =   0.0277778
        k(    6) = (   0.0000000   0.0846576   0.0000000), wk =   0.0277778
        k(    7) = (   0.0000000  -0.1015891   0.0000000), wk =   0.0138889
        k(    8) = (   0.0146995  -0.0084025   0.0000000), wk =   0.0277778
        k(    9) = (   0.0146995   0.0085290   0.0000000), wk =   0.0277778
        k(   10) = (   0.0146995   0.0254606   0.0000000), wk =   0.0277778
        k(   11) = (   0.0146995   0.0423921   0.0000000), wk =   0.0277778
        k(   12) = (   0.0146995   0.0593236   0.0000000), wk =   0.0277778
        k(   13) = (   0.0146995   0.0762551   0.0000000), wk =   0.0277778
        k(   14) = (   0.0146995  -0.1099916   0.0000000), wk =   0.0277778
        k(   15) = (   0.0146995  -0.0930601   0.0000000), wk =   0.0277778
        k(   16) = (   0.0146995  -0.0761286   0.0000000), wk =   0.0277778
        k(   17) = (   0.0146995  -0.0591971   0.0000000), wk =   0.0277778
        k(   18) = (   0.0146995  -0.0422655   0.0000000), wk =   0.0277778
        k(   19) = (   0.0146995  -0.0253340   0.0000000), wk =   0.0277778
        k(   20) = (   0.0293990  -0.0168050   0.0000000), wk =   0.0277778
        k(   21) = (   0.0293990   0.0001265   0.0000000), wk =   0.0277778
        k(   22) = (   0.0293990   0.0170581   0.0000000), wk =   0.0277778
        k(   23) = (   0.0293990   0.0339896   0.0000000), wk =   0.0277778
        k(   24) = (   0.0293990   0.0509211   0.0000000), wk =   0.0277778
        k(   25) = (   0.0293990   0.0678526   0.0000000), wk =   0.0277778
        k(   26) = (   0.0293990  -0.1183941   0.0000000), wk =   0.0277778
        k(   27) = (   0.0293990  -0.1014626   0.0000000), wk =   0.0277778
        k(   28) = (   0.0293990  -0.0845311   0.0000000), wk =   0.0277778
        k(   29) = (   0.0293990  -0.0675995   0.0000000), wk =   0.0277778
        k(   30) = (   0.0293990  -0.0506680   0.0000000), wk =   0.0277778
        k(   31) = (   0.0293990  -0.0337365   0.0000000), wk =   0.0277778
        k(   32) = (   0.0440984  -0.0252075   0.0000000), wk =   0.0277778
        k(   33) = (   0.0440984  -0.0082759   0.0000000), wk =   0.0277778
        k(   34) = (   0.0440984   0.0086556   0.0000000), wk =   0.0277778
        k(   35) = (   0.0440984   0.0255871   0.0000000), wk =   0.0277778
        k(   36) = (   0.0440984   0.0425186   0.0000000), wk =   0.0277778
        k(   37) = (   0.0440984   0.0594501   0.0000000), wk =   0.0277778
        k(   38) = (   0.0440984  -0.1267966   0.0000000), wk =   0.0277778
        k(   39) = (   0.0440984  -0.1098651   0.0000000), wk =   0.0277778
        k(   40) = (   0.0440984  -0.0929336   0.0000000), wk =   0.0277778
        k(   41) = (   0.0440984  -0.0760020   0.0000000), wk =   0.0277778
        k(   42) = (   0.0440984  -0.0590705   0.0000000), wk =   0.0277778
        k(   43) = (   0.0440984  -0.0421390   0.0000000), wk =   0.0277778
        k(   44) = (   0.0587979  -0.0336100   0.0000000), wk =   0.0277778
        k(   45) = (   0.0587979  -0.0166784   0.0000000), wk =   0.0277778
        k(   46) = (   0.0587979   0.0002531   0.0000000), wk =   0.0277778
        k(   47) = (   0.0587979   0.0171846   0.0000000), wk =   0.0277778
        k(   48) = (   0.0587979   0.0341161   0.0000000), wk =   0.0277778
        k(   49) = (   0.0587979   0.0510477   0.0000000), wk =   0.0277778
        k(   50) = (   0.0587979  -0.1351991   0.0000000), wk =   0.0277778
        k(   51) = (   0.0587979  -0.1182676   0.0000000), wk =   0.0277778
        k(   52) = (   0.0587979  -0.1013361   0.0000000), wk =   0.0277778
        k(   53) = (   0.0587979  -0.0844045   0.0000000), wk =   0.0277778
        k(   54) = (   0.0587979  -0.0674730   0.0000000), wk =   0.0277778
        k(   55) = (   0.0587979  -0.0505415   0.0000000), wk =   0.0277778
        k(   56) = (   0.0734974  -0.0420125   0.0000000), wk =   0.0277778
        k(   57) = (   0.0734974  -0.0250809   0.0000000), wk =   0.0277778
        k(   58) = (   0.0734974  -0.0081494   0.0000000), wk =   0.0277778
        k(   59) = (   0.0734974   0.0087821   0.0000000), wk =   0.0277778
        k(   60) = (   0.0734974   0.0257136   0.0000000), wk =   0.0277778
        k(   61) = (   0.0734974   0.0426452   0.0000000), wk =   0.0277778
        k(   62) = (   0.0734974  -0.1436016   0.0000000), wk =   0.0277778
        k(   63) = (   0.0734974  -0.1266701   0.0000000), wk =   0.0277778
        k(   64) = (   0.0734974  -0.1097385   0.0000000), wk =   0.0277778
        k(   65) = (   0.0734974  -0.0928070   0.0000000), wk =   0.0277778
        k(   66) = (   0.0734974  -0.0758755   0.0000000), wk =   0.0277778
        k(   67) = (   0.0734974  -0.0589440   0.0000000), wk =   0.0277778
        k(   68) = (  -0.0881969   0.0504149   0.0000000), wk =   0.0138889
        k(   69) = (  -0.0881969   0.0673465   0.0000000), wk =   0.0277778
        k(   70) = (  -0.0881969   0.0842780   0.0000000), wk =   0.0277778
        k(   71) = (  -0.0881969   0.1012095   0.0000000), wk =   0.0277778
        k(   72) = (  -0.0881969   0.1181410   0.0000000), wk =   0.0277778
        k(   73) = (  -0.0881969   0.1350726   0.0000000), wk =   0.0277778
        k(   74) = (  -0.0881969  -0.0511742   0.0000000), wk =   0.0138889

     Initial potential from superposition of free atoms

     starting charge  233.97259, renormalised to  234.00000

     negative rho (up, down):  1.756E-04 0.000E+00

     %%%%%%%%%%%%%%%%%%%%%%%%%%%%%%%%%%%%%%%%%%%%%%%%%%%%%%%%%%%%%%%%%%%%%%%%
     %                                                                      %
     % You are using vdW-DF, which was implemented by the Thonhauser group. %
     % Please cite the following two papers that made this development      %
     % possible and the two reviews that describe the various versions:     %
     %                                                                      %
     %   T. Thonhauser et al., PRL 115, 136402 (2015).                      %
     %   T. Thonhauser et al., PRB 76, 125112 (2007).                       %
     %   K. Berland et al., Rep. Prog. Phys. 78, 066501 (2015).             %
     %   D.C. Langreth et al., J. Phys.: Condens. Matter 21, 084203 (2009). %
     %                                                                      %
     %                                                                      %
     % If you are calculating the stress with vdW-DF, please also cite:     %
     %                                                                      %
     %   R. Sabatini et al., J. Phys.: Condens. Matter 24, 424209 (2012).   %
     %                                                                      %
     %%%%%%%%%%%%%%%%%%%%%%%%%%%%%%%%%%%%%%%%%%%%%%%%%%%%%%%%%%%%%%%%%%%%%%%%

     Adding external electric field

     Computed dipole along edir(3) :
        Dipole                0.0017 Ry au,          0.0043 Debye
        Dipole field          0.0000 Ry au,

        Potential amp.       -0.0004 Ry
        Total length         45.3886 bohr

     Starting wfcs are  156 randomized atomic wfcs

     Self-consistent Calculation

     iteration #  1     ecut=    55.12 Ry     beta= 0.10
     Davidson diagonalization with overlap
     ethr =  1.00E-02,  avg # of iterations =  3.1

     Threshold (ethr) on eigenvalues was too large:
     Diagonalizing with lowered threshold

     Davidson diagonalization with overlap
     ethr =  8.85E-04,  avg # of iterations =  2.0

[...]

     total energy              =   -4989.52837712 Ry
     estimated scf accuracy    <       2.04391559 Ry

[...]

     iteration #  5     ecut=    55.12 Ry     beta= 0.10
     Davidson diagonalization with overlap
     c_bands:  1 eigenvalues not converged
     c_bands:  1 eigenvalues not converged
     c_bands:  1 eigenvalues not converged
     ethr =  1.07E-04,  avg # of iterations = 12.3

[...]

     iteration #  8     ecut=    55.12 Ry     beta= 0.10
     Davidson diagonalization with overlap
     c_bands:  1 eigenvalues not converged
     c_bands:  1 eigenvalues not converged
     ethr =  2.68E-06,  avg # of iterations = 11.2

[...]

     total energy              =   -4989.55958921 Ry
     estimated scf accuracy    <       0.00001699 Ry

     iteration # 13     ecut=    55.12 Ry     beta= 0.10
     Davidson diagonalization with overlap
     ethr =  7.26E-09,  avg # of iterations =  4.7

[...]

     Adding external electric field

     Computed dipole along edir(3) :
        Dipole               -0.0219 Ry au,         -0.0558 Debye
        Dipole field         -0.0001 Ry au,

        Potential amp.        0.0054 Ry
        Total length         45.3886 bohr

     End of self-consistent calculation

          k = 0.0000 0.0000 0.0000 ( 32103 PWs)   bands (ev):

   -67.0457 -66.9959 -66.9432 -66.8930 -66.7093 -66.6583 -33.5394 -33.5340
   -33.4685 -33.4476 -33.4415 -33.3656 -33.3510 -33.3428 -33.2846 -33.2809
   -33.1972 -33.1584 -33.0624 -32.7622 -32.7548 -32.6831 -32.6826 -32.5541
   -18.7637 -18.7608 -18.7596 -18.7578 -18.7323 -18.7164 -18.7123 -18.7033
   -18.7004 -18.6701 -18.6693 -18.6657 -18.6495 -18.6463 -18.6452 -18.6432
   -18.6344 -18.6251 -18.6231 -18.6091 -18.6067 -18.5973 -18.5959 -18.5684
   -18.5657 -18.5651 -18.5339 -18.5225 -18.4004 -18.3998 -18.3877 -18.3826
   -18.3823 -18.3794 -18.3777 -18.3721 -18.3549 -18.3383 -18.3378 -18.3285
   -18.3036 -18.2990  -7.0469  -6.0677  -6.0559  -6.0028  -5.9710  -5.8840
    -5.8796  -5.8452  -5.7811  -5.7784  -5.7683  -5.6994  -5.6932  -5.6474
    -5.5369  -5.5304  -5.4994  -5.4925  -5.4624  -5.4365  -5.4155  -5.4036
    -5.3551  -5.3511  -5.2879  -5.2820  -5.2224  -5.2000  -5.1548  -5.1299
    -5.0333  -4.8278  -3.2985  -2.7378  -1.9696  -1.7349  -1.1276  -1.0583
    -0.6519  -0.5311  -0.2592  -0.2310  -0.1445   0.5300   0.6691   0.8982
     1.0342   1.0881   1.5732   1.6197   1.6647   2.0213   2.1328   2.2395
     2.4918   2.6009   2.6977   3.0224   3.3225   3.4385   3.9947   4.0081
     4.0465   4.2883   4.6578   4.6993   4.8382   4.9995   5.0341   5.0404
     5.3170   5.5303   5.6302   5.8718

[...]

          k = 0.0735-0.0589 0.0000 ( 32067 PWs)   bands (ev):

[...]

          k =-0.0882 0.0504 0.0000 ( 32034 PWs)   bands (ev):

[...]

          k =-0.0882-0.0512 0.0000 ( 32070 PWs)   bands (ev):

   -67.0457 -66.9959 -66.9432 -66.8931 -66.7093 -66.6582 -33.5429 -33.5356
   -33.4701 -33.4463 -33.4423 -33.3722 -33.3507 -33.3424 -33.2881 -33.2771
   -33.1961 -33.1544 -33.0670 -32.7615 -32.7548 -32.6835 -32.6830 -32.5546
   -18.7640 -18.7606 -18.7596 -18.7578 -18.7324 -18.7164 -18.7125 -18.7033
   -18.7005 -18.6701 -18.6696 -18.6661 -18.6499 -18.6461 -18.6452 -18.6432
   -18.6343 -18.6252 -18.6231 -18.6091 -18.6069 -18.5973 -18.5960 -18.5687
   -18.5657 -18.5654 -18.5338 -18.5226 -18.4007 -18.3999 -18.3880 -18.3828
   -18.3822 -18.3793 -18.3778 -18.3722 -18.3550 -18.3382 -18.3378 -18.3287
   -18.3037 -18.2990  -6.0749  -5.9371  -5.8655  -5.8575  -5.7979  -5.7878
    -5.7333  -5.7130  -5.6990  -5.6291  -5.5698  -5.5462  -5.5326  -5.5218
    -5.5068  -5.5012  -5.4780  -5.4366  -5.3993  -5.3971  -5.3423  -5.3390
    -5.3001  -5.2496  -5.2313  -5.2080  -5.1789  -5.1626  -5.1290  -5.0226
    -4.9386  -4.8476  -3.5677  -3.0455  -2.3979  -2.0361  -1.9671  -1.7045
    -1.3696  -1.3619  -0.6796  -0.6207  -0.5817  -0.4901  -0.2522  -0.1108
     0.2694   0.4505   0.6660   0.8225   1.0034   1.0355   2.0486   2.3716
     2.6375   2.8301   2.9198   3.5842   3.6556   3.7268   3.9920   4.1302
     4.4776   4.6284   4.6523   4.9447   5.1639   5.2850   5.3164   6.2461
     6.3797   6.4548   6.6905   7.0709

     the Fermi energy is     1.5805 ev

!    total energy              =   -4989.55959528 Ry
     estimated scf accuracy    <       0.00000586 Ry
     smearing contrib. (-TS)   =      -0.04625367 Ry
     internal energy E=F+TS    =   -4989.51334161 Ry

     The total energy is F=E-TS. E is the sum of the following terms:
     one-electron contribution =  -31882.05635268 Ry
     hartree contribution      =   16112.34999368 Ry
     xc contribution           =    -704.60370483 Ry
     ewald contribution        =   11484.79672092 Ry
     electric field correction =       0.00000130 Ry

     convergence has been achieved in  13 iterations

     negative rho (up, down):  3.009E-04 0.000E+00

     Forces acting on atoms (cartesian axes, Ry/au):

     atom    1 type  1   force =     0.00489757    0.00284313   -0.01356170
     atom    2 type  1   force =     0.00489484    0.00284465   -0.01355516
     atom    3 type  2   force =     0.00234749    0.00136513    0.02034376
     atom    4 type  2   force =     0.00234320    0.00135860    0.02033887
     atom    5 type  1   force =     0.00232975    0.00135326   -0.00575846
     atom    6 type  1   force =     0.00230073    0.00133510   -0.00575225
     atom    7 type  2   force =    -0.00995567   -0.00572574    0.00114922
     atom    8 type  2   force =    -0.00989838   -0.00580015    0.00115314
     atom    9 type  1   force =     0.00038063    0.00022169   -0.00162779
     atom   10 type  1   force =     0.00038170    0.00022027   -0.00162904
     atom   11 type  2   force =    -0.00002084   -0.00000135   -0.00055395
     atom   12 type  2   force =    -0.00000101   -0.00001459   -0.00054663

     Total force =     0.040337     Total SCF correction =     0.009012
     SCF correction compared to forces is large: reduce conv_thr to get better values

     Writing output data file ./Zn2Ta2/Zn2Ta2_beef.save/

     General routines

     Parallel routines

   This run was terminated on:   7:31:10  10Jul2022

   JOB DONE.