     Program PWSCF v.6.6 starts on 10Jul2022 at  1:36:15

     R & G space division:  proc/nbgrp/npool/nimage =      37
     Fft bands division:     nmany     =       1
     Reading input from Zn2Zr2.in
Warning: card &CELL ignored
Warning: card / ignored

     Current dimensions of program PWSCF are:
     Max number of different atomic species (ntypx) = 10
     Max number of k-points (npk) =  40000
     Max angular momentum in pseudopotentials (lmaxx) =  3
     Presently stress not available with electric field and gates

     Message from routine cell_base_init:
     DEPRECATED: use true lattice parameter, not A to a.u. conversion factor
     file Zn.pbe-dnl-rrkjus_psl.1.0.0.UPF: wavefunction(s)  3D renormalized
     file Zr.pbe-spn-rrkjus_psl.1.0.0.UPF: wavefunction(s)  4S renormalized

     IMPORTANT: XC functional enforced from input :
     Exchange-correlation= BEEF-VDW
                           (   1   4  43  14   2   0   0)
     Any further DFT definition will be discarded
     Please, verify this is what you really want

     Subspace diagonalization in iterative solution of the eigenvalue problem:
     a serial algorithm will be used

     bravais-lattice index     =            0
     lattice parameter (alat)  =       1.8897  a.u.
     unit-cell volume          =    5279.5847 (a.u.)^3
     number of atoms/cell      =           12
     number of atomic types    =            2
     number of electrons       =       144.00
     number of Kohn-Sham states=           86
     kinetic-energy cutoff     =      55.1240  Ry
     charge density cutoff     =     551.2396  Ry
     convergence threshold     =      1.0E-05
     mixing beta               =       0.1000
     number of iterations used =           10  plain     mixing
     Exchange-correlation= BEEF-VDW
                           (   1   4  43  14   2   0   0)

     celldm(1)=   1.889726  celldm(2)=   0.000000  celldm(3)=   0.000000
     celldm(4)=   0.000000  celldm(5)=   0.000000  celldm(6)=   0.000000

     crystal axes: (cart. coord. in units of alat)
               a(1) = (   5.792678   0.000000   0.000000 )
               a(2) = (   1.930811   5.461418   0.000000 )
               a(3) = (   0.000000   0.000000  24.729677 )

     reciprocal axes: (cart. coord. in units 2 pi/alat)
               b(1) = (  0.172632 -0.061032  0.000000 )
               b(2) = (  0.000000  0.183103  0.000000 )
               b(3) = (  0.000000  0.000000  0.040437 )

     PseudoPot. # 1 for Zn read from file:
     ../pseudo/Zn.pbe-dnl-rrkjus_psl.1.0.0.UPF
     MD5 check sum: 7f56cabf9682ed8c977c2f7d0c5985c5
     Pseudo is Ultrasoft + core correction, Zval = 12.0
     Generated using "atomic" code by A. Dal Corso v.6.2.2
     Using radial grid of 1201 points,  6 beta functions with:
                l(1) =   0
                l(2) =   0
                l(3) =   1
                l(4) =   1
                l(5) =   2
                l(6) =   2
     Q(r) pseudized with 0 coefficients

     PseudoPot. # 2 for Zr read from file:
     ../pseudo/Zr.pbe-spn-rrkjus_psl.1.0.0.UPF
     MD5 check sum: 3d17ee99aa1707c2ccb6b09ed65e51a1
     Pseudo is Ultrasoft + core correction, Zval = 12.0
     Generated using "atomic" code by A. Dal Corso v.6.2.2
     Using radial grid of 1225 points,  6 beta functions with:
                l(1) =   0
                l(2) =   0
                l(3) =   1
                l(4) =   1
                l(5) =   2
                l(6) =   2
     Q(r) pseudized with 0 coefficients

     atomic species   valence    mass     pseudopotential
        Zn            12.00    65.38000     Zn( 1.00)
        Zr            12.00    91.22400     Zr( 1.00)

     No symmetry found

   Cartesian axes

     site n.     atom                  positions (alat units)
         1           Zn  tau(   1) = (   0.0000000   0.0000000  10.0000000  )
         2           Zn  tau(   2) = (   3.8617446   2.7307091  10.0000000  )
         3           Zr  tau(   3) = (   2.8963391   0.0000000  10.0000000  )
         4           Zr  tau(   4) = (   0.9654055   2.7307091  10.0000000  )
         5           Zn  tau(   5) = (   5.7926781   4.0961069  12.3648384  )
         6           Zn  tau(   6) = (   1.9309335   1.3653978  12.3648384  )
         7           Zr  tau(   7) = (   2.8963391   4.0961069  12.3648384  )
         8           Zr  tau(   8) = (   4.8272726   1.3653978  12.3648384  )
         9           Zn  tau(   9) = (   3.8618809   2.7307433  14.8796211  )
        10           Zn  tau(  10) = (   0.0000411   0.0000857  14.8796247  )
        11           Zr  tau(  11) = (   0.9655011   2.7307647  14.6330817  )
        12           Zr  tau(  12) = (   2.8963827   0.0000478  14.6330853  )

     number of k points=    74  Fermi-Dirac smearing, width (Ry)=  0.0100
                       cart. coord. in units 2pi/alat
        k(    1) = (   0.0000000   0.0000000   0.0000000), wk =   0.0138889
        k(    2) = (   0.0000000   0.0152586   0.0000000), wk =   0.0277778
        k(    3) = (   0.0000000   0.0305171   0.0000000), wk =   0.0277778
        k(    4) = (   0.0000000   0.0457757   0.0000000), wk =   0.0277778
        k(    5) = (   0.0000000   0.0610342   0.0000000), wk =   0.0277778
        k(    6) = (   0.0000000   0.0762928   0.0000000), wk =   0.0277778
        k(    7) = (   0.0000000  -0.0915513   0.0000000), wk =   0.0138889
        k(    8) = (   0.0143860  -0.0050860   0.0000000), wk =   0.0277778
        k(    9) = (   0.0143860   0.0101726   0.0000000), wk =   0.0277778
        k(   10) = (   0.0143860   0.0254311   0.0000000), wk =   0.0277778
        k(   11) = (   0.0143860   0.0406897   0.0000000), wk =   0.0277778
        k(   12) = (   0.0143860   0.0559482   0.0000000), wk =   0.0277778
        k(   13) = (   0.0143860   0.0712068   0.0000000), wk =   0.0277778
        k(   14) = (   0.0143860  -0.0966373   0.0000000), wk =   0.0277778
        k(   15) = (   0.0143860  -0.0813787   0.0000000), wk =   0.0277778
        k(   16) = (   0.0143860  -0.0661202   0.0000000), wk =   0.0277778
        k(   17) = (   0.0143860  -0.0508616   0.0000000), wk =   0.0277778
        k(   18) = (   0.0143860  -0.0356031   0.0000000), wk =   0.0277778
        k(   19) = (   0.0143860  -0.0203445   0.0000000), wk =   0.0277778
        k(   20) = (   0.0287720  -0.0101719   0.0000000), wk =   0.0277778
        k(   21) = (   0.0287720   0.0050866   0.0000000), wk =   0.0277778
        k(   22) = (   0.0287720   0.0203452   0.0000000), wk =   0.0277778
        k(   23) = (   0.0287720   0.0356037   0.0000000), wk =   0.0277778
        k(   24) = (   0.0287720   0.0508623   0.0000000), wk =   0.0277778
        k(   25) = (   0.0287720   0.0661208   0.0000000), wk =   0.0277778
        k(   26) = (   0.0287720  -0.1017233   0.0000000), wk =   0.0277778
        k(   27) = (   0.0287720  -0.0864647   0.0000000), wk =   0.0277778
        k(   28) = (   0.0287720  -0.0712061   0.0000000), wk =   0.0277778
        k(   29) = (   0.0287720  -0.0559476   0.0000000), wk =   0.0277778
        k(   30) = (   0.0287720  -0.0406890   0.0000000), wk =   0.0277778
        k(   31) = (   0.0287720  -0.0254305   0.0000000), wk =   0.0277778
        k(   32) = (   0.0431579  -0.0152579   0.0000000), wk =   0.0277778
        k(   33) = (   0.0431579   0.0000006   0.0000000), wk =   0.0277778
        k(   34) = (   0.0431579   0.0152592   0.0000000), wk =   0.0277778
        k(   35) = (   0.0431579   0.0305178   0.0000000), wk =   0.0277778
        k(   36) = (   0.0431579   0.0457763   0.0000000), wk =   0.0277778
        k(   37) = (   0.0431579   0.0610349   0.0000000), wk =   0.0277778
        k(   38) = (   0.0431579  -0.1068092   0.0000000), wk =   0.0277778
        k(   39) = (   0.0431579  -0.0915507   0.0000000), wk =   0.0277778
        k(   40) = (   0.0431579  -0.0762921   0.0000000), wk =   0.0277778
        k(   41) = (   0.0431579  -0.0610336   0.0000000), wk =   0.0277778
        k(   42) = (   0.0431579  -0.0457750   0.0000000), wk =   0.0277778
        k(   43) = (   0.0431579  -0.0305165   0.0000000), wk =   0.0277778
        k(   44) = (   0.0575439  -0.0203439   0.0000000), wk =   0.0277778
        k(   45) = (   0.0575439  -0.0050853   0.0000000), wk =   0.0277778
        k(   46) = (   0.0575439   0.0101732   0.0000000), wk =   0.0277778
        k(   47) = (   0.0575439   0.0254318   0.0000000), wk =   0.0277778
        k(   48) = (   0.0575439   0.0406903   0.0000000), wk =   0.0277778
        k(   49) = (   0.0575439   0.0559489   0.0000000), wk =   0.0277778
        k(   50) = (   0.0575439  -0.1118952   0.0000000), wk =   0.0277778
        k(   51) = (   0.0575439  -0.0966366   0.0000000), wk =   0.0277778
        k(   52) = (   0.0575439  -0.0813781   0.0000000), wk =   0.0277778
        k(   53) = (   0.0575439  -0.0661195   0.0000000), wk =   0.0277778
        k(   54) = (   0.0575439  -0.0508610   0.0000000), wk =   0.0277778
        k(   55) = (   0.0575439  -0.0356024   0.0000000), wk =   0.0277778
        k(   56) = (   0.0719299  -0.0254298   0.0000000), wk =   0.0277778
        k(   57) = (   0.0719299  -0.0101713   0.0000000), wk =   0.0277778
        k(   58) = (   0.0719299   0.0050873   0.0000000), wk =   0.0277778
        k(   59) = (   0.0719299   0.0203458   0.0000000), wk =   0.0277778
        k(   60) = (   0.0719299   0.0356044   0.0000000), wk =   0.0277778
        k(   61) = (   0.0719299   0.0508629   0.0000000), wk =   0.0277778
        k(   62) = (   0.0719299  -0.1169812   0.0000000), wk =   0.0277778
        k(   63) = (   0.0719299  -0.1017226   0.0000000), wk =   0.0277778
        k(   64) = (   0.0719299  -0.0864641   0.0000000), wk =   0.0277778
        k(   65) = (   0.0719299  -0.0712055   0.0000000), wk =   0.0277778
        k(   66) = (   0.0719299  -0.0559470   0.0000000), wk =   0.0277778
        k(   67) = (   0.0719299  -0.0406884   0.0000000), wk =   0.0277778
        k(   68) = (  -0.0863159   0.0305158   0.0000000), wk =   0.0138889
        k(   69) = (  -0.0863159   0.0457744   0.0000000), wk =   0.0277778
        k(   70) = (  -0.0863159   0.0610329   0.0000000), wk =   0.0277778
        k(   71) = (  -0.0863159   0.0762915   0.0000000), wk =   0.0277778
        k(   72) = (  -0.0863159   0.0915500   0.0000000), wk =   0.0277778
        k(   73) = (  -0.0863159   0.1068086   0.0000000), wk =   0.0277778
        k(   74) = (  -0.0863159  -0.0610355   0.0000000), wk =   0.0138889

     Initial potential from superposition of free atoms

     starting charge  143.96475, renormalised to  144.00000

     negative rho (up, down):  3.263E-04 0.000E+00

     %%%%%%%%%%%%%%%%%%%%%%%%%%%%%%%%%%%%%%%%%%%%%%%%%%%%%%%%%%%%%%%%%%%%%%%%
     %                                                                      %
     % You are using vdW-DF, which was implemented by the Thonhauser group. %
     % Please cite the following two papers that made this development      %
     % possible and the two reviews that describe the various versions:     %
     %                                                                      %
     %   T. Thonhauser et al., PRL 115, 136402 (2015).                      %
     %   T. Thonhauser et al., PRB 76, 125112 (2007).                       %
     %   K. Berland et al., Rep. Prog. Phys. 78, 066501 (2015).             %
     %   D.C. Langreth et al., J. Phys.: Condens. Matter 21, 084203 (2009). %
     %                                                                      %
     %                                                                      %
     % If you are calculating the stress with vdW-DF, please also cite:     %
     %                                                                      %
     %   R. Sabatini et al., J. Phys.: Condens. Matter 24, 424209 (2012).   %
     %                                                                      %
     %%%%%%%%%%%%%%%%%%%%%%%%%%%%%%%%%%%%%%%%%%%%%%%%%%%%%%%%%%%%%%%%%%%%%%%%

     Adding external electric field

     Computed dipole along edir(3) :
        Dipole                0.0007 Ry au,          0.0019 Debye
        Dipole field          0.0000 Ry au,

        Potential amp.       -0.0002 Ry
        Total length         45.5640 bohr

     Starting wfcs are  132 randomized atomic wfcs

     Self-consistent Calculation

     iteration #  1     ecut=    55.12 Ry     beta= 0.10
     Davidson diagonalization with overlap
     ethr =  1.00E-02,  avg # of iterations =  2.0

[...]

     total energy              =   -1497.71597929 Ry
     estimated scf accuracy    <       2.33686069 Ry

[...]

     iteration #  9     ecut=    55.12 Ry     beta= 0.10
     Davidson diagonalization with overlap
     c_bands:  2 eigenvalues not converged
     c_bands:  1 eigenvalues not converged
     c_bands:  2 eigenvalues not converged
     c_bands:  1 eigenvalues not converged
     c_bands:  1 eigenvalues not converged
     c_bands:  2 eigenvalues not converged
     c_bands:  1 eigenvalues not converged
     c_bands:  1 eigenvalues not converged
     c_bands:  1 eigenvalues not converged
     c_bands:  1 eigenvalues not converged
     c_bands:  2 eigenvalues not converged
     c_bands:  1 eigenvalues not converged
     c_bands:  1 eigenvalues not converged
     c_bands:  1 eigenvalues not converged
     c_bands:  1 eigenvalues not converged
     c_bands:  1 eigenvalues not converged
     c_bands:  2 eigenvalues not converged
     ethr =  2.73E-06,  avg # of iterations = 12.4

[...]

     iteration # 14     ecut=    55.12 Ry     beta= 0.10
     Davidson diagonalization with overlap
     ethr =  3.27E-07,  avg # of iterations =  4.8

[...]

     total energy              =   -1497.88838822 Ry
     estimated scf accuracy    <       0.00002594 Ry

     iteration # 15     ecut=    55.12 Ry     beta= 0.10
     Davidson diagonalization with overlap
     c_bands:  1 eigenvalues not converged
     ethr =  1.80E-08,  avg # of iterations =  6.7

[...]

     Adding external electric field

     Computed dipole along edir(3) :
        Dipole               -0.0645 Ry au,         -0.1638 Debye
        Dipole field         -0.0002 Ry au,

        Potential amp.        0.0140 Ry
        Total length         45.5640 bohr

     End of self-consistent calculation

          k = 0.0000 0.0000 0.0000 ( 36385 PWs)   bands (ev):

   -48.8083 -48.7817 -48.6938 -48.6664 -48.3873 -48.3613 -26.8785 -26.8512
   -26.8074 -26.7784 -26.7613 -26.7550 -26.7331 -26.7191 -26.6832 -26.6560
   -26.5563 -26.4847 -26.3945 -26.3321 -26.3214 -26.2964 -26.2595 -26.2150
    -6.6311  -6.6049  -6.5733  -6.5649  -6.5414  -6.5005  -6.4878  -6.4640
    -6.4514  -6.4442  -6.4335  -6.4237  -6.4165  -6.3992  -6.3921  -6.3584
    -6.3525  -6.3484  -6.3175  -6.2908  -6.2714  -6.2702  -6.2629  -6.2504
    -6.2206  -6.2177  -6.1560  -6.1556  -6.1447  -6.1317  -6.0677  -4.7835
    -3.6207  -3.4828  -3.0821  -2.8983  -0.7821  -0.5125  -0.5014  -0.2373
    -0.0943   0.0042   0.0268   0.3331   0.7497   0.7971   0.8006   1.0902
     1.1149   1.1458   1.2470   1.3103   1.4060   1.7678   1.8893   2.0437
     2.2472   2.5295   2.5986   2.6564   2.7064   2.8719

[...]

          k = 0.0719-0.0407 0.0000 ( 36493 PWs)   bands (ev):

[...]

          k =-0.0863 0.0305 0.0000 ( 36552 PWs)   bands (ev):

[...]

          k =-0.0863-0.0610 0.0000 ( 36444 PWs)   bands (ev):

   -48.8076 -48.7822 -48.6925 -48.6674 -48.3885 -48.3600 -26.8902 -26.8426
   -26.8127 -26.7992 -26.7706 -26.7424 -26.7264 -26.7237 -26.6990 -26.6468
   -26.5525 -26.4843 -26.3929 -26.3352 -26.2982 -26.2945 -26.2839 -26.2186
    -6.5642  -6.5210  -6.4717  -6.4659  -6.4637  -6.4605  -6.4526  -6.4066
    -6.3997  -6.3684  -6.3518  -6.3487  -6.3346  -6.3271  -6.3124  -6.3085
    -6.2993  -6.2933  -6.2622  -6.2586  -6.2476  -6.2433  -6.2353  -6.2335
    -6.2244  -6.2075  -6.1442  -6.1415  -6.1381  -6.0772  -4.4996  -4.4892
    -3.3756  -3.3097  -2.7264  -2.6032  -2.5031  -1.5897  -1.4354  -1.3880
    -1.1334  -1.0237  -0.8626  -0.3660  -0.3378   0.2020   0.2269   0.3010
     0.5775   0.9188   1.3746   1.4636   1.5501   1.7586   1.8957   1.9254
     2.0710   2.2346   2.3580   2.4764   2.5206   3.2421

     the Fermi energy is     0.7796 ev

!    total energy              =   -1497.88839399 Ry
     estimated scf accuracy    <       0.00000299 Ry
     smearing contrib. (-TS)   =      -0.05947106 Ry
     internal energy E=F+TS    =   -1497.82892293 Ry

     The total energy is F=E-TS. E is the sum of the following terms:
     one-electron contribution =   -9847.39227450 Ry
     hartree contribution      =    4991.79331148 Ry
     xc contribution           =    -402.37338925 Ry
     ewald contribution        =    3760.14341945 Ry
     electric field correction =       0.00000989 Ry

     convergence has been achieved in  15 iterations

     negative rho (up, down):  3.543E-04 0.000E+00

     Forces acting on atoms (cartesian axes, Ry/au):

     atom    1 type  1   force =     0.00000026   -0.00000713   -0.01102544
     atom    2 type  1   force =    -0.00000964    0.00000641   -0.01101354
     atom    3 type  2   force =     0.00000205    0.00000142    0.01636461
     atom    4 type  2   force =    -0.00000177    0.00000058    0.01636926
     atom    5 type  1   force =     0.00002401    0.00002912   -0.01138470
     atom    6 type  1   force =    -0.00002221   -0.00002754   -0.01138767
     atom    7 type  2   force =    -0.00000517    0.00000225    0.00599578
     atom    8 type  2   force =     0.00000327   -0.00000141    0.00599718
     atom    9 type  1   force =    -0.00001146    0.00000988    0.00293999
     atom   10 type  1   force =     0.00001388   -0.00001593    0.00292838
     atom   11 type  2   force =    -0.00000038    0.00000148   -0.00289051
     atom   12 type  2   force =     0.00000715    0.00000087   -0.00289334

     Total force =     0.033820     Total SCF correction =     0.009814
     SCF correction compared to forces is large: reduce conv_thr to get better values

     Writing output data file ./Zn2Zr2/Zn2Zr2_beef.save/

     General routines

     Parallel routines

   This run was terminated on:   2:25:36  10Jul2022

   JOB DONE.