     Program PWSCF v.6.6 starts on 10Jul2022 at 21:51: 7

     R & G space division:  proc/nbgrp/npool/nimage =      37
     Fft bands division:     nmany     =       1
     Reading input from Zr2Au2.in
Warning: card &CELL ignored
Warning: card / ignored

     Current dimensions of program PWSCF are:
     Max number of different atomic species (ntypx) = 10
     Max number of k-points (npk) =  40000
     Max angular momentum in pseudopotentials (lmaxx) =  3
     Presently stress not available with electric field and gates

     Message from routine cell_base_init:
     DEPRECATED: use true lattice parameter, not A to a.u. conversion factor
     file Zr.pbe-spn-rrkjus_psl.1.0.0.UPF: wavefunction(s)  4S renormalized

     IMPORTANT: XC functional enforced from input :
     Exchange-correlation= BEEF-VDW
                           (   1   4  43  14   2   0   0)
     Any further DFT definition will be discarded
     Please, verify this is what you really want

     Subspace diagonalization in iterative solution of the eigenvalue problem:
     a serial algorithm will be used

     Found symmetry operation: I + (  0.5000 -0.5000  0.0000)
     This is a supercell, fractional translations are disabled

     bravais-lattice index     =            0
     lattice parameter (alat)  =       1.8897  a.u.
     unit-cell volume          =    5427.3902 (a.u.)^3
     number of atoms/cell      =           12
     number of atomic types    =            2
     number of electrons       =       138.00
     number of Kohn-Sham states=           83
     kinetic-energy cutoff     =      55.1240  Ry
     charge density cutoff     =     551.2396  Ry
     convergence threshold     =      1.0E-05
     mixing beta               =       0.1000
     number of iterations used =           10  plain     mixing
     Exchange-correlation= BEEF-VDW
                           (   1   4  43  14   2   0   0)

     celldm(1)=   1.889726  celldm(2)=   0.000000  celldm(3)=   0.000000
     celldm(4)=   0.000000  celldm(5)=   0.000000  celldm(6)=   0.000000

     crystal axes: (cart. coord. in units of alat)
               a(1) = (   6.032422   0.000000   0.000000 )
               a(2) = (   2.807990   5.339036   0.000000 )
               a(3) = (   0.000000   0.000000  24.971232 )

     reciprocal axes: (cart. coord. in units 2 pi/alat)
               b(1) = (  0.165771 -0.087185  0.000000 )
               b(2) = (  0.000000  0.187300  0.000000 )
               b(3) = (  0.000000  0.000000  0.040046 )

     PseudoPot. # 1 for Zr read from file:
     ../pseudo/Zr.pbe-spn-rrkjus_psl.1.0.0.UPF
     MD5 check sum: 3d17ee99aa1707c2ccb6b09ed65e51a1
     Pseudo is Ultrasoft + core correction, Zval = 12.0
     Generated using "atomic" code by A. Dal Corso v.6.2.2
     Using radial grid of 1225 points,  6 beta functions with:
                l(1) =   0
                l(2) =   0
                l(3) =   1
                l(4) =   1
                l(5) =   2
                l(6) =   2
     Q(r) pseudized with 0 coefficients

     PseudoPot. # 2 for Au read from file:
     ../pseudo/Au.pbe-n-rrkjus_psl.1.0.0.UPF
     MD5 check sum: d7e77ba19504afed2c9b41c931dde4f0
     Pseudo is Ultrasoft + core correction, Zval = 11.0
     Generated using "atomic" code by A. Dal Corso v.6.3
     Using radial grid of 1279 points,  6 beta functions with:
                l(1) =   0
                l(2) =   0
                l(3) =   1
                l(4) =   1
                l(5) =   2
                l(6) =   2
     Q(r) pseudized with 0 coefficients

     atomic species   valence    mass     pseudopotential
        Zr            12.00    91.22400     Zr( 1.00)
        Au            11.00   196.96657     Au( 1.00)

     No symmetry found

   Cartesian axes

     site n.     atom                  positions (alat units)
         1           Zr  tau(   1) = (   0.0000000   0.0000000  10.0000000  )
         2           Zr  tau(   2) = (   4.4202059   2.6695182  10.0000000  )
         3           Au  tau(   3) = (   3.0162110   0.0000000  10.0000000  )
         4           Au  tau(   4) = (   1.4039949   2.6695182  10.0000000  )
         5           Zr  tau(   5) = (   6.0324221   3.6431924  12.4856158  )
         6           Zr  tau(   6) = (   1.6122161   0.9736742  12.4856158  )
         7           Au  tau(   7) = (   3.0162110   3.6431924  12.4856158  )
         8           Au  tau(   8) = (   4.6284272   0.9736742  12.4856158  )
         9           Zr  tau(   9) = (   3.2338689   1.9530492  14.8684749  )
        10           Zr  tau(  10) = (   7.6540782   4.6225688  14.8684780  )
        11           Au  tau(  11) = (   6.2612493   1.9597949  14.9618768  )
        12           Au  tau(  12) = (   4.6490496   4.6293238  14.9618617  )

     number of k points=    74  Fermi-Dirac smearing, width (Ry)=  0.0100
                       cart. coord. in units 2pi/alat
        k(    1) = (   0.0000000   0.0000000   0.0000000), wk =   0.0138889
        k(    2) = (   0.0000000   0.0156083   0.0000000), wk =   0.0277778
        k(    3) = (   0.0000000   0.0312166   0.0000000), wk =   0.0277778
        k(    4) = (   0.0000000   0.0468249   0.0000000), wk =   0.0277778
        k(    5) = (   0.0000000   0.0624332   0.0000000), wk =   0.0277778
        k(    6) = (   0.0000000   0.0780416   0.0000000), wk =   0.0277778
        k(    7) = (   0.0000000  -0.0936499   0.0000000), wk =   0.0138889
        k(    8) = (   0.0138142  -0.0072654   0.0000000), wk =   0.0277778
        k(    9) = (   0.0138142   0.0083429   0.0000000), wk =   0.0277778
        k(   10) = (   0.0138142   0.0239512   0.0000000), wk =   0.0277778
        k(   11) = (   0.0138142   0.0395595   0.0000000), wk =   0.0277778
        k(   12) = (   0.0138142   0.0551678   0.0000000), wk =   0.0277778
        k(   13) = (   0.0138142   0.0707762   0.0000000), wk =   0.0277778
        k(   14) = (   0.0138142  -0.1009153   0.0000000), wk =   0.0277778
        k(   15) = (   0.0138142  -0.0853070   0.0000000), wk =   0.0277778
        k(   16) = (   0.0138142  -0.0696986   0.0000000), wk =   0.0277778
        k(   17) = (   0.0138142  -0.0540903   0.0000000), wk =   0.0277778
        k(   18) = (   0.0138142  -0.0384820   0.0000000), wk =   0.0277778
        k(   19) = (   0.0138142  -0.0228737   0.0000000), wk =   0.0277778
        k(   20) = (   0.0276285  -0.0145308   0.0000000), wk =   0.0277778
        k(   21) = (   0.0276285   0.0010775   0.0000000), wk =   0.0277778
        k(   22) = (   0.0276285   0.0166858   0.0000000), wk =   0.0277778
        k(   23) = (   0.0276285   0.0322941   0.0000000), wk =   0.0277778
        k(   24) = (   0.0276285   0.0479024   0.0000000), wk =   0.0277778
        k(   25) = (   0.0276285   0.0635107   0.0000000), wk =   0.0277778
        k(   26) = (   0.0276285  -0.1081807   0.0000000), wk =   0.0277778
        k(   27) = (   0.0276285  -0.0925724   0.0000000), wk =   0.0277778
        k(   28) = (   0.0276285  -0.0769641   0.0000000), wk =   0.0277778
        k(   29) = (   0.0276285  -0.0613557   0.0000000), wk =   0.0277778
        k(   30) = (   0.0276285  -0.0457474   0.0000000), wk =   0.0277778
        k(   31) = (   0.0276285  -0.0301391   0.0000000), wk =   0.0277778
        k(   32) = (   0.0414427  -0.0217962   0.0000000), wk =   0.0277778
        k(   33) = (   0.0414427  -0.0061879   0.0000000), wk =   0.0277778
        k(   34) = (   0.0414427   0.0094204   0.0000000), wk =   0.0277778
        k(   35) = (   0.0414427   0.0250287   0.0000000), wk =   0.0277778
        k(   36) = (   0.0414427   0.0406370   0.0000000), wk =   0.0277778
        k(   37) = (   0.0414427   0.0562453   0.0000000), wk =   0.0277778
        k(   38) = (   0.0414427  -0.1154461   0.0000000), wk =   0.0277778
        k(   39) = (   0.0414427  -0.0998378   0.0000000), wk =   0.0277778
        k(   40) = (   0.0414427  -0.0842295   0.0000000), wk =   0.0277778
        k(   41) = (   0.0414427  -0.0686211   0.0000000), wk =   0.0277778
        k(   42) = (   0.0414427  -0.0530128   0.0000000), wk =   0.0277778
        k(   43) = (   0.0414427  -0.0374045   0.0000000), wk =   0.0277778
        k(   44) = (   0.0552570  -0.0290616   0.0000000), wk =   0.0277778
        k(   45) = (   0.0552570  -0.0134533   0.0000000), wk =   0.0277778
        k(   46) = (   0.0552570   0.0021550   0.0000000), wk =   0.0277778
        k(   47) = (   0.0552570   0.0177633   0.0000000), wk =   0.0277778
        k(   48) = (   0.0552570   0.0333716   0.0000000), wk =   0.0277778
        k(   49) = (   0.0552570   0.0489799   0.0000000), wk =   0.0277778
        k(   50) = (   0.0552570  -0.1227115   0.0000000), wk =   0.0277778
        k(   51) = (   0.0552570  -0.1071032   0.0000000), wk =   0.0277778
        k(   52) = (   0.0552570  -0.0914949   0.0000000), wk =   0.0277778
        k(   53) = (   0.0552570  -0.0758865   0.0000000), wk =   0.0277778
        k(   54) = (   0.0552570  -0.0602782   0.0000000), wk =   0.0277778
        k(   55) = (   0.0552570  -0.0446699   0.0000000), wk =   0.0277778
        k(   56) = (   0.0690712  -0.0363270   0.0000000), wk =   0.0277778
        k(   57) = (   0.0690712  -0.0207187   0.0000000), wk =   0.0277778
        k(   58) = (   0.0690712  -0.0051104   0.0000000), wk =   0.0277778
        k(   59) = (   0.0690712   0.0104979   0.0000000), wk =   0.0277778
        k(   60) = (   0.0690712   0.0261062   0.0000000), wk =   0.0277778
        k(   61) = (   0.0690712   0.0417145   0.0000000), wk =   0.0277778
        k(   62) = (   0.0690712  -0.1299769   0.0000000), wk =   0.0277778
        k(   63) = (   0.0690712  -0.1143686   0.0000000), wk =   0.0277778
        k(   64) = (   0.0690712  -0.0987603   0.0000000), wk =   0.0277778
        k(   65) = (   0.0690712  -0.0831520   0.0000000), wk =   0.0277778
        k(   66) = (   0.0690712  -0.0675436   0.0000000), wk =   0.0277778
        k(   67) = (   0.0690712  -0.0519353   0.0000000), wk =   0.0277778
        k(   68) = (  -0.0828854   0.0435924   0.0000000), wk =   0.0138889
        k(   69) = (  -0.0828854   0.0592007   0.0000000), wk =   0.0277778
        k(   70) = (  -0.0828854   0.0748090   0.0000000), wk =   0.0277778
        k(   71) = (  -0.0828854   0.0904174   0.0000000), wk =   0.0277778
        k(   72) = (  -0.0828854   0.1060257   0.0000000), wk =   0.0277778
        k(   73) = (  -0.0828854   0.1216340   0.0000000), wk =   0.0277778
        k(   74) = (  -0.0828854  -0.0500574   0.0000000), wk =   0.0138889

     Initial potential from superposition of free atoms

     starting charge  137.98644, renormalised to  138.00000

     negative rho (up, down):  9.504E-04 0.000E+00

     %%%%%%%%%%%%%%%%%%%%%%%%%%%%%%%%%%%%%%%%%%%%%%%%%%%%%%%%%%%%%%%%%%%%%%%%
     %                                                                      %
     % You are using vdW-DF, which was implemented by the Thonhauser group. %
     % Please cite the following two papers that made this development      %
     % possible and the two reviews that describe the various versions:     %
     %                                                                      %
     %   T. Thonhauser et al., PRL 115, 136402 (2015).                      %
     %   T. Thonhauser et al., PRB 76, 125112 (2007).                       %
     %   K. Berland et al., Rep. Prog. Phys. 78, 066501 (2015).             %
     %   D.C. Langreth et al., J. Phys.: Condens. Matter 21, 084203 (2009). %
     %                                                                      %
     %                                                                      %
     % If you are calculating the stress with vdW-DF, please also cite:     %
     %                                                                      %
     %   R. Sabatini et al., J. Phys.: Condens. Matter 24, 424209 (2012).   %
     %                                                                      %
     %%%%%%%%%%%%%%%%%%%%%%%%%%%%%%%%%%%%%%%%%%%%%%%%%%%%%%%%%%%%%%%%%%%%%%%%

     Adding external electric field

     Computed dipole along edir(3) :
        Dipole               -0.0003 Ry au,         -0.0009 Debye
        Dipole field         -0.0000 Ry au,

        Potential amp.        0.0001 Ry
        Total length         46.0091 bohr

     Starting wfcs are  132 randomized atomic wfcs

     Self-consistent Calculation

     iteration #  1     ecut=    55.12 Ry     beta= 0.10
     Davidson diagonalization with overlap
     ethr =  1.00E-02,  avg # of iterations =  2.0

[...]

     total energy              =   -1119.13108936 Ry
     estimated scf accuracy    <       2.72771240 Ry

[...]

     iteration #  6     ecut=    55.12 Ry     beta= 0.10
     Davidson diagonalization with overlap
     c_bands:  1 eigenvalues not converged
     ethr =  6.68E-05,  avg # of iterations =  5.8

[...]

     iteration # 14     ecut=    55.12 Ry     beta= 0.10
     Davidson diagonalization with overlap
     c_bands:  1 eigenvalues not converged
     c_bands:  1 eigenvalues not converged
     ethr =  5.19E-08,  avg # of iterations =  6.5

[...]

     total energy              =   -1119.24347278 Ry
     estimated scf accuracy    <       0.00002572 Ry

     iteration # 16     ecut=    55.12 Ry     beta= 0.10
     Davidson diagonalization with overlap
     ethr =  1.86E-08,  avg # of iterations =  2.6

[...]

     Adding external electric field

     Computed dipole along edir(3) :
        Dipole               -0.0135 Ry au,         -0.0343 Debye
        Dipole field         -0.0000 Ry au,

        Potential amp.        0.0029 Ry
        Total length         46.0091 bohr

     End of self-consistent calculation

          k = 0.0000 0.0000 0.0000 ( 37477 PWs)   bands (ev):

   -48.1804 -48.1205 -48.1173 -48.0567 -47.8651 -47.8036 -26.2850 -26.2777
   -26.2500 -26.2244 -26.2060 -26.1744 -26.1529 -26.1144 -26.1107 -26.1104
   -26.0464 -25.9483 -25.8678 -25.6806 -25.6456 -25.6397 -25.5812 -25.4930
    -5.8022  -4.6556  -4.5518  -4.3553  -4.2124  -4.1829  -4.1515  -4.0721
    -4.0407  -4.0139  -3.8822  -3.8756  -3.7840  -3.7069  -3.5293  -3.2656
    -3.0999  -3.0531  -2.9511  -2.8903  -2.8882  -2.8783  -2.8398  -2.7666
    -2.6525  -2.6311  -2.6007  -2.5667  -2.4674  -2.1849  -2.0882  -1.5804
    -1.2434  -0.3610   0.0648   0.1784   0.5346   0.7502   0.7695   0.9106
     0.9754   1.3450   1.4239   1.6250   1.7424   1.8166   1.8550   2.1625
     2.2714   2.4939   2.6501   2.8966   2.9103   2.9806   3.0282   3.6730
     3.7584   4.0023   4.1739

[...]

          k = 0.0691-0.0519 0.0000 ( 37536 PWs)   bands (ev):

[...]

          k =-0.0829 0.0436 0.0000 ( 37512 PWs)   bands (ev):

[...]

          k =-0.0829-0.0501 0.0000 ( 37438 PWs)   bands (ev):

   -48.1800 -48.1204 -48.1167 -48.0567 -47.8650 -47.8033 -26.2913 -26.2864
   -26.2553 -26.2281 -26.2078 -26.1879 -26.1527 -26.1246 -26.1135 -26.1078
   -26.0493 -25.9454 -25.8782 -25.6818 -25.6474 -25.6407 -25.5837 -25.4946
    -4.8022  -4.3778  -4.1222  -3.9857  -3.9231  -3.8143  -3.7478  -3.6404
    -3.5750  -3.4916  -3.4553  -3.3957  -3.3501  -3.3264  -3.3107  -3.0859
    -3.0355  -2.9174  -2.9140  -2.8951  -2.7784  -2.7195  -2.6986  -2.6830
    -2.6592  -2.6469  -2.4267  -2.4211  -2.3604  -2.2691  -2.0529  -1.6579
    -1.5987  -1.3891  -0.7478  -0.5164  -0.2964  -0.0977   0.0113   0.1187
     0.2959   0.4467   0.5356   0.5766   0.5968   0.9160   1.0422   1.1802
     1.3906   1.4031   1.6563   1.9937   2.8400   2.8923   2.9635   2.9885
     3.4692   3.6773   3.7849

     the Fermi energy is     1.5471 ev

!    total energy              =   -1119.24347616 Ry
     estimated scf accuracy    <       0.00000723 Ry
     smearing contrib. (-TS)   =      -0.06933309 Ry
     internal energy E=F+TS    =   -1119.17414307 Ry

     The total energy is F=E-TS. E is the sum of the following terms:
     one-electron contribution =   -8411.10420938 Ry
     hartree contribution      =    4244.44778057 Ry
     xc contribution           =    -310.69938084 Ry
     ewald contribution        =    3358.18166616 Ry
     electric field correction =       0.00000042 Ry

     convergence has been achieved in  16 iterations

     negative rho (up, down):  8.170E-04 0.000E+00

     Forces acting on atoms (cartesian axes, Ry/au):

     atom    1 type  1   force =     0.00160431    0.00096885    0.01529897
     atom    2 type  1   force =     0.00160365    0.00096669    0.01529787
     atom    3 type  2   force =    -0.00292702   -0.00176347   -0.00092523
     atom    4 type  2   force =    -0.00292741   -0.00175794   -0.00093510
     atom    5 type  1   force =    -0.00219557   -0.00132869   -0.00610666
     atom    6 type  1   force =    -0.00219827   -0.00133149   -0.00610959
     atom    7 type  2   force =     0.00178867    0.00108863   -0.00928361
     atom    8 type  2   force =     0.00179682    0.00109241   -0.00929438
     atom    9 type  1   force =     0.00112618    0.00067841   -0.00019244
     atom   10 type  1   force =     0.00112607    0.00067473   -0.00019132
     atom   11 type  2   force =     0.00060567    0.00035724    0.00122467
     atom   12 type  2   force =     0.00059690    0.00035463    0.00121682

     Total force =     0.027872     Total SCF correction =     0.003971
     SCF correction compared to forces is large: reduce conv_thr to get better values

     Writing output data file ./Zr2Au2/Zr2Au2_beef.save/

     General routines

     Parallel routines

   This run was terminated on:  22:50:33  10Jul2022

   JOB DONE.