     Program PWSCF v.6.6 starts on 11Jul2022 at  6:36:36

     R & G space division:  proc/nbgrp/npool/nimage =      37
     Fft bands division:     nmany     =       1
     Reading input from Zr2Ag2.in
Warning: card &CELL ignored
Warning: card / ignored

     Current dimensions of program PWSCF are:
     Max number of different atomic species (ntypx) = 10
     Max number of k-points (npk) =  40000
     Max angular momentum in pseudopotentials (lmaxx) =  3
     Presently stress not available with electric field and gates

     Message from routine cell_base_init:
     DEPRECATED: use true lattice parameter, not A to a.u. conversion factor
     file Zr.pbe-spn-rrkjus_psl.1.0.0.UPF: wavefunction(s)  4S renormalized

     IMPORTANT: XC functional enforced from input :
     Exchange-correlation= BEEF-VDW
                           (   1   4  43  14   2   0   0)
     Any further DFT definition will be discarded
     Please, verify this is what you really want

     Subspace diagonalization in iterative solution of the eigenvalue problem:
     a serial algorithm will be used

     Found symmetry operation: I + ( -0.5000  0.0000  0.0000)
     This is a supercell, fractional translations are disabled

     bravais-lattice index     =            0
     lattice parameter (alat)  =       1.8897  a.u.
     unit-cell volume          =    5477.8143 (a.u.)^3
     number of atoms/cell      =           12
     number of atomic types    =            2
     number of electrons       =       138.00
     number of Kohn-Sham states=           83
     kinetic-energy cutoff     =      55.1240  Ry
     charge density cutoff     =     551.2396  Ry
     convergence threshold     =      1.0E-05
     mixing beta               =       0.1000
     number of iterations used =           10  plain     mixing
     Exchange-correlation= BEEF-VDW
                           (   1   4  43  14   2   0   0)

     celldm(1)=   1.889726  celldm(2)=   0.000000  celldm(3)=   0.000000
     celldm(4)=   0.000000  celldm(5)=   0.000000  celldm(6)=   0.000000

     crystal axes: (cart. coord. in units of alat)
               a(1) = (   6.057611   0.000000   0.000000 )
               a(2) = (  -3.028805   5.360490   0.000000 )
               a(3) = (   0.000000   0.000000  24.997980 )

     reciprocal axes: (cart. coord. in units 2 pi/alat)
               b(1) = (  0.165082  0.093275 -0.000000 )
               b(2) = (  0.000000  0.186550  0.000000 )
               b(3) = (  0.000000 -0.000000  0.040003 )

     PseudoPot. # 1 for Zr read from file:
     ../pseudo/Zr.pbe-spn-rrkjus_psl.1.0.0.UPF
     MD5 check sum: 3d17ee99aa1707c2ccb6b09ed65e51a1
     Pseudo is Ultrasoft + core correction, Zval = 12.0
     Generated using "atomic" code by A. Dal Corso v.6.2.2
     Using radial grid of 1225 points,  6 beta functions with:
                l(1) =   0
                l(2) =   0
                l(3) =   1
                l(4) =   1
                l(5) =   2
                l(6) =   2
     Q(r) pseudized with 0 coefficients

     PseudoPot. # 2 for Ag read from file:
     ../pseudo/Ag.pbe-n-rrkjus_psl.1.0.0.UPF
     MD5 check sum: d841cbfac2b0861aec33b46768a516bf
     Pseudo is Ultrasoft + core correction, Zval = 11.0
     Generated using "atomic" code by A. Dal Corso v.6.2.2
     Using radial grid of 1237 points,  6 beta functions with:
                l(1) =   0
                l(2) =   0
                l(3) =   1
                l(4) =   1
                l(5) =   2
                l(6) =   2
     Q(r) pseudized with 0 coefficients

     atomic species   valence    mass     pseudopotential
        Zr            12.00    91.22400     Zr( 1.00)
        Ag            11.00   107.86820     Ag( 1.00)

     No symmetry found

   Cartesian axes

     site n.     atom                  positions (alat units)
         1           Zr  tau(   1) = (   0.0000000   0.0000000  10.0000000  )
         2           Zr  tau(   2) = (   3.0288055   0.0000000  10.0000000  )
         3           Ag  tau(   3) = (   1.5144027   2.6802450  10.0000000  )
         4           Ag  tau(   4) = (  -1.5144027   2.6802450  10.0000000  )
         5           Zr  tau(   5) = (   3.0288055   1.7113478  12.4989901  )
         6           Zr  tau(   6) = (  -0.0000000   1.7113478  12.4989901  )
         7           Ag  tau(   7) = (  -1.5144027   4.3915928  12.4989901  )
         8           Ag  tau(   8) = (   1.5144027   4.3915928  12.4989901  )
         9           Zr  tau(   9) = (  -0.0000010   3.4400861  14.8835439  )
        10           Zr  tau(  10) = (   3.0288057   3.4400855  14.8835434  )
        11           Ag  tau(  11) = (   4.5432084   0.7590102  15.0219268  )
        12           Ag  tau(  12) = (   1.5144021   0.7590124  15.0219280  )

     number of k points=    74  Fermi-Dirac smearing, width (Ry)=  0.0100
                       cart. coord. in units 2pi/alat
        k(    1) = (   0.0000000   0.0000000   0.0000000), wk =   0.0138889
        k(    2) = (   0.0000000   0.0155458   0.0000000), wk =   0.0277778
        k(    3) = (   0.0000000   0.0310917   0.0000000), wk =   0.0277778
        k(    4) = (   0.0000000   0.0466375   0.0000000), wk =   0.0277778
        k(    5) = (   0.0000000   0.0621834   0.0000000), wk =   0.0277778
        k(    6) = (   0.0000000   0.0777292   0.0000000), wk =   0.0277778
        k(    7) = (   0.0000000  -0.0932751   0.0000000), wk =   0.0138889
        k(    8) = (   0.0137568   0.0077729   0.0000000), wk =   0.0277778
        k(    9) = (   0.0137568   0.0233188   0.0000000), wk =   0.0277778
        k(   10) = (   0.0137568   0.0388646   0.0000000), wk =   0.0277778
        k(   11) = (   0.0137568   0.0544104   0.0000000), wk =   0.0277778
        k(   12) = (   0.0137568   0.0699563   0.0000000), wk =   0.0277778
        k(   13) = (   0.0137568   0.0855021   0.0000000), wk =   0.0277778
        k(   14) = (   0.0137568  -0.0855021   0.0000000), wk =   0.0277778
        k(   15) = (   0.0137568  -0.0699563   0.0000000), wk =   0.0277778
        k(   16) = (   0.0137568  -0.0544105   0.0000000), wk =   0.0277778
        k(   17) = (   0.0137568  -0.0388646   0.0000000), wk =   0.0277778
        k(   18) = (   0.0137568  -0.0233188   0.0000000), wk =   0.0277778
        k(   19) = (   0.0137568  -0.0077729   0.0000000), wk =   0.0277778
        k(   20) = (   0.0275136   0.0155458   0.0000000), wk =   0.0277778
        k(   21) = (   0.0275136   0.0310917   0.0000000), wk =   0.0277778
        k(   22) = (   0.0275136   0.0466375   0.0000000), wk =   0.0277778
        k(   23) = (   0.0275136   0.0621834   0.0000000), wk =   0.0277778
        k(   24) = (   0.0275136   0.0777292   0.0000000), wk =   0.0277778
        k(   25) = (   0.0275136   0.0932751   0.0000000), wk =   0.0277778
        k(   26) = (   0.0275136  -0.0777292   0.0000000), wk =   0.0277778
        k(   27) = (   0.0275136  -0.0621834   0.0000000), wk =   0.0277778
        k(   28) = (   0.0275136  -0.0466375   0.0000000), wk =   0.0277778
        k(   29) = (   0.0275136  -0.0310917   0.0000000), wk =   0.0277778
        k(   30) = (   0.0275136  -0.0155458   0.0000000), wk =   0.0277778
        k(   31) = (   0.0275136  -0.0000000   0.0000000), wk =   0.0277778
        k(   32) = (   0.0412704   0.0233188   0.0000000), wk =   0.0277778
        k(   33) = (   0.0412704   0.0388646   0.0000000), wk =   0.0277778
        k(   34) = (   0.0412704   0.0544104   0.0000000), wk =   0.0277778
        k(   35) = (   0.0412704   0.0699563   0.0000000), wk =   0.0277778
        k(   36) = (   0.0412704   0.0855021   0.0000000), wk =   0.0277778
        k(   37) = (   0.0412704   0.1010480   0.0000000), wk =   0.0277778
        k(   38) = (   0.0412704  -0.0699563   0.0000000), wk =   0.0277778
        k(   39) = (   0.0412704  -0.0544105   0.0000000), wk =   0.0277778
        k(   40) = (   0.0412704  -0.0388646   0.0000000), wk =   0.0277778
        k(   41) = (   0.0412704  -0.0233188   0.0000000), wk =   0.0277778
        k(   42) = (   0.0412704  -0.0077729   0.0000000), wk =   0.0277778
        k(   43) = (   0.0412704   0.0077729   0.0000000), wk =   0.0277778
        k(   44) = (   0.0550272   0.0310917   0.0000000), wk =   0.0277778
        k(   45) = (   0.0550272   0.0466375   0.0000000), wk =   0.0277778
        k(   46) = (   0.0550272   0.0621834   0.0000000), wk =   0.0277778
        k(   47) = (   0.0550272   0.0777292   0.0000000), wk =   0.0277778
        k(   48) = (   0.0550272   0.0932750   0.0000000), wk =   0.0277778
        k(   49) = (   0.0550272   0.1088209   0.0000000), wk =   0.0277778
        k(   50) = (   0.0550272  -0.0621834   0.0000000), wk =   0.0277778
        k(   51) = (   0.0550272  -0.0466375   0.0000000), wk =   0.0277778
        k(   52) = (   0.0550272  -0.0310917   0.0000000), wk =   0.0277778
        k(   53) = (   0.0550272  -0.0155458   0.0000000), wk =   0.0277778
        k(   54) = (   0.0550272  -0.0000000   0.0000000), wk =   0.0277778
        k(   55) = (   0.0550272   0.0155458   0.0000000), wk =   0.0277778
        k(   56) = (   0.0687840   0.0388646   0.0000000), wk =   0.0277778
        k(   57) = (   0.0687840   0.0544104   0.0000000), wk =   0.0277778
        k(   58) = (   0.0687840   0.0699563   0.0000000), wk =   0.0277778
        k(   59) = (   0.0687840   0.0855021   0.0000000), wk =   0.0277778
        k(   60) = (   0.0687840   0.1010480   0.0000000), wk =   0.0277778
        k(   61) = (   0.0687840   0.1165938   0.0000000), wk =   0.0277778
        k(   62) = (   0.0687840  -0.0544105   0.0000000), wk =   0.0277778
        k(   63) = (   0.0687840  -0.0388646   0.0000000), wk =   0.0277778
        k(   64) = (   0.0687840  -0.0233188   0.0000000), wk =   0.0277778
        k(   65) = (   0.0687840  -0.0077729   0.0000000), wk =   0.0277778
        k(   66) = (   0.0687840   0.0077729   0.0000000), wk =   0.0277778
        k(   67) = (   0.0687840   0.0233188   0.0000000), wk =   0.0277778
        k(   68) = (  -0.0825408  -0.0466375   0.0000000), wk =   0.0138889
        k(   69) = (  -0.0825408  -0.0310917   0.0000000), wk =   0.0277778
        k(   70) = (  -0.0825408  -0.0155458   0.0000000), wk =   0.0277778
        k(   71) = (  -0.0825408   0.0000000   0.0000000), wk =   0.0277778
        k(   72) = (  -0.0825408   0.0155459   0.0000000), wk =   0.0277778
        k(   73) = (  -0.0825408   0.0310917   0.0000000), wk =   0.0277778
        k(   74) = (  -0.0825408  -0.1399126   0.0000000), wk =   0.0138889

     Initial potential from superposition of free atoms

     starting charge  137.98470, renormalised to  138.00000

     negative rho (up, down):  2.879E-04 0.000E+00

     %%%%%%%%%%%%%%%%%%%%%%%%%%%%%%%%%%%%%%%%%%%%%%%%%%%%%%%%%%%%%%%%%%%%%%%%
     %                                                                      %
     % You are using vdW-DF, which was implemented by the Thonhauser group. %
     % Please cite the following two papers that made this development      %
     % possible and the two reviews that describe the various versions:     %
     %                                                                      %
     %   T. Thonhauser et al., PRL 115, 136402 (2015).                      %
     %   T. Thonhauser et al., PRB 76, 125112 (2007).                       %
     %   K. Berland et al., Rep. Prog. Phys. 78, 066501 (2015).             %
     %   D.C. Langreth et al., J. Phys.: Condens. Matter 21, 084203 (2009). %
     %                                                                      %
     %                                                                      %
     % If you are calculating the stress with vdW-DF, please also cite:     %
     %                                                                      %
     %   R. Sabatini et al., J. Phys.: Condens. Matter 24, 424209 (2012).   %
     %                                                                      %
     %%%%%%%%%%%%%%%%%%%%%%%%%%%%%%%%%%%%%%%%%%%%%%%%%%%%%%%%%%%%%%%%%%%%%%%%

     Adding external electric field

     Computed dipole along edir(3) :
        Dipole               -0.0004 Ry au,         -0.0011 Debye
        Dipole field         -0.0000 Ry au,

        Potential amp.        0.0001 Ry
        Total length         46.0583 bohr

     Starting wfcs are  132 randomized atomic wfcs

     Self-consistent Calculation

     iteration #  1     ecut=    55.12 Ry     beta= 0.10
     Davidson diagonalization with overlap
     ethr =  1.00E-02,  avg # of iterations =  2.0

[...]

     total energy              =   -1110.00767999 Ry
     estimated scf accuracy    <       2.69901817 Ry

[...]

     iteration #  9     ecut=    55.12 Ry     beta= 0.10
     Davidson diagonalization with overlap
     c_bands:  1 eigenvalues not converged
     ethr =  5.58E-06,  avg # of iterations =  3.2

[...]

     iteration # 10     ecut=    55.12 Ry     beta= 0.10
     Davidson diagonalization with overlap
     c_bands:  1 eigenvalues not converged
     ethr =  1.06E-06,  avg # of iterations =  6.9

[...]

     total energy              =   -1110.25468736 Ry
     estimated scf accuracy    <       0.00001860 Ry

     iteration # 15     ecut=    55.12 Ry     beta= 0.10
     Davidson diagonalization with overlap
     ethr =  1.35E-08,  avg # of iterations =  3.9

[...]

     Adding external electric field

     Computed dipole along edir(3) :
        Dipole               -0.0221 Ry au,         -0.0562 Debye
        Dipole field         -0.0001 Ry au,

        Potential amp.        0.0047 Ry
        Total length         46.0583 bohr

     End of self-consistent calculation

          k = 0.0000 0.0000 0.0000 ( 37917 PWs)   bands (ev):

   -48.4089 -48.3405 -48.3250 -48.2559 -48.0177 -47.9318 -26.6036 -26.5648
   -26.5506 -26.4669 -26.4507 -26.4118 -26.3740 -26.3559 -26.3529 -26.3216
   -26.2612 -26.1040 -26.0057 -25.8239 -25.7789 -25.7617 -25.6792 -25.5661
    -4.9424  -4.5577  -4.4722  -4.4179  -4.3780  -4.3392  -4.2974  -4.2778
    -4.2290  -4.2162  -4.2123  -4.0746  -4.0206  -3.9208  -3.8110  -3.7784
    -3.6318  -3.5494  -3.5264  -3.5205  -3.4513  -3.3762  -3.3590  -3.3355
    -3.2476  -3.1804  -3.1498  -3.0013  -2.9551  -2.8814  -2.8515  -2.4794
    -1.2709  -0.5424  -0.2653  -0.0970   0.0039   0.0946   0.1934   0.3993
     0.6944   0.7979   0.9671   1.0173   1.2793   1.4629   1.6096   1.7557
     1.9202   1.9372   2.3429   2.4628   2.4856   2.6755   2.7696   2.8776
     3.3313   3.4487   3.6492

[...]

          k = 0.0688 0.0233 0.0000 ( 37828 PWs)   bands (ev):

[...]

          k =-0.0825-0.0466 0.0000 ( 37852 PWs)   bands (ev):

[...]

          k =-0.0825-0.1399 0.0000 ( 37852 PWs)   bands (ev):

   -48.3672 -48.3670 -48.2984 -48.2983 -47.9750 -47.9750 -26.5023 -26.5022
   -26.4212 -26.4211 -26.3682 -26.3682 -26.3091 -26.3091 -26.2254 -26.2253
   -26.1836 -26.1835 -26.0561 -26.0561 -25.9728 -25.9728 -25.7210 -25.7210
    -4.1828  -4.1828  -4.1484  -4.1484  -3.9790  -3.9790  -3.9542  -3.9542
    -3.8443  -3.8443  -3.7921  -3.7921  -3.7516  -3.7516  -3.6332  -3.6332
    -3.5711  -3.5711  -3.5146  -3.5146  -3.4618  -3.4618  -3.4195  -3.4195
    -3.3263  -3.3263  -3.2983  -3.2983  -3.2003  -3.2003  -2.8923  -2.8923
    -1.9859  -1.9859  -0.8754  -0.8754  -0.0166  -0.0166   0.3689   0.3689
     0.8768   0.8768   1.0744   1.0744   1.4479   1.4479   1.5240   1.5240
     1.8645   1.8646   1.9950   1.9950   2.1347   2.1348   2.3047   2.3047
     2.7066   2.7067   3.3371

     the Fermi energy is     1.1508 ev

!    total energy              =   -1110.25469033 Ry
     estimated scf accuracy    <       0.00000380 Ry
     smearing contrib. (-TS)   =      -0.06674825 Ry
     internal energy E=F+TS    =   -1110.18794208 Ry

     The total energy is F=E-TS. E is the sum of the following terms:
     one-electron contribution =   -8424.02001384 Ry
     hartree contribution      =    4252.59439390 Ry
     xc contribution           =    -250.41337341 Ry
     ewald contribution        =    3311.65105015 Ry
     electric field correction =       0.00000112 Ry

     convergence has been achieved in  15 iterations

     negative rho (up, down):  3.244E-04 0.000E+00

     Forces acting on atoms (cartesian axes, Ry/au):

     atom    1 type  1   force =    -0.00000185    0.00039151    0.01830373
     atom    2 type  1   force =    -0.00000029    0.00038277    0.01829552
     atom    3 type  2   force =    -0.00000010   -0.00192422   -0.00403141
     atom    4 type  2   force =    -0.00000183   -0.00192634   -0.00403000
     atom    5 type  1   force =     0.00000052   -0.00493669   -0.00450941
     atom    6 type  1   force =     0.00000115   -0.00496027   -0.00453842
     atom    7 type  2   force =     0.00001512    0.00363768   -0.00890564
     atom    8 type  2   force =    -0.00001542    0.00364088   -0.00890786
     atom    9 type  1   force =     0.00000050    0.00145920   -0.00102177
     atom   10 type  1   force =     0.00000090    0.00145700   -0.00102667
     atom   11 type  2   force =     0.00000166    0.00138983    0.00018716
     atom   12 type  2   force =    -0.00000036    0.00138864    0.00018476

     Total force =     0.031548     Total SCF correction =     0.006879
     SCF correction compared to forces is large: reduce conv_thr to get better values

     Writing output data file ./Zr2Ag2/Zr2Ag2_beef.save/

     General routines

     Parallel routines

   This run was terminated on:   7:31:35  11Jul2022

   JOB DONE.