     Program PWSCF v.6.6 starts on 11Jul2022 at  2: 4:55

     R & G space division:  proc/nbgrp/npool/nimage =      37
     Fft bands division:     nmany     =       1
     Reading input from Zr2Hg2.in
Warning: card &CELL ignored
Warning: card / ignored

     Current dimensions of program PWSCF are:
     Max number of different atomic species (ntypx) = 10
     Max number of k-points (npk) =  40000
     Max angular momentum in pseudopotentials (lmaxx) =  3
     Presently stress not available with electric field and gates

     Message from routine cell_base_init:
     DEPRECATED: use true lattice parameter, not A to a.u. conversion factor
     file Zr.pbe-spn-rrkjus_psl.1.0.0.UPF: wavefunction(s)  4S renormalized
     file Hg.pbe-n-rrkjus_psl.1.0.0.UPF: wavefunction(s)  6S renormalized

     IMPORTANT: XC functional enforced from input :
     Exchange-correlation= BEEF-VDW
                           (   1   4  43  14   2   0   0)
     Any further DFT definition will be discarded
     Please, verify this is what you really want

     Subspace diagonalization in iterative solution of the eigenvalue problem:
     a serial algorithm will be used

     Found symmetry operation: I + (  0.5000 -0.5000  0.0000)
     This is a supercell, fractional translations are disabled

     bravais-lattice index     =            0
     lattice parameter (alat)  =       1.8897  a.u.
     unit-cell volume          =    5794.6234 (a.u.)^3
     number of atoms/cell      =           12
     number of atomic types    =            2
     number of electrons       =       144.00
     number of Kohn-Sham states=           86
     kinetic-energy cutoff     =      55.1240  Ry
     charge density cutoff     =     551.2396  Ry
     convergence threshold     =      1.0E-05
     mixing beta               =       0.1000
     number of iterations used =           10  plain     mixing
     Exchange-correlation= BEEF-VDW
                           (   1   4  43  14   2   0   0)

     celldm(1)=   1.889726  celldm(2)=   0.000000  celldm(3)=   0.000000
     celldm(4)=   0.000000  celldm(5)=   0.000000  celldm(6)=   0.000000

     crystal axes: (cart. coord. in units of alat)
               a(1) = (   6.240569   0.000000   0.000000 )
               a(2) = (   2.992682   5.476180   0.000000 )
               a(3) = (   0.000000   0.000000  25.126199 )

     reciprocal axes: (cart. coord. in units 2 pi/alat)
               b(1) = (  0.160242 -0.087571  0.000000 )
               b(2) = (  0.000000  0.182609  0.000000 )
               b(3) = (  0.000000  0.000000  0.039799 )

     PseudoPot. # 1 for Zr read from file:
     ../pseudo/Zr.pbe-spn-rrkjus_psl.1.0.0.UPF
     MD5 check sum: 3d17ee99aa1707c2ccb6b09ed65e51a1
     Pseudo is Ultrasoft + core correction, Zval = 12.0
     Generated using "atomic" code by A. Dal Corso v.6.2.2
     Using radial grid of 1225 points,  6 beta functions with:
                l(1) =   0
                l(2) =   0
                l(3) =   1
                l(4) =   1
                l(5) =   2
                l(6) =   2
     Q(r) pseudized with 0 coefficients

     PseudoPot. # 2 for Hg read from file:
     ../pseudo/Hg.pbe-n-rrkjus_psl.1.0.0.UPF
     MD5 check sum: 7519ac2e5b9cac440d3cfd4127d6ea3c
     Pseudo is Ultrasoft + core correction, Zval = 12.0
     Generated using "atomic" code by A. Dal Corso v.6.3
     Using radial grid of 1279 points,  6 beta functions with:
                l(1) =   0
                l(2) =   0
                l(3) =   1
                l(4) =   1
                l(5) =   2
                l(6) =   2
     Q(r) pseudized with 0 coefficients

     atomic species   valence    mass     pseudopotential
        Zr            12.00    91.22400     Zr( 1.00)
        Hg            12.00   200.59200     Hg( 1.00)

     No symmetry found

   Cartesian axes

     site n.     atom                  positions (alat units)
         1           Zr  tau(   1) = (   0.0000000   0.0000000  10.0000000  )
         2           Zr  tau(   2) = (   4.6166255   2.7380901  10.0000000  )
         3           Hg  tau(   3) = (   3.1202843   0.0000000  10.0000000  )
         4           Hg  tau(   4) = (   1.4963412   2.7380901  10.0000000  )
         5           Zr  tau(   5) = (   6.2405686   3.7012400  12.5630996  )
         6           Zr  tau(   6) = (   1.6239431   0.9631499  12.5630996  )
         7           Hg  tau(   7) = (   3.1202843   3.7012400  12.5630996  )
         8           Hg  tau(   8) = (   4.7442274   0.9631499  12.5630996  )
         9           Zr  tau(   9) = (   3.2370042   1.9198438  15.0131341  )
        10           Zr  tau(  10) = (   7.8536227   4.6579336  15.0131331  )
        11           Hg  tau(  11) = (   6.3561428   1.9191624  15.2776226  )
        12           Hg  tau(  12) = (   4.7321986   4.6572550  15.2776304  )

     number of k points=    74  Fermi-Dirac smearing, width (Ry)=  0.0100
                       cart. coord. in units 2pi/alat
        k(    1) = (   0.0000000   0.0000000   0.0000000), wk =   0.0138889
        k(    2) = (   0.0000000   0.0152174   0.0000000), wk =   0.0277778
        k(    3) = (   0.0000000   0.0304348   0.0000000), wk =   0.0277778
        k(    4) = (   0.0000000   0.0456523   0.0000000), wk =   0.0277778
        k(    5) = (   0.0000000   0.0608697   0.0000000), wk =   0.0277778
        k(    6) = (   0.0000000   0.0760871   0.0000000), wk =   0.0277778
        k(    7) = (   0.0000000  -0.0913045   0.0000000), wk =   0.0138889
        k(    8) = (   0.0133535  -0.0072976   0.0000000), wk =   0.0277778
        k(    9) = (   0.0133535   0.0079199   0.0000000), wk =   0.0277778
        k(   10) = (   0.0133535   0.0231373   0.0000000), wk =   0.0277778
        k(   11) = (   0.0133535   0.0383547   0.0000000), wk =   0.0277778
        k(   12) = (   0.0133535   0.0535721   0.0000000), wk =   0.0277778
        k(   13) = (   0.0133535   0.0687895   0.0000000), wk =   0.0277778
        k(   14) = (   0.0133535  -0.0986021   0.0000000), wk =   0.0277778
        k(   15) = (   0.0133535  -0.0833847   0.0000000), wk =   0.0277778
        k(   16) = (   0.0133535  -0.0681672   0.0000000), wk =   0.0277778
        k(   17) = (   0.0133535  -0.0529498   0.0000000), wk =   0.0277778
        k(   18) = (   0.0133535  -0.0377324   0.0000000), wk =   0.0277778
        k(   19) = (   0.0133535  -0.0225150   0.0000000), wk =   0.0277778
        k(   20) = (   0.0267070  -0.0145951   0.0000000), wk =   0.0277778
        k(   21) = (   0.0267070   0.0006223   0.0000000), wk =   0.0277778
        k(   22) = (   0.0267070   0.0158397   0.0000000), wk =   0.0277778
        k(   23) = (   0.0267070   0.0310571   0.0000000), wk =   0.0277778
        k(   24) = (   0.0267070   0.0462746   0.0000000), wk =   0.0277778
        k(   25) = (   0.0267070   0.0614920   0.0000000), wk =   0.0277778
        k(   26) = (   0.0267070  -0.1058996   0.0000000), wk =   0.0277778
        k(   27) = (   0.0267070  -0.0906822   0.0000000), wk =   0.0277778
        k(   28) = (   0.0267070  -0.0754648   0.0000000), wk =   0.0277778
        k(   29) = (   0.0267070  -0.0602474   0.0000000), wk =   0.0277778
        k(   30) = (   0.0267070  -0.0450300   0.0000000), wk =   0.0277778
        k(   31) = (   0.0267070  -0.0298125   0.0000000), wk =   0.0277778
        k(   32) = (   0.0400604  -0.0218927   0.0000000), wk =   0.0277778
        k(   33) = (   0.0400604  -0.0066752   0.0000000), wk =   0.0277778
        k(   34) = (   0.0400604   0.0085422   0.0000000), wk =   0.0277778
        k(   35) = (   0.0400604   0.0237596   0.0000000), wk =   0.0277778
        k(   36) = (   0.0400604   0.0389770   0.0000000), wk =   0.0277778
        k(   37) = (   0.0400604   0.0541944   0.0000000), wk =   0.0277778
        k(   38) = (   0.0400604  -0.1131972   0.0000000), wk =   0.0277778
        k(   39) = (   0.0400604  -0.0979798   0.0000000), wk =   0.0277778
        k(   40) = (   0.0400604  -0.0827623   0.0000000), wk =   0.0277778
        k(   41) = (   0.0400604  -0.0675449   0.0000000), wk =   0.0277778
        k(   42) = (   0.0400604  -0.0523275   0.0000000), wk =   0.0277778
        k(   43) = (   0.0400604  -0.0371101   0.0000000), wk =   0.0277778
        k(   44) = (   0.0534139  -0.0291902   0.0000000), wk =   0.0277778
        k(   45) = (   0.0534139  -0.0139728   0.0000000), wk =   0.0277778
        k(   46) = (   0.0534139   0.0012446   0.0000000), wk =   0.0277778
        k(   47) = (   0.0534139   0.0164620   0.0000000), wk =   0.0277778
        k(   48) = (   0.0534139   0.0316795   0.0000000), wk =   0.0277778
        k(   49) = (   0.0534139   0.0468969   0.0000000), wk =   0.0277778
        k(   50) = (   0.0534139  -0.1204947   0.0000000), wk =   0.0277778
        k(   51) = (   0.0534139  -0.1052773   0.0000000), wk =   0.0277778
        k(   52) = (   0.0534139  -0.0900599   0.0000000), wk =   0.0277778
        k(   53) = (   0.0534139  -0.0748425   0.0000000), wk =   0.0277778
        k(   54) = (   0.0534139  -0.0596251   0.0000000), wk =   0.0277778
        k(   55) = (   0.0534139  -0.0444076   0.0000000), wk =   0.0277778
        k(   56) = (   0.0667674  -0.0364878   0.0000000), wk =   0.0277778
        k(   57) = (   0.0667674  -0.0212704   0.0000000), wk =   0.0277778
        k(   58) = (   0.0667674  -0.0060529   0.0000000), wk =   0.0277778
        k(   59) = (   0.0667674   0.0091645   0.0000000), wk =   0.0277778
        k(   60) = (   0.0667674   0.0243819   0.0000000), wk =   0.0277778
        k(   61) = (   0.0667674   0.0395993   0.0000000), wk =   0.0277778
        k(   62) = (   0.0667674  -0.1277923   0.0000000), wk =   0.0277778
        k(   63) = (   0.0667674  -0.1125749   0.0000000), wk =   0.0277778
        k(   64) = (   0.0667674  -0.0973575   0.0000000), wk =   0.0277778
        k(   65) = (   0.0667674  -0.0821400   0.0000000), wk =   0.0277778
        k(   66) = (   0.0667674  -0.0669226   0.0000000), wk =   0.0277778
        k(   67) = (   0.0667674  -0.0517052   0.0000000), wk =   0.0277778
        k(   68) = (  -0.0801209   0.0437853   0.0000000), wk =   0.0138889
        k(   69) = (  -0.0801209   0.0590028   0.0000000), wk =   0.0277778
        k(   70) = (  -0.0801209   0.0742202   0.0000000), wk =   0.0277778
        k(   71) = (  -0.0801209   0.0894376   0.0000000), wk =   0.0277778
        k(   72) = (  -0.0801209   0.1046550   0.0000000), wk =   0.0277778
        k(   73) = (  -0.0801209   0.1198724   0.0000000), wk =   0.0277778
        k(   74) = (  -0.0801209  -0.0475192   0.0000000), wk =   0.0138889

     Initial potential from superposition of free atoms

     starting charge  143.98660, renormalised to  144.00000

     negative rho (up, down):  1.216E-03 0.000E+00

     %%%%%%%%%%%%%%%%%%%%%%%%%%%%%%%%%%%%%%%%%%%%%%%%%%%%%%%%%%%%%%%%%%%%%%%%
     %                                                                      %
     % You are using vdW-DF, which was implemented by the Thonhauser group. %
     % Please cite the following two papers that made this development      %
     % possible and the two reviews that describe the various versions:     %
     %                                                                      %
     %   T. Thonhauser et al., PRL 115, 136402 (2015).                      %
     %   T. Thonhauser et al., PRB 76, 125112 (2007).                       %
     %   K. Berland et al., Rep. Prog. Phys. 78, 066501 (2015).             %
     %   D.C. Langreth et al., J. Phys.: Condens. Matter 21, 084203 (2009). %
     %                                                                      %
     %                                                                      %
     % If you are calculating the stress with vdW-DF, please also cite:     %
     %                                                                      %
     %   R. Sabatini et al., J. Phys.: Condens. Matter 24, 424209 (2012).   %
     %                                                                      %
     %%%%%%%%%%%%%%%%%%%%%%%%%%%%%%%%%%%%%%%%%%%%%%%%%%%%%%%%%%%%%%%%%%%%%%%%

     Adding external electric field

     Computed dipole along edir(3) :
        Dipole               -0.0010 Ry au,         -0.0026 Debye
        Dipole field         -0.0000 Ry au,

        Potential amp.        0.0002 Ry
        Total length         46.2946 bohr

     Starting wfcs are  132 randomized atomic wfcs

     Self-consistent Calculation

     iteration #  1     ecut=    55.12 Ry     beta= 0.10
     Davidson diagonalization with overlap
     ethr =  1.00E-02,  avg # of iterations =  1.9

[...]

     total energy              =   -1206.56705442 Ry
     estimated scf accuracy    <       1.99042709 Ry

[...]

     iteration #  9     ecut=    55.12 Ry     beta= 0.10
     Davidson diagonalization with overlap
     c_bands:  1 eigenvalues not converged
     c_bands:  3 eigenvalues not converged
     c_bands:  2 eigenvalues not converged
     ethr =  1.47E-05,  avg # of iterations = 12.0

[...]

     iteration # 14     ecut=    55.12 Ry     beta= 0.10
     Davidson diagonalization with overlap
     ethr =  4.98E-08,  avg # of iterations =  5.0

[...]

     total energy              =   -1206.69342585 Ry
     estimated scf accuracy    <       0.00005026 Ry

     iteration # 16     ecut=    55.12 Ry     beta= 0.10
     Davidson diagonalization with overlap
     c_bands:  2 eigenvalues not converged
     ethr =  9.26E-09,  avg # of iterations =  4.9

[...]

     Adding external electric field

     Computed dipole along edir(3) :
        Dipole               -0.0506 Ry au,         -0.1286 Debye
        Dipole field         -0.0001 Ry au,

        Potential amp.        0.0102 Ry
        Total length         46.2946 bohr

     End of self-consistent calculation

          k = 0.0000 0.0000 0.0000 ( 39937 PWs)   bands (ev):

   -48.3053 -48.2585 -48.2205 -48.1734 -47.9169 -47.8689 -26.3953 -26.3540
   -26.3392 -26.3246 -26.2989 -26.2905 -26.2661 -26.2341 -26.2047 -26.1477
   -26.0863 -26.0253 -25.9627 -25.8537 -25.7944 -25.7216 -25.6689 -25.5745
    -6.7524  -6.5628  -6.5127  -6.4630  -6.4465  -6.3803  -6.3381  -6.2803
    -6.2301  -6.2043  -6.1935  -6.0936  -5.9548  -5.9318  -5.8807  -5.8247
    -5.8216  -5.7437  -5.7218  -5.7007  -5.6638  -5.6571  -5.6226  -5.5440
    -5.5408  -5.4516  -5.4436  -5.3450  -5.2373  -5.2364  -4.9177  -4.6656
    -3.2869  -2.5306  -1.8143  -1.4789  -0.0952   0.0120   0.1444   0.4788
     0.4944   0.5408   0.7956   0.8497   1.2683   1.3578   1.3952   1.5871
     1.6910   1.7074   1.7406   2.0402   2.2401   2.3118   2.6090   2.8492
     3.0549   3.1741   3.2183   3.4340   3.7225   3.8769

[...]

          k = 0.0668-0.0517 0.0000 ( 40068 PWs)   bands (ev):

[...]

          k =-0.0801 0.0438 0.0000 ( 40050 PWs)   bands (ev):

[...]

          k =-0.0801-0.0475 0.0000 ( 40030 PWs)   bands (ev):

   -48.3051 -48.2585 -48.2203 -48.1734 -47.9169 -47.8688 -26.3987 -26.3571
   -26.3395 -26.3276 -26.3016 -26.2980 -26.2664 -26.2340 -26.2095 -26.1487
   -26.0885 -26.0257 -25.9672 -25.8543 -25.7949 -25.7228 -25.6703 -25.5754
    -6.6463  -6.4506  -6.4227  -6.3425  -6.2971  -6.2939  -6.1711  -6.1331
    -6.1092  -6.0762  -6.0220  -5.9924  -5.7970  -5.7934  -5.7669  -5.7120
    -5.6898  -5.6801  -5.6782  -5.6432  -5.6158  -5.6128  -5.5736  -5.4828
    -5.4102  -5.3941  -5.3584  -5.2481  -5.2340  -4.9142  -4.8611  -4.5121
    -3.1947  -2.1961  -2.1228  -1.6835  -1.3333  -0.9583  -0.6127  -0.6045
    -0.3558  -0.1229  -0.0467   0.0937   0.3437   0.4655   0.5371   0.8598
     1.0253   1.0964   1.2610   1.3787   2.3057   2.4306   2.6084   2.7614
     3.1103   3.1110   3.2529   3.2944   3.4772   3.5214

     the Fermi energy is     1.4171 ev

!    total energy              =   -1206.69343056 Ry
     estimated scf accuracy    <       0.00000201 Ry
     smearing contrib. (-TS)   =      -0.07032121 Ry
     internal energy E=F+TS    =   -1206.62310935 Ry

     The total energy is F=E-TS. E is the sum of the following terms:
     one-electron contribution =   -8490.46859212 Ry
     hartree contribution      =    4283.60385571 Ry
     xc contribution           =    -312.24317401 Ry
     ewald contribution        =    3312.48479552 Ry
     electric field correction =       0.00000555 Ry

     convergence has been achieved in  16 iterations

     negative rho (up, down):  1.031E-03 0.000E+00

     Forces acting on atoms (cartesian axes, Ry/au):

     atom    1 type  1   force =     0.00294457    0.00174654    0.01823910
     atom    2 type  1   force =     0.00294620    0.00174761    0.01824211
     atom    3 type  2   force =    -0.00022504   -0.00012979   -0.01417156
     atom    4 type  2   force =    -0.00022280   -0.00012956   -0.01417491
     atom    5 type  1   force =    -0.00671883   -0.00398257    0.00046992
     atom    6 type  1   force =    -0.00671455   -0.00398220    0.00047022
     atom    7 type  2   force =     0.00479202    0.00283950   -0.00554092
     atom    8 type  2   force =     0.00478837    0.00283624   -0.00554356
     atom    9 type  1   force =    -0.00110754   -0.00065881    0.00017236
     atom   10 type  1   force =    -0.00111241   -0.00065934    0.00016746
     atom   11 type  2   force =     0.00031532    0.00018589    0.00083273
     atom   12 type  2   force =     0.00031470    0.00018649    0.00083706

     Total force =     0.036629     Total SCF correction =     0.006098
     SCF correction compared to forces is large: reduce conv_thr to get better values

     Writing output data file ./Zr2Hg2/Zr2Hg2_beef.save/

     General routines

     Parallel routines

   This run was terminated on:   2:49:47  11Jul2022

   JOB DONE.