     Program PWSCF v.6.6 starts on 25Jun2022 at 14:49:12

     R & G space division:  proc/nbgrp/npool/nimage =      37
     Fft bands division:     nmany     =       1
     Reading input from Zr2Ir2.in
Warning: card &CELL ignored
Warning: card / ignored

     Current dimensions of program PWSCF are:
     Max number of different atomic species (ntypx) = 10
     Max number of k-points (npk) =  40000
     Max angular momentum in pseudopotentials (lmaxx) =  3
     Presently stress not available with electric field and gates

     Message from routine cell_base_init:
     DEPRECATED: use true lattice parameter, not A to a.u. conversion factor
     file Zr.pbe-spn-rrkjus_psl.1.0.0.UPF: wavefunction(s)  4S renormalized
     file Ir.pbe-n-rrkjus_psl.0.2.3.UPF: wavefunction(s)  5D renormalized

     IMPORTANT: XC functional enforced from input :
     Exchange-correlation= BEEF-VDW
                           (   1   4  43  14   2   0   0)
     Any further DFT definition will be discarded
     Please, verify this is what you really want

     Subspace diagonalization in iterative solution of the eigenvalue problem:
     a serial algorithm will be used

     Found symmetry operation: I + (  0.5000 -0.5000  0.0000)
     This is a supercell, fractional translations are disabled

     bravais-lattice index     =            0
     lattice parameter (alat)  =       1.8897  a.u.
     unit-cell volume          =    5048.7684 (a.u.)^3
     number of atoms/cell      =           12
     number of atomic types    =            2
     number of electrons       =       126.00
     number of Kohn-Sham states=           76
     kinetic-energy cutoff     =      55.1240  Ry
     charge density cutoff     =     551.2396  Ry
     convergence threshold     =      1.0E-05
     mixing beta               =       0.1000
     number of iterations used =           10  plain     mixing
     Exchange-correlation= BEEF-VDW
                           (   1   4  43  14   2   0   0)

     celldm(1)=   1.889726  celldm(2)=   0.000000  celldm(3)=   0.000000
     celldm(4)=   0.000000  celldm(5)=   0.000000  celldm(6)=   0.000000

     crystal axes: (cart. coord. in units of alat)
               a(1) = (   5.748030   0.000000   0.000000 )
               a(2) = (   2.325553   5.256581   0.000000 )
               a(3) = (   0.000000   0.000000  24.760907 )

     reciprocal axes: (cart. coord. in units 2 pi/alat)
               b(1) = (  0.173973 -0.076967  0.000000 )
               b(2) = (  0.000000  0.190238  0.000000 )
               b(3) = (  0.000000  0.000000  0.040386 )

     PseudoPot. # 1 for Zr read from file:
     ../pseudo/Zr.pbe-spn-rrkjus_psl.1.0.0.UPF
     MD5 check sum: 3d17ee99aa1707c2ccb6b09ed65e51a1
     Pseudo is Ultrasoft + core correction, Zval = 12.0
     Generated using "atomic" code by A. Dal Corso v.6.2.2
     Using radial grid of 1225 points,  6 beta functions with:
                l(1) =   0
                l(2) =   0
                l(3) =   1
                l(4) =   1
                l(5) =   2
                l(6) =   2
     Q(r) pseudized with 0 coefficients

     PseudoPot. # 2 for Ir read from file:
     ../pseudo/Ir.pbe-n-rrkjus_psl.0.2.3.UPF
     MD5 check sum: a93e608e8ddc29ee62145620b5f41564
     Pseudo is Ultrasoft + core correction, Zval =  9.0
     Generated using "atomic" code by A. Dal Corso v.5.0.2 svn rev. 9415
     Using radial grid of 1277 points,  6 beta functions with:
                l(1) =   0
                l(2) =   0
                l(3) =   1
                l(4) =   1
                l(5) =   2
                l(6) =   2
     Q(r) pseudized with 0 coefficients

     atomic species   valence    mass     pseudopotential
        Zr            12.00    91.22400     Zr( 1.00)
        Ir             9.00   192.21700     Ir( 1.00)

     No symmetry found

   Cartesian axes

     site n.     atom                  positions (alat units)
         1           Zr  tau(   1) = (   0.0000000   0.0000000  10.0000000  )
         2           Zr  tau(   2) = (   4.0367914   2.6282906  10.0000000  )
         3           Ir  tau(   3) = (   2.8740148   0.0000000  10.0000000  )
         4           Ir  tau(   4) = (   1.1627766   2.6282906  10.0000000  )
         5           Zr  tau(   5) = (   5.7480296   3.7424506  12.3804536  )
         6           Zr  tau(   6) = (   1.7112382   1.1141600  12.3804536  )
         7           Ir  tau(   7) = (   2.8740148   3.7424506  12.3804536  )
         8           Ir  tau(   8) = (   4.5852530   1.1141600  12.3804536  )
         9           Zr  tau(   9) = (   3.7416199   2.4361109  14.7718770  )
        10           Zr  tau(  10) = (   7.7784171   5.0644005  14.7718836  )
        11           Ir  tau(  11) = (   6.6249066   2.4421467  14.5589804  )
        12           Ir  tau(  12) = (   4.9136695   5.0704370  14.5589795  )

     number of k points=    74  Fermi-Dirac smearing, width (Ry)=  0.0100
                       cart. coord. in units 2pi/alat
        k(    1) = (   0.0000000   0.0000000   0.0000000), wk =   0.0138889
        k(    2) = (   0.0000000   0.0158531   0.0000000), wk =   0.0277778
        k(    3) = (   0.0000000   0.0317063   0.0000000), wk =   0.0277778
        k(    4) = (   0.0000000   0.0475594   0.0000000), wk =   0.0277778
        k(    5) = (   0.0000000   0.0634126   0.0000000), wk =   0.0277778
        k(    6) = (   0.0000000   0.0792657   0.0000000), wk =   0.0277778
        k(    7) = (   0.0000000  -0.0951189   0.0000000), wk =   0.0138889
        k(    8) = (   0.0144977  -0.0064139   0.0000000), wk =   0.0277778
        k(    9) = (   0.0144977   0.0094392   0.0000000), wk =   0.0277778
        k(   10) = (   0.0144977   0.0252924   0.0000000), wk =   0.0277778
        k(   11) = (   0.0144977   0.0411455   0.0000000), wk =   0.0277778
        k(   12) = (   0.0144977   0.0569987   0.0000000), wk =   0.0277778
        k(   13) = (   0.0144977   0.0728518   0.0000000), wk =   0.0277778
        k(   14) = (   0.0144977  -0.1015328   0.0000000), wk =   0.0277778
        k(   15) = (   0.0144977  -0.0856796   0.0000000), wk =   0.0277778
        k(   16) = (   0.0144977  -0.0698265   0.0000000), wk =   0.0277778
        k(   17) = (   0.0144977  -0.0539733   0.0000000), wk =   0.0277778
        k(   18) = (   0.0144977  -0.0381202   0.0000000), wk =   0.0277778
        k(   19) = (   0.0144977  -0.0222670   0.0000000), wk =   0.0277778
        k(   20) = (   0.0289954  -0.0128278   0.0000000), wk =   0.0277778
        k(   21) = (   0.0289954   0.0030253   0.0000000), wk =   0.0277778
        k(   22) = (   0.0289954   0.0188785   0.0000000), wk =   0.0277778
        k(   23) = (   0.0289954   0.0347316   0.0000000), wk =   0.0277778
        k(   24) = (   0.0289954   0.0505848   0.0000000), wk =   0.0277778
        k(   25) = (   0.0289954   0.0664379   0.0000000), wk =   0.0277778
        k(   26) = (   0.0289954  -0.1079467   0.0000000), wk =   0.0277778
        k(   27) = (   0.0289954  -0.0920935   0.0000000), wk =   0.0277778
        k(   28) = (   0.0289954  -0.0762404   0.0000000), wk =   0.0277778
        k(   29) = (   0.0289954  -0.0603872   0.0000000), wk =   0.0277778
        k(   30) = (   0.0289954  -0.0445341   0.0000000), wk =   0.0277778
        k(   31) = (   0.0289954  -0.0286810   0.0000000), wk =   0.0277778
        k(   32) = (   0.0434932  -0.0192417   0.0000000), wk =   0.0277778
        k(   33) = (   0.0434932  -0.0033886   0.0000000), wk =   0.0277778
        k(   34) = (   0.0434932   0.0124646   0.0000000), wk =   0.0277778
        k(   35) = (   0.0434932   0.0283177   0.0000000), wk =   0.0277778
        k(   36) = (   0.0434932   0.0441709   0.0000000), wk =   0.0277778
        k(   37) = (   0.0434932   0.0600240   0.0000000), wk =   0.0277778
        k(   38) = (   0.0434932  -0.1143606   0.0000000), wk =   0.0277778
        k(   39) = (   0.0434932  -0.0985074   0.0000000), wk =   0.0277778
        k(   40) = (   0.0434932  -0.0826543   0.0000000), wk =   0.0277778
        k(   41) = (   0.0434932  -0.0668011   0.0000000), wk =   0.0277778
        k(   42) = (   0.0434932  -0.0509480   0.0000000), wk =   0.0277778
        k(   43) = (   0.0434932  -0.0350949   0.0000000), wk =   0.0277778
        k(   44) = (   0.0579909  -0.0256556   0.0000000), wk =   0.0277778
        k(   45) = (   0.0579909  -0.0098025   0.0000000), wk =   0.0277778
        k(   46) = (   0.0579909   0.0060507   0.0000000), wk =   0.0277778
        k(   47) = (   0.0579909   0.0219038   0.0000000), wk =   0.0277778
        k(   48) = (   0.0579909   0.0377569   0.0000000), wk =   0.0277778
        k(   49) = (   0.0579909   0.0536101   0.0000000), wk =   0.0277778
        k(   50) = (   0.0579909  -0.1207745   0.0000000), wk =   0.0277778
        k(   51) = (   0.0579909  -0.1049213   0.0000000), wk =   0.0277778
        k(   52) = (   0.0579909  -0.0890682   0.0000000), wk =   0.0277778
        k(   53) = (   0.0579909  -0.0732151   0.0000000), wk =   0.0277778
        k(   54) = (   0.0579909  -0.0573619   0.0000000), wk =   0.0277778
        k(   55) = (   0.0579909  -0.0415088   0.0000000), wk =   0.0277778
        k(   56) = (   0.0724886  -0.0320695   0.0000000), wk =   0.0277778
        k(   57) = (   0.0724886  -0.0162164   0.0000000), wk =   0.0277778
        k(   58) = (   0.0724886  -0.0003632   0.0000000), wk =   0.0277778
        k(   59) = (   0.0724886   0.0154899   0.0000000), wk =   0.0277778
        k(   60) = (   0.0724886   0.0313430   0.0000000), wk =   0.0277778
        k(   61) = (   0.0724886   0.0471962   0.0000000), wk =   0.0277778
        k(   62) = (   0.0724886  -0.1271884   0.0000000), wk =   0.0277778
        k(   63) = (   0.0724886  -0.1113352   0.0000000), wk =   0.0277778
        k(   64) = (   0.0724886  -0.0954821   0.0000000), wk =   0.0277778
        k(   65) = (   0.0724886  -0.0796290   0.0000000), wk =   0.0277778
        k(   66) = (   0.0724886  -0.0637758   0.0000000), wk =   0.0277778
        k(   67) = (   0.0724886  -0.0479227   0.0000000), wk =   0.0277778
        k(   68) = (  -0.0869863   0.0384834   0.0000000), wk =   0.0138889
        k(   69) = (  -0.0869863   0.0543366   0.0000000), wk =   0.0277778
        k(   70) = (  -0.0869863   0.0701897   0.0000000), wk =   0.0277778
        k(   71) = (  -0.0869863   0.0860429   0.0000000), wk =   0.0277778
        k(   72) = (  -0.0869863   0.1018960   0.0000000), wk =   0.0277778
        k(   73) = (  -0.0869863   0.1177492   0.0000000), wk =   0.0277778
        k(   74) = (  -0.0869863  -0.0566354   0.0000000), wk =   0.0138889

     Initial potential from superposition of free atoms

     starting charge  125.98620, renormalised to  126.00000

     negative rho (up, down):  4.242E-04 0.000E+00

     %%%%%%%%%%%%%%%%%%%%%%%%%%%%%%%%%%%%%%%%%%%%%%%%%%%%%%%%%%%%%%%%%%%%%%%%
     %                                                                      %
     % You are using vdW-DF, which was implemented by the Thonhauser group. %
     % Please cite the following two papers that made this development      %
     % possible and the two reviews that describe the various versions:     %
     %                                                                      %
     %   T. Thonhauser et al., PRL 115, 136402 (2015).                      %
     %   T. Thonhauser et al., PRB 76, 125112 (2007).                       %
     %   K. Berland et al., Rep. Prog. Phys. 78, 066501 (2015).             %
     %   D.C. Langreth et al., J. Phys.: Condens. Matter 21, 084203 (2009). %
     %                                                                      %
     %                                                                      %
     % If you are calculating the stress with vdW-DF, please also cite:     %
     %                                                                      %
     %   R. Sabatini et al., J. Phys.: Condens. Matter 24, 424209 (2012).   %
     %                                                                      %
     %%%%%%%%%%%%%%%%%%%%%%%%%%%%%%%%%%%%%%%%%%%%%%%%%%%%%%%%%%%%%%%%%%%%%%%%

     Adding external electric field

     Computed dipole along edir(3) :
        Dipole                0.0007 Ry au,          0.0017 Debye
        Dipole field          0.0000 Ry au,

        Potential amp.       -0.0002 Ry
        Total length         45.6215 bohr

     Starting wfcs are  132 randomized atomic wfcs

     Self-consistent Calculation

     iteration #  1     ecut=    55.12 Ry     beta= 0.10
     Davidson diagonalization with overlap
     ethr =  1.00E-02,  avg # of iterations =  2.0

[...]

     total energy              =    -978.84479658 Ry
     estimated scf accuracy    <       4.37944580 Ry

[...]

     iteration #  7     ecut=    55.12 Ry     beta= 0.10
     Davidson diagonalization with overlap
     c_bands:  1 eigenvalues not converged
     c_bands:  1 eigenvalues not converged
     c_bands:  1 eigenvalues not converged
     c_bands:  1 eigenvalues not converged
     c_bands:  1 eigenvalues not converged
     c_bands:  1 eigenvalues not converged
     c_bands:  1 eigenvalues not converged
     c_bands:  1 eigenvalues not converged
     ethr =  3.02E-05,  avg # of iterations = 11.5

[...]

     iteration # 13     ecut=    55.12 Ry     beta= 0.10
     Davidson diagonalization with overlap
     ethr =  4.42E-07,  avg # of iterations =  7.0

[...]

     total energy              =    -979.13022977 Ry
     estimated scf accuracy    <       0.00001268 Ry

     iteration # 17     ecut=    55.12 Ry     beta= 0.10
     Davidson diagonalization with overlap
     c_bands:  1 eigenvalues not converged
     ethr =  1.01E-08,  avg # of iterations =  5.5

[...]

     Adding external electric field

     Computed dipole along edir(3) :
        Dipole                0.1147 Ry au,          0.2916 Debye
        Dipole field          0.0003 Ry au,

        Potential amp.       -0.0261 Ry
        Total length         45.6215 bohr

     End of self-consistent calculation

          k = 0.0000 0.0000 0.0000 ( 34861 PWs)   bands (ev):

   -48.0291 -47.9719 -47.9499 -47.8923 -47.6606 -47.6020 -26.1811 -26.1158
   -26.1144 -26.0711 -26.0567 -26.0045 -25.9847 -25.9385 -25.8799 -25.8581
   -25.7987 -25.6349 -25.6014 -25.5955 -25.5705 -25.5328 -25.5146 -25.3759
    -5.4840  -3.8772  -3.7346  -3.5338  -3.2754  -3.1397  -3.0140  -2.9702
    -2.9186  -2.7941  -2.4792  -2.2265  -2.2154  -1.9405  -1.9165  -1.5149
    -1.4395  -1.3257  -1.2199  -1.0512  -0.9962  -0.9411  -0.5419  -0.4897
    -0.3731  -0.2310  -0.2246   0.1303   0.1956   0.4416   0.6013   0.7009
     0.8920   1.0713   1.9653   2.0313   2.1402   2.1505   2.2387   2.2830
     2.3795   2.4434   2.4989   2.7153   2.8964   3.0978   3.1862   3.2153
     3.2610   3.5042   3.5463   3.9069

[...]

          k = 0.0725-0.0479 0.0000 ( 34913 PWs)   bands (ev):

[...]

          k =-0.0870 0.0385 0.0000 ( 34904 PWs)   bands (ev):

[...]

          k =-0.0870-0.0566 0.0000 ( 34876 PWs)   bands (ev):

   -48.0276 -47.9717 -47.9482 -47.8922 -47.6601 -47.6007 -26.1957 -26.1367
   -26.1299 -26.0725 -26.0542 -26.0026 -25.9938 -25.9702 -25.8882 -25.8852
   -25.8063 -25.6551 -25.6046 -25.5810 -25.5755 -25.5360 -25.5308 -25.3813
    -3.9470  -3.5479  -2.8044  -2.7818  -2.4244  -2.2927  -2.2639  -1.9602
    -1.9380  -1.8884  -1.8626  -1.7336  -1.6860  -1.4459  -1.4145  -1.3101
    -1.2172  -0.8342  -0.7827  -0.7268  -0.7054  -0.6984  -0.6856  -0.3420
    -0.3067  -0.2662  -0.2030  -0.1710  -0.1059   0.0893   0.2312   0.3583
     0.4614   0.4883   0.5503   0.5806   0.7387   0.7964   0.9124   0.9235
     1.2542   1.6345   1.8984   1.9357   1.9461   1.9870   2.0751   2.3465
     2.6024   2.7134   2.9195   3.0976

     the Fermi energy is     1.7649 ev

!    total energy              =    -979.13022987 Ry
     estimated scf accuracy    <       0.00000226 Ry
     smearing contrib. (-TS)   =      -0.03998523 Ry
     internal energy E=F+TS    =    -979.09024463 Ry

     The total energy is F=E-TS. E is the sum of the following terms:
     one-electron contribution =   -7565.93173850 Ry
     hartree contribution      =    3813.48939168 Ry
     xc contribution           =    -306.98487511 Ry
     ewald contribution        =    3080.33694452 Ry
     electric field correction =       0.00003277 Ry

     convergence has been achieved in  17 iterations

     negative rho (up, down):  4.499E-04 0.000E+00

     Forces acting on atoms (cartesian axes, Ry/au):

     atom    1 type  1   force =    -0.02204979   -0.01435327   -0.02377046
     atom    2 type  1   force =    -0.02205250   -0.01436173   -0.02377347
     atom    3 type  2   force =    -0.00438599   -0.00285844    0.04109124
     atom    4 type  2   force =    -0.00438824   -0.00284889    0.04108473
     atom    5 type  1   force =     0.01998868    0.01301664   -0.02712751
     atom    6 type  1   force =     0.01998883    0.01301197   -0.02713055
     atom    7 type  2   force =     0.00580866    0.00378401    0.00585479
     atom    8 type  2   force =     0.00580948    0.00378597    0.00585809
     atom    9 type  1   force =    -0.00007060   -0.00004823    0.00277590
     atom   10 type  1   force =    -0.00007223   -0.00004797    0.00277315
     atom   11 type  2   force =     0.00070757    0.00046010    0.00118231
     atom   12 type  2   force =     0.00071613    0.00045984    0.00118176

     Total force =     0.093490     Total SCF correction =     0.007011

     Writing output data file ./Zr2Ir2/Zr2Ir2_beef.save/

     General routines

     Parallel routines

   This run was terminated on:  15:49:44  25Jun2022

   JOB DONE.