     Program PWSCF v.6.6 starts on 11Jul2022 at  0: 4: 8

     R & G space division:  proc/nbgrp/npool/nimage =      37
     Fft bands division:     nmany     =       1
     Reading input from Zr2Mo2.in
Warning: card &CELL ignored
Warning: card / ignored

     Current dimensions of program PWSCF are:
     Max number of different atomic species (ntypx) = 10
     Max number of k-points (npk) =  40000
     Max angular momentum in pseudopotentials (lmaxx) =  3
     Presently stress not available with electric field and gates

     Message from routine cell_base_init:
     DEPRECATED: use true lattice parameter, not A to a.u. conversion factor
     file Zr.pbe-spn-rrkjus_psl.1.0.0.UPF: wavefunction(s)  4S renormalized
     file Mo.pbe-spn-rrkjus_psl.1.0.0.UPF: wavefunction(s)  4S renormalized

     IMPORTANT: XC functional enforced from input :
     Exchange-correlation= BEEF-VDW
                           (   1   4  43  14   2   0   0)
     Any further DFT definition will be discarded
     Please, verify this is what you really want

     Subspace diagonalization in iterative solution of the eigenvalue problem:
     a serial algorithm will be used

     Found symmetry operation: I + (  0.5000 -0.5000  0.0000)
     This is a supercell, fractional translations are disabled

     bravais-lattice index     =            0
     lattice parameter (alat)  =       1.8897  a.u.
     unit-cell volume          =    5292.7587 (a.u.)^3
     number of atoms/cell      =           12
     number of atomic types    =            2
     number of electrons       =       156.00
     number of Kohn-Sham states=           94
     kinetic-energy cutoff     =      55.1240  Ry
     charge density cutoff     =     551.2396  Ry
     convergence threshold     =      1.0E-05
     mixing beta               =       0.1000
     number of iterations used =           10  plain     mixing
     Exchange-correlation= BEEF-VDW
                           (   1   4  43  14   2   0   0)

     celldm(1)=   1.889726  celldm(2)=   0.000000  celldm(3)=   0.000000
     celldm(4)=   0.000000  celldm(5)=   0.000000  celldm(6)=   0.000000

     crystal axes: (cart. coord. in units of alat)
               a(1) = (   5.798999   0.000000   0.000000 )
               a(2) = (   1.930956   5.468070   0.000000 )
               a(3) = (   0.000000   0.000000  24.734235 )

     reciprocal axes: (cart. coord. in units 2 pi/alat)
               b(1) = (  0.172444 -0.060896  0.000000 )
               b(2) = (  0.000000  0.182880  0.000000 )
               b(3) = (  0.000000  0.000000  0.040430 )

     PseudoPot. # 1 for Zr read from file:
     ../pseudo/Zr.pbe-spn-rrkjus_psl.1.0.0.UPF
     MD5 check sum: 3d17ee99aa1707c2ccb6b09ed65e51a1
     Pseudo is Ultrasoft + core correction, Zval = 12.0
     Generated using "atomic" code by A. Dal Corso v.6.2.2
     Using radial grid of 1225 points,  6 beta functions with:
                l(1) =   0
                l(2) =   0
                l(3) =   1
                l(4) =   1
                l(5) =   2
                l(6) =   2
     Q(r) pseudized with 0 coefficients

     PseudoPot. # 2 for Mo read from file:
     ../pseudo/Mo.pbe-spn-rrkjus_psl.1.0.0.UPF
     MD5 check sum: 03f09b12e49601d1a456a78ce8b2d514
     Pseudo is Ultrasoft + core correction, Zval = 14.0
     Generated using "atomic" code by A. Dal Corso v.6.3
     Using radial grid of 1229 points,  6 beta functions with:
                l(1) =   0
                l(2) =   0
                l(3) =   1
                l(4) =   1
                l(5) =   2
                l(6) =   2
     Q(r) pseudized with 0 coefficients

     atomic species   valence    mass     pseudopotential
        Zr            12.00    91.22400     Zr( 1.00)
        Mo            14.00    95.95000     Mo( 1.00)

     No symmetry found

   Cartesian axes

     site n.     atom                  positions (alat units)
         1           Zr  tau(   1) = (   0.0000000   0.0000000  10.0000000  )
         2           Zr  tau(   2) = (   3.8649773   2.7340352  10.0000000  )
         3           Mo  tau(   3) = (   2.8994993   0.0000000  10.0000000  )
         4           Mo  tau(   4) = (   0.9654780   2.7340352  10.0000000  )
         5           Zr  tau(   5) = (   5.7989986   4.1021369  12.3671176  )
         6           Zr  tau(   6) = (   1.9340213   1.3681017  12.3671176  )
         7           Mo  tau(   7) = (   2.8994993   4.1021369  12.3671176  )
         8           Mo  tau(   8) = (   4.8335206   1.3681017  12.3671176  )
         9           Zr  tau(   9) = (   3.8670909   2.7355395  14.7134750  )
        10           Zr  tau(  10) = (   0.0021037   0.0014839  14.7134752  )
        11           Mo  tau(  11) = (   0.9681892   2.7359512  14.6343841  )
        12           Mo  tau(  12) = (   2.9022062   0.0019197  14.6343886  )

     number of k points=    74  Fermi-Dirac smearing, width (Ry)=  0.0100
                       cart. coord. in units 2pi/alat
        k(    1) = (   0.0000000   0.0000000   0.0000000), wk =   0.0138889
        k(    2) = (   0.0000000   0.0152400   0.0000000), wk =   0.0277778
        k(    3) = (   0.0000000   0.0304800   0.0000000), wk =   0.0277778
        k(    4) = (   0.0000000   0.0457200   0.0000000), wk =   0.0277778
        k(    5) = (   0.0000000   0.0609600   0.0000000), wk =   0.0277778
        k(    6) = (   0.0000000   0.0762000   0.0000000), wk =   0.0277778
        k(    7) = (   0.0000000  -0.0914399   0.0000000), wk =   0.0138889
        k(    8) = (   0.0143703  -0.0050746   0.0000000), wk =   0.0277778
        k(    9) = (   0.0143703   0.0101654   0.0000000), wk =   0.0277778
        k(   10) = (   0.0143703   0.0254054   0.0000000), wk =   0.0277778
        k(   11) = (   0.0143703   0.0406453   0.0000000), wk =   0.0277778
        k(   12) = (   0.0143703   0.0558853   0.0000000), wk =   0.0277778
        k(   13) = (   0.0143703   0.0711253   0.0000000), wk =   0.0277778
        k(   14) = (   0.0143703  -0.0965146   0.0000000), wk =   0.0277778
        k(   15) = (   0.0143703  -0.0812746   0.0000000), wk =   0.0277778
        k(   16) = (   0.0143703  -0.0660346   0.0000000), wk =   0.0277778
        k(   17) = (   0.0143703  -0.0507946   0.0000000), wk =   0.0277778
        k(   18) = (   0.0143703  -0.0355546   0.0000000), wk =   0.0277778
        k(   19) = (   0.0143703  -0.0203146   0.0000000), wk =   0.0277778
        k(   20) = (   0.0287406  -0.0101493   0.0000000), wk =   0.0277778
        k(   21) = (   0.0287406   0.0050907   0.0000000), wk =   0.0277778
        k(   22) = (   0.0287406   0.0203307   0.0000000), wk =   0.0277778
        k(   23) = (   0.0287406   0.0355707   0.0000000), wk =   0.0277778
        k(   24) = (   0.0287406   0.0508107   0.0000000), wk =   0.0277778
        k(   25) = (   0.0287406   0.0660507   0.0000000), wk =   0.0277778
        k(   26) = (   0.0287406  -0.1015892   0.0000000), wk =   0.0277778
        k(   27) = (   0.0287406  -0.0863492   0.0000000), wk =   0.0277778
        k(   28) = (   0.0287406  -0.0711092   0.0000000), wk =   0.0277778
        k(   29) = (   0.0287406  -0.0558692   0.0000000), wk =   0.0277778
        k(   30) = (   0.0287406  -0.0406292   0.0000000), wk =   0.0277778
        k(   31) = (   0.0287406  -0.0253892   0.0000000), wk =   0.0277778
        k(   32) = (   0.0431109  -0.0152239   0.0000000), wk =   0.0277778
        k(   33) = (   0.0431109   0.0000161   0.0000000), wk =   0.0277778
        k(   34) = (   0.0431109   0.0152561   0.0000000), wk =   0.0277778
        k(   35) = (   0.0431109   0.0304961   0.0000000), wk =   0.0277778
        k(   36) = (   0.0431109   0.0457361   0.0000000), wk =   0.0277778
        k(   37) = (   0.0431109   0.0609761   0.0000000), wk =   0.0277778
        k(   38) = (   0.0431109  -0.1066638   0.0000000), wk =   0.0277778
        k(   39) = (   0.0431109  -0.0914238   0.0000000), wk =   0.0277778
        k(   40) = (   0.0431109  -0.0761838   0.0000000), wk =   0.0277778
        k(   41) = (   0.0431109  -0.0609438   0.0000000), wk =   0.0277778
        k(   42) = (   0.0431109  -0.0457039   0.0000000), wk =   0.0277778
        k(   43) = (   0.0431109  -0.0304639   0.0000000), wk =   0.0277778
        k(   44) = (   0.0574812  -0.0202985   0.0000000), wk =   0.0277778
        k(   45) = (   0.0574812  -0.0050585   0.0000000), wk =   0.0277778
        k(   46) = (   0.0574812   0.0101815   0.0000000), wk =   0.0277778
        k(   47) = (   0.0574812   0.0254215   0.0000000), wk =   0.0277778
        k(   48) = (   0.0574812   0.0406615   0.0000000), wk =   0.0277778
        k(   49) = (   0.0574812   0.0559014   0.0000000), wk =   0.0277778
        k(   50) = (   0.0574812  -0.1117384   0.0000000), wk =   0.0277778
        k(   51) = (   0.0574812  -0.0964985   0.0000000), wk =   0.0277778
        k(   52) = (   0.0574812  -0.0812585   0.0000000), wk =   0.0277778
        k(   53) = (   0.0574812  -0.0660185   0.0000000), wk =   0.0277778
        k(   54) = (   0.0574812  -0.0507785   0.0000000), wk =   0.0277778
        k(   55) = (   0.0574812  -0.0355385   0.0000000), wk =   0.0277778
        k(   56) = (   0.0718515  -0.0253731   0.0000000), wk =   0.0277778
        k(   57) = (   0.0718515  -0.0101331   0.0000000), wk =   0.0277778
        k(   58) = (   0.0718515   0.0051069   0.0000000), wk =   0.0277778
        k(   59) = (   0.0718515   0.0203468   0.0000000), wk =   0.0277778
        k(   60) = (   0.0718515   0.0355868   0.0000000), wk =   0.0277778
        k(   61) = (   0.0718515   0.0508268   0.0000000), wk =   0.0277778
        k(   62) = (   0.0718515  -0.1168131   0.0000000), wk =   0.0277778
        k(   63) = (   0.0718515  -0.1015731   0.0000000), wk =   0.0277778
        k(   64) = (   0.0718515  -0.0863331   0.0000000), wk =   0.0277778
        k(   65) = (   0.0718515  -0.0710931   0.0000000), wk =   0.0277778
        k(   66) = (   0.0718515  -0.0558531   0.0000000), wk =   0.0277778
        k(   67) = (   0.0718515  -0.0406131   0.0000000), wk =   0.0277778
        k(   68) = (  -0.0862218   0.0304478   0.0000000), wk =   0.0138889
        k(   69) = (  -0.0862218   0.0456877   0.0000000), wk =   0.0277778
        k(   70) = (  -0.0862218   0.0609277   0.0000000), wk =   0.0277778
        k(   71) = (  -0.0862218   0.0761677   0.0000000), wk =   0.0277778
        k(   72) = (  -0.0862218   0.0914077   0.0000000), wk =   0.0277778
        k(   73) = (  -0.0862218   0.1066477   0.0000000), wk =   0.0277778
        k(   74) = (  -0.0862218  -0.0609922   0.0000000), wk =   0.0138889

     Initial potential from superposition of free atoms

     starting charge  155.98181, renormalised to  156.00000

     negative rho (up, down):  5.260E-04 0.000E+00

     %%%%%%%%%%%%%%%%%%%%%%%%%%%%%%%%%%%%%%%%%%%%%%%%%%%%%%%%%%%%%%%%%%%%%%%%
     %                                                                      %
     % You are using vdW-DF, which was implemented by the Thonhauser group. %
     % Please cite the following two papers that made this development      %
     % possible and the two reviews that describe the various versions:     %
     %                                                                      %
     %   T. Thonhauser et al., PRL 115, 136402 (2015).                      %
     %   T. Thonhauser et al., PRB 76, 125112 (2007).                       %
     %   K. Berland et al., Rep. Prog. Phys. 78, 066501 (2015).             %
     %   D.C. Langreth et al., J. Phys.: Condens. Matter 21, 084203 (2009). %
     %                                                                      %
     %                                                                      %
     % If you are calculating the stress with vdW-DF, please also cite:     %
     %                                                                      %
     %   R. Sabatini et al., J. Phys.: Condens. Matter 24, 424209 (2012).   %
     %                                                                      %
     %%%%%%%%%%%%%%%%%%%%%%%%%%%%%%%%%%%%%%%%%%%%%%%%%%%%%%%%%%%%%%%%%%%%%%%%

     Adding external electric field

     Computed dipole along edir(3) :
        Dipole                0.0002 Ry au,          0.0006 Debye
        Dipole field          0.0000 Ry au,

        Potential amp.       -0.0000 Ry
        Total length         45.5724 bohr

     Starting wfcs are  138 randomized atomic wfcs

     Self-consistent Calculation

     iteration #  1     ecut=    55.12 Ry     beta= 0.10
     Davidson diagonalization with overlap
     ethr =  1.00E-02,  avg # of iterations =  2.0

[...]

     total energy              =   -1440.25403943 Ry
     estimated scf accuracy    <       8.21189004 Ry

[...]

     iteration #  8     ecut=    55.12 Ry     beta= 0.10
     Davidson diagonalization with overlap
     c_bands:  2 eigenvalues not converged
     c_bands:  1 eigenvalues not converged
     c_bands:  2 eigenvalues not converged
     c_bands:  4 eigenvalues not converged
     c_bands:  2 eigenvalues not converged
     ethr =  3.34E-05,  avg # of iterations = 12.8

[...]

     iteration # 10     ecut=    55.12 Ry     beta= 0.10
     Davidson diagonalization with overlap
     c_bands:  2 eigenvalues not converged
     c_bands:  1 eigenvalues not converged
     c_bands:  1 eigenvalues not converged
     ethr =  4.66E-06,  avg # of iterations =  9.5

[...]

     total energy              =   -1440.79290951 Ry
     estimated scf accuracy    <       0.00008166 Ry

     iteration # 19     ecut=    55.12 Ry     beta= 0.10
     Davidson diagonalization with overlap
     ethr =  5.23E-08,  avg # of iterations =  4.8

[...]

     Adding external electric field

     Computed dipole along edir(3) :
        Dipole                0.0135 Ry au,          0.0342 Debye
        Dipole field          0.0000 Ry au,

        Potential amp.       -0.0029 Ry
        Total length         45.5724 bohr

     End of self-consistent calculation

          k = 0.0000 0.0000 0.0000 ( 36481 PWs)   bands (ev):

   -58.8176 -58.8067 -58.7787 -58.7700 -58.7530 -58.7441 -47.0594 -47.0563
   -47.0330 -47.0300 -46.4267 -46.4003 -32.9609 -32.9572 -32.9371 -32.9361
   -32.9153 -32.9095 -32.8939 -32.8907 -32.8812 -32.8506 -32.8181 -32.8172
   -32.8008 -32.7896 -32.7795 -32.7641 -32.7611 -32.7447 -25.1698 -25.1511
   -25.1330 -25.1164 -25.1018 -25.0924 -24.9927 -24.9802 -24.9738 -24.9571
   -24.8578 -24.8521 -24.5732 -24.4568 -24.4233 -24.4213 -24.4015 -24.2603
    -3.3540  -2.1067  -1.6876  -1.4401  -1.4313  -1.3547  -1.3131  -1.2706
    -1.2579  -1.1985  -0.8442  -0.5467  -0.4905   0.2199   0.2748   0.2883
     0.2923   0.3062   0.3164   0.3544   0.4644   0.6763   0.8735   1.2087
     1.5626   1.5628   1.6194   1.9418   2.1303   2.2827   2.3671   2.3895
     2.6452   2.8350   3.1630   3.2822   3.6769   3.9352   3.9700   3.9816
     4.2248   4.2436   4.2648   4.3091   4.5312   4.5500

[...]

          k = 0.0719-0.0406 0.0000 ( 36581 PWs)   bands (ev):

[...]

          k =-0.0862 0.0304 0.0000 ( 36602 PWs)   bands (ev):

[...]

          k =-0.0862-0.0610 0.0000 ( 36600 PWs)   bands (ev):

   -58.8161 -58.8081 -58.7791 -58.7697 -58.7535 -58.7438 -47.0615 -47.0583
   -47.0341 -47.0310 -46.4297 -46.4004 -32.9413 -32.9394 -32.9368 -32.9034
   -32.9025 -32.9014 -32.8941 -32.8882 -32.8775 -32.8390 -32.8312 -32.7956
   -32.7885 -32.7709 -32.7663 -32.7636 -32.7634 -32.7487 -25.2081 -25.1876
   -25.1612 -25.1163 -25.1047 -25.0786 -25.0628 -25.0288 -25.0171 -24.9930
   -24.8686 -24.8627 -24.6082 -24.4658 -24.4409 -24.4347 -24.4285 -24.2716
    -1.5657  -1.4755  -0.6746  -0.5879  -0.5567  -0.4871  -0.4536  -0.4425
    -0.0963   0.0856   0.1833   0.1840   0.3511   0.4470   0.5100   0.5349
     0.5625   0.5966   0.7903   1.0867   1.0937   1.1183   1.2677   1.3250
     1.4100   1.4641   1.5560   1.6159   1.7034   1.7128   1.7635   1.8105
     1.8846   2.0010   2.0055   2.0116   2.1088   2.2347   2.5344   2.5979
     2.8396   2.8743   3.2444   3.3809   3.4333   3.6166

     the Fermi energy is     1.7887 ev

!    total energy              =   -1440.79291632 Ry
     estimated scf accuracy    <       0.00000327 Ry
     smearing contrib. (-TS)   =      -0.07939692 Ry
     internal energy E=F+TS    =   -1440.71351940 Ry

     The total energy is F=E-TS. E is the sum of the following terms:
     one-electron contribution =  -11342.14262106 Ry
     hartree contribution      =    5664.92876926 Ry
     xc contribution           =    -232.65079477 Ry
     ewald contribution        =    4469.15112674 Ry
     electric field correction =       0.00000043 Ry

     convergence has been achieved in  19 iterations

     negative rho (up, down):  5.608E-04 0.000E+00

     Forces acting on atoms (cartesian axes, Ry/au):

     atom    1 type  1   force =     0.00014664    0.00010304   -0.00049175
     atom    2 type  1   force =     0.00014652    0.00010455   -0.00049462
     atom    3 type  2   force =     0.00003424    0.00002321    0.01698840
     atom    4 type  2   force =     0.00003409    0.00002512    0.01699399
     atom    5 type  1   force =    -0.00005619   -0.00003562   -0.01470684
     atom    6 type  1   force =    -0.00005820   -0.00004488   -0.01470700
     atom    7 type  2   force =    -0.00002520   -0.00004239   -0.00146151
     atom    8 type  2   force =    -0.00005061   -0.00001104   -0.00145853
     atom    9 type  1   force =    -0.00002247   -0.00002029   -0.00190041
     atom   10 type  1   force =    -0.00002669   -0.00001485   -0.00190173
     atom   11 type  2   force =    -0.00006116   -0.00004605    0.00157019
     atom   12 type  2   force =    -0.00006096   -0.00004080    0.00156982

     Total force =     0.032047     Total SCF correction =     0.009771
     SCF correction compared to forces is large: reduce conv_thr to get better values

     Writing output data file ./Zr2Mo2/Zr2Mo2_beef.save/

     General routines

     Parallel routines

   This run was terminated on:   1:21:36  11Jul2022

   JOB DONE.