     Program PWSCF v.6.6 starts on 11Jul2022 at  3:33:11

     R & G space division:  proc/nbgrp/npool/nimage =      37
     Fft bands division:     nmany     =       1
     Reading input from Zr2Os2.in
Warning: card &CELL ignored
Warning: card / ignored

     Current dimensions of program PWSCF are:
     Max number of different atomic species (ntypx) = 10
     Max number of k-points (npk) =  40000
     Max angular momentum in pseudopotentials (lmaxx) =  3
     Presently stress not available with electric field and gates

     Message from routine cell_base_init:
     DEPRECATED: use true lattice parameter, not A to a.u. conversion factor
     file Zr.pbe-spn-rrkjus_psl.1.0.0.UPF: wavefunction(s)  4S renormalized

     IMPORTANT: XC functional enforced from input :
     Exchange-correlation= BEEF-VDW
                           (   1   4  43  14   2   0   0)
     Any further DFT definition will be discarded
     Please, verify this is what you really want

     Subspace diagonalization in iterative solution of the eigenvalue problem:
     a serial algorithm will be used

     Found symmetry operation: I + ( -0.5000 -0.5000  0.0000)
     This is a supercell, fractional translations are disabled

     bravais-lattice index     =            0
     lattice parameter (alat)  =       1.8897  a.u.
     unit-cell volume          =    5078.9615 (a.u.)^3
     number of atoms/cell      =           12
     number of atomic types    =            2
     number of electrons       =       168.00
     number of Kohn-Sham states=          101
     kinetic-energy cutoff     =      55.1240  Ry
     charge density cutoff     =     551.2396  Ry
     convergence threshold     =      1.0E-05
     mixing beta               =       0.1000
     number of iterations used =           10  plain     mixing
     Exchange-correlation= BEEF-VDW
                           (   1   4  43  14   2   0   0)

     celldm(1)=   1.889726  celldm(2)=   0.000000  celldm(3)=   0.000000
     celldm(4)=   0.000000  celldm(5)=   0.000000  celldm(6)=   0.000000

     crystal axes: (cart. coord. in units of alat)
               a(1) = (   5.692231   0.000000   0.000000 )
               a(2) = (   1.905401   5.363855   0.000000 )
               a(3) = (   0.000000   0.000000  24.650110 )

     reciprocal axes: (cart. coord. in units 2 pi/alat)
               b(1) = (  0.175678 -0.062406  0.000000 )
               b(2) = (  0.000000  0.186433  0.000000 )
               b(3) = (  0.000000  0.000000  0.040568 )

     PseudoPot. # 1 for Zr read from file:
     ../pseudo/Zr.pbe-spn-rrkjus_psl.1.0.0.UPF
     MD5 check sum: 3d17ee99aa1707c2ccb6b09ed65e51a1
     Pseudo is Ultrasoft + core correction, Zval = 12.0
     Generated using "atomic" code by A. Dal Corso v.6.2.2
     Using radial grid of 1225 points,  6 beta functions with:
                l(1) =   0
                l(2) =   0
                l(3) =   1
                l(4) =   1
                l(5) =   2
                l(6) =   2
     Q(r) pseudized with 0 coefficients

     PseudoPot. # 2 for Os read from file:
     ../pseudo/Os.pbe-spn-rrkjus_psl.1.0.0.UPF
     MD5 check sum: 3e7416ed594f6513d36e5cb31ba709d9
     Pseudo is Ultrasoft + core correction, Zval = 16.0
     Generated using "atomic" code by A. Dal Corso v.6.2.2
     Using radial grid of 1275 points,  6 beta functions with:
                l(1) =   0
                l(2) =   0
                l(3) =   1
                l(4) =   1
                l(5) =   2
                l(6) =   2
     Q(r) pseudized with 0 coefficients

     atomic species   valence    mass     pseudopotential
        Zr            12.00    91.22400     Zr( 1.00)
        Os            16.00   190.23000     Os( 1.00)

     No symmetry found

   Cartesian axes

     site n.     atom                  positions (alat units)
         1           Zr  tau(   1) = (   0.0000000   0.0000000  10.0000000  )
         2           Zr  tau(   2) = (   3.7988161   2.6819277  10.0000000  )
         3           Os  tau(   3) = (   2.8461157   0.0000000  10.0000000  )
         4           Os  tau(   4) = (   0.9527005   2.6819277  10.0000000  )
         5           Zr  tau(   5) = (   5.6922313   4.0186606  12.3250551  )
         6           Zr  tau(   6) = (   1.8934152   1.3367329  12.3250551  )
         7           Os  tau(   7) = (   2.8461157   4.0186606  12.3250551  )
         8           Os  tau(   8) = (   4.7395308   1.3367329  12.3250551  )
         9           Zr  tau(   9) = (   3.7907721   2.6762494  14.6939778  )
        10           Zr  tau(  10) = (   7.5895874   5.3581769  14.6939766  )
        11           Os  tau(  11) = (   6.6339563   2.6741789  14.4884559  )
        12           Os  tau(  12) = (   4.7405408   5.3561056  14.4884560  )

     number of k points=    74  Fermi-Dirac smearing, width (Ry)=  0.0100
                       cart. coord. in units 2pi/alat
        k(    1) = (   0.0000000   0.0000000   0.0000000), wk =   0.0138889
        k(    2) = (   0.0000000   0.0155361   0.0000000), wk =   0.0277778
        k(    3) = (   0.0000000   0.0310722   0.0000000), wk =   0.0277778
        k(    4) = (   0.0000000   0.0466083   0.0000000), wk =   0.0277778
        k(    5) = (   0.0000000   0.0621444   0.0000000), wk =   0.0277778
        k(    6) = (   0.0000000   0.0776804   0.0000000), wk =   0.0277778
        k(    7) = (   0.0000000  -0.0932165   0.0000000), wk =   0.0138889
        k(    8) = (   0.0146398  -0.0052005   0.0000000), wk =   0.0277778
        k(    9) = (   0.0146398   0.0103356   0.0000000), wk =   0.0277778
        k(   10) = (   0.0146398   0.0258717   0.0000000), wk =   0.0277778
        k(   11) = (   0.0146398   0.0414078   0.0000000), wk =   0.0277778
        k(   12) = (   0.0146398   0.0569439   0.0000000), wk =   0.0277778
        k(   13) = (   0.0146398   0.0724799   0.0000000), wk =   0.0277778
        k(   14) = (   0.0146398  -0.0984170   0.0000000), wk =   0.0277778
        k(   15) = (   0.0146398  -0.0828810   0.0000000), wk =   0.0277778
        k(   16) = (   0.0146398  -0.0673449   0.0000000), wk =   0.0277778
        k(   17) = (   0.0146398  -0.0518088   0.0000000), wk =   0.0277778
        k(   18) = (   0.0146398  -0.0362727   0.0000000), wk =   0.0277778
        k(   19) = (   0.0146398  -0.0207366   0.0000000), wk =   0.0277778
        k(   20) = (   0.0292797  -0.0104010   0.0000000), wk =   0.0277778
        k(   21) = (   0.0292797   0.0051351   0.0000000), wk =   0.0277778
        k(   22) = (   0.0292797   0.0206712   0.0000000), wk =   0.0277778
        k(   23) = (   0.0292797   0.0362073   0.0000000), wk =   0.0277778
        k(   24) = (   0.0292797   0.0517433   0.0000000), wk =   0.0277778
        k(   25) = (   0.0292797   0.0672794   0.0000000), wk =   0.0277778
        k(   26) = (   0.0292797  -0.1036176   0.0000000), wk =   0.0277778
        k(   27) = (   0.0292797  -0.0880815   0.0000000), wk =   0.0277778
        k(   28) = (   0.0292797  -0.0725454   0.0000000), wk =   0.0277778
        k(   29) = (   0.0292797  -0.0570093   0.0000000), wk =   0.0277778
        k(   30) = (   0.0292797  -0.0414732   0.0000000), wk =   0.0277778
        k(   31) = (   0.0292797  -0.0259371   0.0000000), wk =   0.0277778
        k(   32) = (   0.0439195  -0.0156015   0.0000000), wk =   0.0277778
        k(   33) = (   0.0439195  -0.0000654   0.0000000), wk =   0.0277778
        k(   34) = (   0.0439195   0.0154707   0.0000000), wk =   0.0277778
        k(   35) = (   0.0439195   0.0310068   0.0000000), wk =   0.0277778
        k(   36) = (   0.0439195   0.0465428   0.0000000), wk =   0.0277778
        k(   37) = (   0.0439195   0.0620789   0.0000000), wk =   0.0277778
        k(   38) = (   0.0439195  -0.1088181   0.0000000), wk =   0.0277778
        k(   39) = (   0.0439195  -0.0932820   0.0000000), wk =   0.0277778
        k(   40) = (   0.0439195  -0.0777459   0.0000000), wk =   0.0277778
        k(   41) = (   0.0439195  -0.0622098   0.0000000), wk =   0.0277778
        k(   42) = (   0.0439195  -0.0466737   0.0000000), wk =   0.0277778
        k(   43) = (   0.0439195  -0.0311376   0.0000000), wk =   0.0277778
        k(   44) = (   0.0585593  -0.0208020   0.0000000), wk =   0.0277778
        k(   45) = (   0.0585593  -0.0052659   0.0000000), wk =   0.0277778
        k(   46) = (   0.0585593   0.0102702   0.0000000), wk =   0.0277778
        k(   47) = (   0.0585593   0.0258062   0.0000000), wk =   0.0277778
        k(   48) = (   0.0585593   0.0413423   0.0000000), wk =   0.0277778
        k(   49) = (   0.0585593   0.0568784   0.0000000), wk =   0.0277778
        k(   50) = (   0.0585593  -0.1140186   0.0000000), wk =   0.0277778
        k(   51) = (   0.0585593  -0.0984825   0.0000000), wk =   0.0277778
        k(   52) = (   0.0585593  -0.0829464   0.0000000), wk =   0.0277778
        k(   53) = (   0.0585593  -0.0674103   0.0000000), wk =   0.0277778
        k(   54) = (   0.0585593  -0.0518742   0.0000000), wk =   0.0277778
        k(   55) = (   0.0585593  -0.0363381   0.0000000), wk =   0.0277778
        k(   56) = (   0.0731992  -0.0260025   0.0000000), wk =   0.0277778
        k(   57) = (   0.0731992  -0.0104664   0.0000000), wk =   0.0277778
        k(   58) = (   0.0731992   0.0050696   0.0000000), wk =   0.0277778
        k(   59) = (   0.0731992   0.0206057   0.0000000), wk =   0.0277778
        k(   60) = (   0.0731992   0.0361418   0.0000000), wk =   0.0277778
        k(   61) = (   0.0731992   0.0516779   0.0000000), wk =   0.0277778
        k(   62) = (   0.0731992  -0.1192191   0.0000000), wk =   0.0277778
        k(   63) = (   0.0731992  -0.1036830   0.0000000), wk =   0.0277778
        k(   64) = (   0.0731992  -0.0881469   0.0000000), wk =   0.0277778
        k(   65) = (   0.0731992  -0.0726108   0.0000000), wk =   0.0277778
        k(   66) = (   0.0731992  -0.0570747   0.0000000), wk =   0.0277778
        k(   67) = (   0.0731992  -0.0415386   0.0000000), wk =   0.0277778
        k(   68) = (  -0.0878390   0.0312030   0.0000000), wk =   0.0138889
        k(   69) = (  -0.0878390   0.0467391   0.0000000), wk =   0.0277778
        k(   70) = (  -0.0878390   0.0622752   0.0000000), wk =   0.0277778
        k(   71) = (  -0.0878390   0.0778113   0.0000000), wk =   0.0277778
        k(   72) = (  -0.0878390   0.0933474   0.0000000), wk =   0.0277778
        k(   73) = (  -0.0878390   0.1088835   0.0000000), wk =   0.0277778
        k(   74) = (  -0.0878390  -0.0620135   0.0000000), wk =   0.0138889

     Initial potential from superposition of free atoms

     starting charge  167.98564, renormalised to  168.00000

     negative rho (up, down):  4.897E-04 0.000E+00

     %%%%%%%%%%%%%%%%%%%%%%%%%%%%%%%%%%%%%%%%%%%%%%%%%%%%%%%%%%%%%%%%%%%%%%%%
     %                                                                      %
     % You are using vdW-DF, which was implemented by the Thonhauser group. %
     % Please cite the following two papers that made this development      %
     % possible and the two reviews that describe the various versions:     %
     %                                                                      %
     %   T. Thonhauser et al., PRL 115, 136402 (2015).                      %
     %   T. Thonhauser et al., PRB 76, 125112 (2007).                       %
     %   K. Berland et al., Rep. Prog. Phys. 78, 066501 (2015).             %
     %   D.C. Langreth et al., J. Phys.: Condens. Matter 21, 084203 (2009). %
     %                                                                      %
     %                                                                      %
     % If you are calculating the stress with vdW-DF, please also cite:     %
     %                                                                      %
     %   R. Sabatini et al., J. Phys.: Condens. Matter 24, 424209 (2012).   %
     %                                                                      %
     %%%%%%%%%%%%%%%%%%%%%%%%%%%%%%%%%%%%%%%%%%%%%%%%%%%%%%%%%%%%%%%%%%%%%%%%

     Adding external electric field

     Computed dipole along edir(3) :
        Dipole                0.0009 Ry au,          0.0022 Debye
        Dipole field          0.0000 Ry au,

        Potential amp.       -0.0002 Ry
        Total length         45.4174 bohr

     Starting wfcs are  138 randomized atomic wfcs

     Self-consistent Calculation

     iteration #  1     ecut=    55.12 Ry     beta= 0.10
     Davidson diagonalization with overlap
     ethr =  1.00E-02,  avg # of iterations =  2.0

[...]

     total energy              =   -1803.83135732 Ry
     estimated scf accuracy    <       4.41847361 Ry

[...]

     total energy              =   -1804.09042976 Ry
     estimated scf accuracy    <       0.00004264 Ry

     iteration # 16     ecut=    55.12 Ry     beta= 0.10
     Davidson diagonalization with overlap
     ethr =  2.54E-08,  avg # of iterations =  3.9

[...]

     Adding external electric field

     Computed dipole along edir(3) :
        Dipole                0.0873 Ry au,          0.2218 Debye
        Dipole field          0.0002 Ry au,

        Potential amp.       -0.0196 Ry
        Total length         45.4174 bohr

     End of self-consistent calculation

          k = 0.0000 0.0000 0.0000 ( 35077 PWs)   bands (ev):

   -83.9099 -83.9079 -83.4311 -83.4292 -83.4049 -83.4029 -47.1009 -47.0663
   -47.0637 -47.0286 -46.5017 -46.4641 -43.2799 -43.2090 -43.1967 -43.1930
   -43.1927 -43.1897 -42.7902 -42.7795 -42.7659 -42.7587 -42.7419 -42.7346
   -42.7196 -42.7101 -42.7029 -42.6987 -42.6643 -42.6635 -25.2006 -25.1790
   -25.1653 -25.1643 -25.1468 -25.1097 -25.0043 -24.9792 -24.9676 -24.9381
   -24.7954 -24.7839 -24.7080 -24.5195 -24.4904 -24.4858 -24.4334 -24.3038
    -4.6074  -2.9697  -2.7226  -2.6007  -2.3657  -2.1091  -1.9158  -1.8666
    -1.8570  -1.7989  -1.3891  -1.2666  -0.9685  -0.5644  -0.4663  -0.4102
    -0.3546  -0.2493  -0.1551  -0.0726  -0.0644   0.1312   0.3215   0.8371
     0.8775   0.9147   1.0717   1.4489   1.5912   1.7685   1.7977   1.9801
     2.1053   2.3659   2.8473   3.0941   3.2085   3.3693   3.3738   3.4882
     3.6756   3.7766   3.9342   4.0634   4.1974   4.3303   4.4163   4.5421
     4.6251   4.7529   4.8286   4.8415   5.0207

[...]

          k = 0.0732-0.0415 0.0000 ( 35126 PWs)   bands (ev):

[...]

          k =-0.0878 0.0312 0.0000 ( 35104 PWs)   bands (ev):

[...]

          k =-0.0878-0.0620 0.0000 ( 35126 PWs)   bands (ev):

   -83.9099 -83.9080 -83.4311 -83.4292 -83.4049 -83.4029 -47.1066 -47.0700
   -47.0697 -47.0325 -46.5119 -46.4673 -43.2713 -43.2087 -43.1932 -43.1913
   -43.1873 -43.1796 -42.7834 -42.7724 -42.7568 -42.7531 -42.7329 -42.7302
   -42.7193 -42.7098 -42.7034 -42.6992 -42.6652 -42.6634 -25.2230 -25.2060
   -25.1898 -25.1650 -25.1451 -25.1029 -25.0625 -25.0115 -24.9980 -24.9588
   -24.8031 -24.7916 -24.7326 -24.5554 -24.5077 -24.4657 -24.4482 -24.3136
    -2.8227  -2.4959  -1.9452  -1.6875  -1.2614  -1.0900  -0.9130  -0.8671
    -0.8659  -0.7303  -0.6246  -0.5412  -0.4753  -0.3014  -0.1879  -0.0850
     0.0086   0.2770   0.3764   0.3807   0.4997   0.6601   0.6680   0.7890
     0.8540   1.0238   1.0275   1.1602   1.2176   1.2376   1.3226   1.3845
     1.4772   1.5725   1.6406   1.6993   1.7242   1.7837   2.0646   2.1943
     2.2489   2.7779   3.1745   3.2811   3.3167   3.3989   3.5232   3.6071
     3.6425   3.8939   4.0188   4.0372   4.2242

     the Fermi energy is     2.1260 ev

!    total energy              =   -1804.09043402 Ry
     estimated scf accuracy    <       0.00000576 Ry
     smearing contrib. (-TS)   =      -0.05093645 Ry
     internal energy E=F+TS    =   -1804.03949756 Ry

     The total energy is F=E-TS. E is the sum of the following terms:
     one-electron contribution =  -13804.06877062 Ry
     hartree contribution      =    6891.00016265 Ry
     xc contribution           =    -347.86598928 Ry
     ewald contribution        =    5456.89508084 Ry
     electric field correction =       0.00001885 Ry

     convergence has been achieved in  16 iterations

     negative rho (up, down):  3.824E-04 0.000E+00

     Forces acting on atoms (cartesian axes, Ry/au):

     atom    1 type  1   force =    -0.00085054   -0.00060056   -0.01649223
     atom    2 type  1   force =    -0.00085186   -0.00060125   -0.01648939
     atom    3 type  2   force =     0.00010385    0.00007448    0.04045264
     atom    4 type  2   force =     0.00010535    0.00007376    0.04045151
     atom    5 type  1   force =     0.00039511    0.00027946   -0.01893167
     atom    6 type  1   force =     0.00039486    0.00027797   -0.01893166
     atom    7 type  2   force =     0.00003645    0.00003665   -0.00409125
     atom    8 type  2   force =     0.00004560    0.00002118   -0.00409157
     atom    9 type  1   force =     0.00014427    0.00010165   -0.00075613
     atom   10 type  1   force =     0.00014387    0.00010116   -0.00075696
     atom   11 type  2   force =     0.00016918    0.00011397   -0.00018196
     atom   12 type  2   force =     0.00016386    0.00012153   -0.00018134

     Total force =     0.067609     Total SCF correction =     0.016162
     SCF correction compared to forces is large: reduce conv_thr to get better values

     Writing output data file ./Zr2Os2/Zr2Os2_beef.save/

     General routines

     Parallel routines

   This run was terminated on:   4:16: 3  11Jul2022

   JOB DONE.