     Program PWSCF v.6.6 starts on 25Jun2022 at 23:30:25

     R & G space division:  proc/nbgrp/npool/nimage =      37
     Fft bands division:     nmany     =       1
     Reading input from Zr2Re2.in
Warning: card &CELL ignored
Warning: card / ignored

     Current dimensions of program PWSCF are:
     Max number of different atomic species (ntypx) = 10
     Max number of k-points (npk) =  40000
     Max angular momentum in pseudopotentials (lmaxx) =  3
     Presently stress not available with electric field and gates

     Message from routine cell_base_init:
     DEPRECATED: use true lattice parameter, not A to a.u. conversion factor
     file Zr.pbe-spn-rrkjus_psl.1.0.0.UPF: wavefunction(s)  4S renormalized

     IMPORTANT: XC functional enforced from input :
     Exchange-correlation= BEEF-VDW
                           (   1   4  43  14   2   0   0)
     Any further DFT definition will be discarded
     Please, verify this is what you really want

     Subspace diagonalization in iterative solution of the eigenvalue problem:
     a serial algorithm will be used

     Found symmetry operation: I + (  0.5000 -0.5000  0.0000)
     This is a supercell, fractional translations are disabled

     bravais-lattice index     =            0
     lattice parameter (alat)  =       1.8897  a.u.
     unit-cell volume          =    5131.2580 (a.u.)^3
     number of atoms/cell      =           12
     number of atomic types    =            2
     number of electrons       =       162.00
     number of Kohn-Sham states=           97
     kinetic-energy cutoff     =      55.1240  Ry
     charge density cutoff     =     551.2396  Ry
     convergence threshold     =      1.0E-05
     mixing beta               =       0.1000
     number of iterations used =           10  plain     mixing
     Exchange-correlation= BEEF-VDW
                           (   1   4  43  14   2   0   0)

     celldm(1)=   1.889726  celldm(2)=   0.000000  celldm(3)=   0.000000
     celldm(4)=   0.000000  celldm(5)=   0.000000  celldm(6)=   0.000000

     crystal axes: (cart. coord. in units of alat)
               a(1) = (   5.718292   0.000000   0.000000 )
               a(2) = (   1.909553   5.390034   0.000000 )
               a(3) = (   0.000000   0.000000  24.670020 )

     reciprocal axes: (cart. coord. in units 2 pi/alat)
               b(1) = (  0.174877 -0.061955  0.000000 )
               b(2) = (  0.000000  0.185528  0.000000 )
               b(3) = (  0.000000  0.000000  0.040535 )

     PseudoPot. # 1 for Zr read from file:
     ../pseudo/Zr.pbe-spn-rrkjus_psl.1.0.0.UPF
     MD5 check sum: 3d17ee99aa1707c2ccb6b09ed65e51a1
     Pseudo is Ultrasoft + core correction, Zval = 12.0
     Generated using "atomic" code by A. Dal Corso v.6.2.2
     Using radial grid of 1225 points,  6 beta functions with:
                l(1) =   0
                l(2) =   0
                l(3) =   1
                l(4) =   1
                l(5) =   2
                l(6) =   2
     Q(r) pseudized with 0 coefficients

     PseudoPot. # 2 for Re read from file:
     ../pseudo/Re.pbe-spn-rrkjus_psl.1.0.0.UPF
     MD5 check sum: 1282f1ec51ad523723a04c61ae80a9e6
     Pseudo is Ultrasoft + core correction, Zval = 15.0
     Generated using "atomic" code by A. Dal Corso v.6.2.2
     Using radial grid of 1275 points,  6 beta functions with:
                l(1) =   0
                l(2) =   0
                l(3) =   1
                l(4) =   1
                l(5) =   2
                l(6) =   2
     Q(r) pseudized with 0 coefficients

     atomic species   valence    mass     pseudopotential
        Zr            12.00    91.22400     Zr( 1.00)
        Re            15.00   186.20700     Re( 1.00)

     No symmetry found

   Cartesian axes

     site n.     atom                  positions (alat units)
         1           Zr  tau(   1) = (   0.0000000   0.0000000  10.0000000  )
         2           Zr  tau(   2) = (   3.8139225   2.6950172  10.0000000  )
         3           Re  tau(   3) = (   2.8591460   0.0000000  10.0000000  )
         4           Re  tau(   4) = (   0.9547766   2.6950172  10.0000000  )
         5           Zr  tau(   5) = (   5.7182920   4.0406943  12.3350098  )
         6           Zr  tau(   6) = (   1.9043694   1.3456771  12.3350098  )
         7           Re  tau(   7) = (   2.8591460   4.0406943  12.3350098  )
         8           Re  tau(   8) = (   4.7635154   1.3456771  12.3350098  )
         9           Zr  tau(   9) = (   3.8100609   2.6922840  14.6883081  )
        10           Zr  tau(  10) = (   7.6239963   5.3873161  14.6883157  )
        11           Re  tau(  11) = (   6.6680541   2.6915095  14.5683851  )
        12           Re  tau(  12) = (   4.7637259   5.3864827  14.5683876  )

     number of k points=    74  Fermi-Dirac smearing, width (Ry)=  0.0100
                       cart. coord. in units 2pi/alat
        k(    1) = (   0.0000000   0.0000000   0.0000000), wk =   0.0138889
        k(    2) = (   0.0000000   0.0154606   0.0000000), wk =   0.0277778
        k(    3) = (   0.0000000   0.0309213   0.0000000), wk =   0.0277778
        k(    4) = (   0.0000000   0.0463819   0.0000000), wk =   0.0277778
        k(    5) = (   0.0000000   0.0618425   0.0000000), wk =   0.0277778
        k(    6) = (   0.0000000   0.0773032   0.0000000), wk =   0.0277778
        k(    7) = (   0.0000000  -0.0927638   0.0000000), wk =   0.0138889
        k(    8) = (   0.0145731  -0.0051629   0.0000000), wk =   0.0277778
        k(    9) = (   0.0145731   0.0102977   0.0000000), wk =   0.0277778
        k(   10) = (   0.0145731   0.0257584   0.0000000), wk =   0.0277778
        k(   11) = (   0.0145731   0.0412190   0.0000000), wk =   0.0277778
        k(   12) = (   0.0145731   0.0566796   0.0000000), wk =   0.0277778
        k(   13) = (   0.0145731   0.0721403   0.0000000), wk =   0.0277778
        k(   14) = (   0.0145731  -0.0979267   0.0000000), wk =   0.0277778
        k(   15) = (   0.0145731  -0.0824660   0.0000000), wk =   0.0277778
        k(   16) = (   0.0145731  -0.0670054   0.0000000), wk =   0.0277778
        k(   17) = (   0.0145731  -0.0515448   0.0000000), wk =   0.0277778
        k(   18) = (   0.0145731  -0.0360842   0.0000000), wk =   0.0277778
        k(   19) = (   0.0145731  -0.0206235   0.0000000), wk =   0.0277778
        k(   20) = (   0.0291462  -0.0103258   0.0000000), wk =   0.0277778
        k(   21) = (   0.0291462   0.0051349   0.0000000), wk =   0.0277778
        k(   22) = (   0.0291462   0.0205955   0.0000000), wk =   0.0277778
        k(   23) = (   0.0291462   0.0360561   0.0000000), wk =   0.0277778
        k(   24) = (   0.0291462   0.0515168   0.0000000), wk =   0.0277778
        k(   25) = (   0.0291462   0.0669774   0.0000000), wk =   0.0277778
        k(   26) = (   0.0291462  -0.1030896   0.0000000), wk =   0.0277778
        k(   27) = (   0.0291462  -0.0876289   0.0000000), wk =   0.0277778
        k(   28) = (   0.0291462  -0.0721683   0.0000000), wk =   0.0277778
        k(   29) = (   0.0291462  -0.0567077   0.0000000), wk =   0.0277778
        k(   30) = (   0.0291462  -0.0412470   0.0000000), wk =   0.0277778
        k(   31) = (   0.0291462  -0.0257864   0.0000000), wk =   0.0277778
        k(   32) = (   0.0437193  -0.0154887   0.0000000), wk =   0.0277778
        k(   33) = (   0.0437193  -0.0000280   0.0000000), wk =   0.0277778
        k(   34) = (   0.0437193   0.0154326   0.0000000), wk =   0.0277778
        k(   35) = (   0.0437193   0.0308932   0.0000000), wk =   0.0277778
        k(   36) = (   0.0437193   0.0463539   0.0000000), wk =   0.0277778
        k(   37) = (   0.0437193   0.0618145   0.0000000), wk =   0.0277778
        k(   38) = (   0.0437193  -0.1082525   0.0000000), wk =   0.0277778
        k(   39) = (   0.0437193  -0.0927918   0.0000000), wk =   0.0277778
        k(   40) = (   0.0437193  -0.0773312   0.0000000), wk =   0.0277778
        k(   41) = (   0.0437193  -0.0618706   0.0000000), wk =   0.0277778
        k(   42) = (   0.0437193  -0.0464099   0.0000000), wk =   0.0277778
        k(   43) = (   0.0437193  -0.0309493   0.0000000), wk =   0.0277778
        k(   44) = (   0.0582925  -0.0206515   0.0000000), wk =   0.0277778
        k(   45) = (   0.0582925  -0.0051909   0.0000000), wk =   0.0277778
        k(   46) = (   0.0582925   0.0102697   0.0000000), wk =   0.0277778
        k(   47) = (   0.0582925   0.0257303   0.0000000), wk =   0.0277778
        k(   48) = (   0.0582925   0.0411910   0.0000000), wk =   0.0277778
        k(   49) = (   0.0582925   0.0566516   0.0000000), wk =   0.0277778
        k(   50) = (   0.0582925  -0.1134153   0.0000000), wk =   0.0277778
        k(   51) = (   0.0582925  -0.0979547   0.0000000), wk =   0.0277778
        k(   52) = (   0.0582925  -0.0824941   0.0000000), wk =   0.0277778
        k(   53) = (   0.0582925  -0.0670334   0.0000000), wk =   0.0277778
        k(   54) = (   0.0582925  -0.0515728   0.0000000), wk =   0.0277778
        k(   55) = (   0.0582925  -0.0361122   0.0000000), wk =   0.0277778
        k(   56) = (   0.0728656  -0.0258144   0.0000000), wk =   0.0277778
        k(   57) = (   0.0728656  -0.0103538   0.0000000), wk =   0.0277778
        k(   58) = (   0.0728656   0.0051068   0.0000000), wk =   0.0277778
        k(   59) = (   0.0728656   0.0205675   0.0000000), wk =   0.0277778
        k(   60) = (   0.0728656   0.0360281   0.0000000), wk =   0.0277778
        k(   61) = (   0.0728656   0.0514887   0.0000000), wk =   0.0277778
        k(   62) = (   0.0728656  -0.1185782   0.0000000), wk =   0.0277778
        k(   63) = (   0.0728656  -0.1031176   0.0000000), wk =   0.0277778
        k(   64) = (   0.0728656  -0.0876570   0.0000000), wk =   0.0277778
        k(   65) = (   0.0728656  -0.0721963   0.0000000), wk =   0.0277778
        k(   66) = (   0.0728656  -0.0567357   0.0000000), wk =   0.0277778
        k(   67) = (   0.0728656  -0.0412751   0.0000000), wk =   0.0277778
        k(   68) = (  -0.0874387   0.0309773   0.0000000), wk =   0.0138889
        k(   69) = (  -0.0874387   0.0464380   0.0000000), wk =   0.0277778
        k(   70) = (  -0.0874387   0.0618986   0.0000000), wk =   0.0277778
        k(   71) = (  -0.0874387   0.0773592   0.0000000), wk =   0.0277778
        k(   72) = (  -0.0874387   0.0928199   0.0000000), wk =   0.0277778
        k(   73) = (  -0.0874387   0.1082805   0.0000000), wk =   0.0277778
        k(   74) = (  -0.0874387  -0.0617865   0.0000000), wk =   0.0138889

     Initial potential from superposition of free atoms

     starting charge  161.98530, renormalised to  162.00000

     negative rho (up, down):  3.968E-04 0.000E+00

     %%%%%%%%%%%%%%%%%%%%%%%%%%%%%%%%%%%%%%%%%%%%%%%%%%%%%%%%%%%%%%%%%%%%%%%%
     %                                                                      %
     % You are using vdW-DF, which was implemented by the Thonhauser group. %
     % Please cite the following two papers that made this development      %
     % possible and the two reviews that describe the various versions:     %
     %                                                                      %
     %   T. Thonhauser et al., PRL 115, 136402 (2015).                      %
     %   T. Thonhauser et al., PRB 76, 125112 (2007).                       %
     %   K. Berland et al., Rep. Prog. Phys. 78, 066501 (2015).             %
     %   D.C. Langreth et al., J. Phys.: Condens. Matter 21, 084203 (2009). %
     %                                                                      %
     %                                                                      %
     % If you are calculating the stress with vdW-DF, please also cite:     %
     %                                                                      %
     %   R. Sabatini et al., J. Phys.: Condens. Matter 24, 424209 (2012).   %
     %                                                                      %
     %%%%%%%%%%%%%%%%%%%%%%%%%%%%%%%%%%%%%%%%%%%%%%%%%%%%%%%%%%%%%%%%%%%%%%%%

     Adding external electric field

     Computed dipole along edir(3) :
        Dipole                0.0005 Ry au,          0.0012 Debye
        Dipole field          0.0000 Ry au,

        Potential amp.       -0.0001 Ry
        Total length         45.4541 bohr

     Starting wfcs are  138 randomized atomic wfcs

     Self-consistent Calculation

     iteration #  1     ecut=    55.12 Ry     beta= 0.10
     Davidson diagonalization with overlap
     ethr =  1.00E-02,  avg # of iterations =  2.0

[...]

     total energy              =   -1675.57381851 Ry
     estimated scf accuracy    <       4.67939105 Ry

[...]

     iteration #  6     ecut=    55.12 Ry     beta= 0.10
     Davidson diagonalization with overlap
     c_bands:  2 eigenvalues not converged
     ethr =  8.48E-05,  avg # of iterations =  9.0

[...]

     iteration # 11     ecut=    55.12 Ry     beta= 0.10
     Davidson diagonalization with overlap
     c_bands:  1 eigenvalues not converged
     c_bands:  1 eigenvalues not converged
     c_bands:  1 eigenvalues not converged
     c_bands:  1 eigenvalues not converged
     c_bands:  1 eigenvalues not converged
     ethr =  9.43E-07,  avg # of iterations =  9.9

[...]

     total energy              =   -1675.84689435 Ry
     estimated scf accuracy    <       0.00001638 Ry

     iteration # 17     ecut=    55.12 Ry     beta= 0.10
     Davidson diagonalization with overlap
     ethr =  1.01E-08,  avg # of iterations =  1.4

[...]

     Adding external electric field

     Computed dipole along edir(3) :
        Dipole                0.0408 Ry au,          0.1037 Debye
        Dipole field          0.0001 Ry au,

        Potential amp.       -0.0091 Ry
        Total length         45.4541 bohr

     End of self-consistent calculation

          k = 0.0000 0.0000 0.0000 ( 35469 PWs)   bands (ev):

   -77.8130 -77.8100 -77.6606 -77.6577 -77.6074 -77.6045 -46.7827 -46.7557
   -46.7496 -46.7225 -46.1686 -46.1341 -39.5809 -39.5790 -39.5742 -39.5672
   -39.5670 -39.4697 -39.4654 -39.4578 -39.4342 -39.4004 -39.3944 -39.3925
   -39.3484 -39.3376 -39.3376 -39.3220 -39.3103 -39.2976 -24.9110 -24.8903
   -24.8798 -24.8451 -24.8433 -24.8068 -24.7199 -24.6999 -24.6881 -24.6618
   -24.5401 -24.5244 -24.3931 -24.2025 -24.1842 -24.1523 -24.1493 -24.0058
    -4.4002  -2.8828  -2.4348  -2.2777  -2.1104  -1.7257  -1.5873  -1.5730
    -1.4985  -1.4129  -1.1808  -1.0324  -0.6600  -0.0528   0.0483   0.0549
     0.0582   0.0893   0.1237   0.1836   0.3633   0.4695   0.7439   1.1004
     1.2428   1.4425   1.5302   1.7702   2.0707   2.1560   2.2739   2.3300
     2.5973   2.8698   3.0020   3.1886   3.6999   3.9110   3.9594   4.0199
     4.0809   4.1516   4.4630   4.4642   4.5374   4.7478   4.7843   4.9881
     5.1205

[...]

          k = 0.0729-0.0413 0.0000 ( 35478 PWs)   bands (ev):

[...]

          k =-0.0874 0.0310 0.0000 ( 35502 PWs)   bands (ev):

[...]

          k =-0.0874-0.0618 0.0000 ( 35482 PWs)   bands (ev):

   -77.8130 -77.8101 -77.6606 -77.6577 -77.6074 -77.6045 -46.7862 -46.7592
   -46.7520 -46.7249 -46.1742 -46.1352 -39.5700 -39.5693 -39.5675 -39.5665
   -39.5590 -39.4686 -39.4672 -39.4602 -39.4262 -39.3994 -39.3959 -39.3866
   -39.3372 -39.3352 -39.3347 -39.3091 -39.3084 -39.2972 -24.9434 -24.9212
   -24.9072 -24.8496 -24.8360 -24.7988 -24.7882 -24.7392 -24.7236 -24.6884
   -24.5493 -24.5335 -24.4228 -24.2238 -24.1804 -24.1794 -24.1615 -24.0166
    -2.4963  -2.3294  -1.6304  -1.4681  -0.8416  -0.7737  -0.6556  -0.6271
    -0.5345  -0.3689  -0.1664  -0.1369   0.1229   0.1940   0.2485   0.2625
     0.4610   0.4910   0.6693   0.9124   0.9801   1.0634   1.0783   1.2291
     1.3089   1.3416   1.4162   1.4815   1.4928   1.6827   1.7107   1.7326
     1.7619   1.7826   1.8861   1.9820   2.1123   2.3525   2.4510   2.6987
     2.7261   2.8686   3.4537   3.5643   3.5786   3.7720   4.0972   4.1537
     4.1844

     the Fermi energy is     2.0592 ev

!    total energy              =   -1675.84689490 Ry
     estimated scf accuracy    <       0.00000054 Ry
     smearing contrib. (-TS)   =      -0.07139180 Ry
     internal energy E=F+TS    =   -1675.77550310 Ry

     The total energy is F=E-TS. E is the sum of the following terms:
     one-electron contribution =  -12602.58019739 Ry
     hartree contribution      =    6290.90749584 Ry
     xc contribution           =    -357.53184839 Ry
     ewald contribution        =    4993.42904277 Ry
     electric field correction =       0.00000407 Ry

     convergence has been achieved in  17 iterations

     negative rho (up, down):  3.387E-04 0.000E+00

     Forces acting on atoms (cartesian axes, Ry/au):

     atom    1 type  1   force =    -0.00033179   -0.00023514   -0.00693776
     atom    2 type  1   force =    -0.00033039   -0.00023268   -0.00693884
     atom    3 type  2   force =     0.00003317    0.00002169    0.02336524
     atom    4 type  2   force =     0.00003225    0.00002453    0.02336571
     atom    5 type  1   force =     0.00010596    0.00007498   -0.01399656
     atom    6 type  1   force =     0.00010428    0.00007361   -0.01399442
     atom    7 type  2   force =     0.00006278    0.00006028   -0.00152069
     atom    8 type  2   force =     0.00007707    0.00003825   -0.00151943
     atom    9 type  1   force =     0.00005518    0.00004003   -0.00180500
     atom   10 type  1   force =     0.00005768    0.00004006   -0.00180533
     atom   11 type  2   force =     0.00007005    0.00004372    0.00089359
     atom   12 type  2   force =     0.00006375    0.00005066    0.00089348

     Total force =     0.039913     Total SCF correction =     0.002835

     Writing output data file ./Zr2Re2/Zr2Re2_beef.save/

     General routines

     Parallel routines

   This run was terminated on:   0:37:12  26Jun2022

   JOB DONE.