     Program PWSCF v.6.6 starts on 11Jul2022 at  1:21:40

     R & G space division:  proc/nbgrp/npool/nimage =      37
     Fft bands division:     nmany     =       1
     Reading input from Zr2Rh2.in
Warning: card &CELL ignored
Warning: card / ignored

     Current dimensions of program PWSCF are:
     Max number of different atomic species (ntypx) = 10
     Max number of k-points (npk) =  40000
     Max angular momentum in pseudopotentials (lmaxx) =  3
     Presently stress not available with electric field and gates

     Message from routine cell_base_init:
     DEPRECATED: use true lattice parameter, not A to a.u. conversion factor
     file Zr.pbe-spn-rrkjus_psl.1.0.0.UPF: wavefunction(s)  4S renormalized
     file Rh.pbe-spn-rrkjus_psl.1.0.0.UPF: wavefunction(s)  4S 5S renormalized

     IMPORTANT: XC functional enforced from input :
     Exchange-correlation= BEEF-VDW
                           (   1   4  43  14   2   0   0)
     Any further DFT definition will be discarded
     Please, verify this is what you really want

     Subspace diagonalization in iterative solution of the eigenvalue problem:
     a serial algorithm will be used

     Found symmetry operation: I + (  0.5000 -0.5000  0.0000)
     This is a supercell, fractional translations are disabled

     bravais-lattice index     =            0
     lattice parameter (alat)  =       1.8897  a.u.
     unit-cell volume          =    5118.5715 (a.u.)^3
     number of atoms/cell      =           12
     number of atomic types    =            2
     number of electrons       =       174.00
     number of Kohn-Sham states=          104
     kinetic-energy cutoff     =      55.1240  Ry
     charge density cutoff     =     551.2396  Ry
     convergence threshold     =      1.0E-05
     mixing beta               =       0.1000
     number of iterations used =           10  plain     mixing
     Exchange-correlation= BEEF-VDW
                           (   1   4  43  14   2   0   0)

     celldm(1)=   1.889726  celldm(2)=   0.000000  celldm(3)=   0.000000
     celldm(4)=   0.000000  celldm(5)=   0.000000  celldm(6)=   0.000000

     crystal axes: (cart. coord. in units of alat)
               a(1) = (   5.724538   0.000000   0.000000 )
               a(2) = (   1.997757   5.364634   0.000000 )
               a(3) = (   0.000000   0.000000  24.698565 )

     reciprocal axes: (cart. coord. in units 2 pi/alat)
               b(1) = (  0.174687 -0.065052  0.000000 )
               b(2) = (  0.000000  0.186406  0.000000 )
               b(3) = (  0.000000  0.000000  0.040488 )

     PseudoPot. # 1 for Zr read from file:
     ../pseudo/Zr.pbe-spn-rrkjus_psl.1.0.0.UPF
     MD5 check sum: 3d17ee99aa1707c2ccb6b09ed65e51a1
     Pseudo is Ultrasoft + core correction, Zval = 12.0
     Generated using "atomic" code by A. Dal Corso v.6.2.2
     Using radial grid of 1225 points,  6 beta functions with:
                l(1) =   0
                l(2) =   0
                l(3) =   1
                l(4) =   1
                l(5) =   2
                l(6) =   2
     Q(r) pseudized with 0 coefficients

     PseudoPot. # 2 for Rh read from file:
     ../pseudo/Rh.pbe-spn-rrkjus_psl.1.0.0.UPF
     MD5 check sum: 912a852783f0c9b7bd5e9eb06cc0cc10
     Pseudo is Ultrasoft + core correction, Zval = 17.0
     Generated using "atomic" code by A. Dal Corso v.6.3
     Using radial grid of 1233 points,  6 beta functions with:
                l(1) =   0
                l(2) =   0
                l(3) =   1
                l(4) =   1
                l(5) =   2
                l(6) =   2
     Q(r) pseudized with 0 coefficients

     atomic species   valence    mass     pseudopotential
        Zr            12.00    91.22400     Zr( 1.00)
        Rh            17.00   102.90550     Rh( 1.00)

     No symmetry found

   Cartesian axes

     site n.     atom                  positions (alat units)
         1           Zr  tau(   1) = (   0.0000000   0.0000000  10.0000000  )
         2           Zr  tau(   2) = (   3.8611472   2.6823170  10.0000000  )
         3           Rh  tau(   3) = (   2.8622688   0.0000000  10.0000000  )
         4           Rh  tau(   4) = (   0.9988785   2.6823170  10.0000000  )
         5           Zr  tau(   5) = (   5.7245375   3.9768036  12.3492826  )
         6           Zr  tau(   6) = (   1.8633903   1.2944866  12.3492826  )
         7           Rh  tau(   7) = (   2.8622688   3.9768036  12.3492826  )
         8           Rh  tau(   8) = (   4.7256591   1.2944866  12.3492826  )
         9           Zr  tau(   9) = (   3.7954983   2.6367125  14.7126777  )
        10           Zr  tau(  10) = (   7.6566471   5.3190286  14.7126764  )
        11           Rh  tau(  11) = (   6.6596736   2.6380344  14.4782758  )
        12           Rh  tau(  12) = (   4.7962813   5.3203519  14.4782758  )

     number of k points=    74  Fermi-Dirac smearing, width (Ry)=  0.0100
                       cart. coord. in units 2pi/alat
        k(    1) = (   0.0000000   0.0000000   0.0000000), wk =   0.0138889
        k(    2) = (   0.0000000   0.0155338   0.0000000), wk =   0.0277778
        k(    3) = (   0.0000000   0.0310677   0.0000000), wk =   0.0277778
        k(    4) = (   0.0000000   0.0466015   0.0000000), wk =   0.0277778
        k(    5) = (   0.0000000   0.0621353   0.0000000), wk =   0.0277778
        k(    6) = (   0.0000000   0.0776692   0.0000000), wk =   0.0277778
        k(    7) = (   0.0000000  -0.0932030   0.0000000), wk =   0.0138889
        k(    8) = (   0.0145572  -0.0054210   0.0000000), wk =   0.0277778
        k(    9) = (   0.0145572   0.0101128   0.0000000), wk =   0.0277778
        k(   10) = (   0.0145572   0.0256466   0.0000000), wk =   0.0277778
        k(   11) = (   0.0145572   0.0411805   0.0000000), wk =   0.0277778
        k(   12) = (   0.0145572   0.0567143   0.0000000), wk =   0.0277778
        k(   13) = (   0.0145572   0.0722482   0.0000000), wk =   0.0277778
        k(   14) = (   0.0145572  -0.0986240   0.0000000), wk =   0.0277778
        k(   15) = (   0.0145572  -0.0830902   0.0000000), wk =   0.0277778
        k(   16) = (   0.0145572  -0.0675564   0.0000000), wk =   0.0277778
        k(   17) = (   0.0145572  -0.0520225   0.0000000), wk =   0.0277778
        k(   18) = (   0.0145572  -0.0364887   0.0000000), wk =   0.0277778
        k(   19) = (   0.0145572  -0.0209549   0.0000000), wk =   0.0277778
        k(   20) = (   0.0291144  -0.0108420   0.0000000), wk =   0.0277778
        k(   21) = (   0.0291144   0.0046918   0.0000000), wk =   0.0277778
        k(   22) = (   0.0291144   0.0202256   0.0000000), wk =   0.0277778
        k(   23) = (   0.0291144   0.0357595   0.0000000), wk =   0.0277778
        k(   24) = (   0.0291144   0.0512933   0.0000000), wk =   0.0277778
        k(   25) = (   0.0291144   0.0668271   0.0000000), wk =   0.0277778
        k(   26) = (   0.0291144  -0.1040450   0.0000000), wk =   0.0277778
        k(   27) = (   0.0291144  -0.0885112   0.0000000), wk =   0.0277778
        k(   28) = (   0.0291144  -0.0729774   0.0000000), wk =   0.0277778
        k(   29) = (   0.0291144  -0.0574435   0.0000000), wk =   0.0277778
        k(   30) = (   0.0291144  -0.0419097   0.0000000), wk =   0.0277778
        k(   31) = (   0.0291144  -0.0263759   0.0000000), wk =   0.0277778
        k(   32) = (   0.0436716  -0.0162631   0.0000000), wk =   0.0277778
        k(   33) = (   0.0436716  -0.0007292   0.0000000), wk =   0.0277778
        k(   34) = (   0.0436716   0.0148046   0.0000000), wk =   0.0277778
        k(   35) = (   0.0436716   0.0303384   0.0000000), wk =   0.0277778
        k(   36) = (   0.0436716   0.0458723   0.0000000), wk =   0.0277778
        k(   37) = (   0.0436716   0.0614061   0.0000000), wk =   0.0277778
        k(   38) = (   0.0436716  -0.1094661   0.0000000), wk =   0.0277778
        k(   39) = (   0.0436716  -0.0939322   0.0000000), wk =   0.0277778
        k(   40) = (   0.0436716  -0.0783984   0.0000000), wk =   0.0277778
        k(   41) = (   0.0436716  -0.0628646   0.0000000), wk =   0.0277778
        k(   42) = (   0.0436716  -0.0473307   0.0000000), wk =   0.0277778
        k(   43) = (   0.0436716  -0.0317969   0.0000000), wk =   0.0277778
        k(   44) = (   0.0582289  -0.0216841   0.0000000), wk =   0.0277778
        k(   45) = (   0.0582289  -0.0061502   0.0000000), wk =   0.0277778
        k(   46) = (   0.0582289   0.0093836   0.0000000), wk =   0.0277778
        k(   47) = (   0.0582289   0.0249174   0.0000000), wk =   0.0277778
        k(   48) = (   0.0582289   0.0404513   0.0000000), wk =   0.0277778
        k(   49) = (   0.0582289   0.0559851   0.0000000), wk =   0.0277778
        k(   50) = (   0.0582289  -0.1148871   0.0000000), wk =   0.0277778
        k(   51) = (   0.0582289  -0.0993532   0.0000000), wk =   0.0277778
        k(   52) = (   0.0582289  -0.0838194   0.0000000), wk =   0.0277778
        k(   53) = (   0.0582289  -0.0682856   0.0000000), wk =   0.0277778
        k(   54) = (   0.0582289  -0.0527517   0.0000000), wk =   0.0277778
        k(   55) = (   0.0582289  -0.0372179   0.0000000), wk =   0.0277778
        k(   56) = (   0.0727861  -0.0271051   0.0000000), wk =   0.0277778
        k(   57) = (   0.0727861  -0.0115713   0.0000000), wk =   0.0277778
        k(   58) = (   0.0727861   0.0039626   0.0000000), wk =   0.0277778
        k(   59) = (   0.0727861   0.0194964   0.0000000), wk =   0.0277778
        k(   60) = (   0.0727861   0.0350302   0.0000000), wk =   0.0277778
        k(   61) = (   0.0727861   0.0505641   0.0000000), wk =   0.0277778
        k(   62) = (   0.0727861  -0.1203081   0.0000000), wk =   0.0277778
        k(   63) = (   0.0727861  -0.1047743   0.0000000), wk =   0.0277778
        k(   64) = (   0.0727861  -0.0892404   0.0000000), wk =   0.0277778
        k(   65) = (   0.0727861  -0.0737066   0.0000000), wk =   0.0277778
        k(   66) = (   0.0727861  -0.0581728   0.0000000), wk =   0.0277778
        k(   67) = (   0.0727861  -0.0426389   0.0000000), wk =   0.0277778
        k(   68) = (  -0.0873433   0.0325261   0.0000000), wk =   0.0138889
        k(   69) = (  -0.0873433   0.0480599   0.0000000), wk =   0.0277778
        k(   70) = (  -0.0873433   0.0635938   0.0000000), wk =   0.0277778
        k(   71) = (  -0.0873433   0.0791276   0.0000000), wk =   0.0277778
        k(   72) = (  -0.0873433   0.0946614   0.0000000), wk =   0.0277778
        k(   73) = (  -0.0873433   0.1101953   0.0000000), wk =   0.0277778
        k(   74) = (  -0.0873433  -0.0606769   0.0000000), wk =   0.0138889

     Initial potential from superposition of free atoms

     starting charge  173.98416, renormalised to  174.00000

     negative rho (up, down):  1.157E-03 0.000E+00

     %%%%%%%%%%%%%%%%%%%%%%%%%%%%%%%%%%%%%%%%%%%%%%%%%%%%%%%%%%%%%%%%%%%%%%%%
     %                                                                      %
     % You are using vdW-DF, which was implemented by the Thonhauser group. %
     % Please cite the following two papers that made this development      %
     % possible and the two reviews that describe the various versions:     %
     %                                                                      %
     %   T. Thonhauser et al., PRL 115, 136402 (2015).                      %
     %   T. Thonhauser et al., PRB 76, 125112 (2007).                       %
     %   K. Berland et al., Rep. Prog. Phys. 78, 066501 (2015).             %
     %   D.C. Langreth et al., J. Phys.: Condens. Matter 21, 084203 (2009). %
     %                                                                      %
     %                                                                      %
     % If you are calculating the stress with vdW-DF, please also cite:     %
     %                                                                      %
     %   R. Sabatini et al., J. Phys.: Condens. Matter 24, 424209 (2012).   %
     %                                                                      %
     %%%%%%%%%%%%%%%%%%%%%%%%%%%%%%%%%%%%%%%%%%%%%%%%%%%%%%%%%%%%%%%%%%%%%%%%

     Adding external electric field

     Computed dipole along edir(3) :
        Dipole                0.0009 Ry au,          0.0024 Debye
        Dipole field          0.0000 Ry au,

        Potential amp.       -0.0002 Ry
        Total length         45.5067 bohr

     Starting wfcs are  138 randomized atomic wfcs

     Self-consistent Calculation

     iteration #  1     ecut=    55.12 Ry     beta= 0.10
     Davidson diagonalization with overlap
     ethr =  1.00E-02,  avg # of iterations =  2.0

[...]

     total energy              =   -1965.12883359 Ry
     estimated scf accuracy    <       9.51147798 Ry

[...]

     total energy              =   -1965.44444541 Ry
     estimated scf accuracy    <       0.00022183 Ry

     iteration # 16     ecut=    55.12 Ry     beta= 0.10
     Davidson diagonalization with overlap
     ethr =  3.77E-08,  avg # of iterations =  5.5

[...]

     Adding external electric field

     Computed dipole along edir(3) :
        Dipole                0.1013 Ry au,          0.2576 Debye
        Dipole field          0.0002 Ry au,

        Potential amp.       -0.0226 Ry
        Total length         45.5067 bohr

     End of self-consistent calculation

          k = 0.0000 0.0000 0.0000 ( 35345 PWs)   bands (ev):

   -76.7125 -76.7099 -76.4000 -76.3974 -76.2013 -76.1988 -47.8258 -47.7929
   -47.7902 -47.7571 -47.4024 -47.3646 -44.6187 -44.5812 -44.5810 -44.5720
   -44.5613 -44.5567 -44.3124 -44.3078 -44.3078 -44.2630 -44.2216 -44.2195
   -44.1751 -44.1704 -44.0971 -44.0505 -43.9669 -43.9646 -25.8897 -25.8622
   -25.8559 -25.8443 -25.8437 -25.8051 -25.7296 -25.7012 -25.6860 -25.6530
   -25.5815 -25.4701 -25.4521 -25.3457 -25.3310 -25.3099 -25.2729 -25.1724
    -3.8813  -2.4848  -2.4134  -2.3235  -2.3217  -2.1650  -2.1541  -2.1451
    -2.1168  -2.0680  -1.5355  -1.4114  -1.3503  -1.1465  -1.0480  -1.0123
    -0.9296  -0.8676  -0.7292  -0.6902  -0.5670  -0.4711  -0.3730  -0.0378
     0.0081   0.2180   0.2180   0.2436   0.6782   0.7919   0.8479   1.1197
     1.1805   1.5324   1.9408   2.0052   2.3230   2.4767   2.4879   2.6501
     2.7240   2.7397   2.9729   3.0433   3.2419   3.3970   3.4128   3.5353
     3.5379   3.7850   3.8573   4.0360   4.1090   4.2227   4.3796   4.5241

[...]

          k = 0.0728-0.0426 0.0000 ( 35379 PWs)   bands (ev):

[...]

          k =-0.0873 0.0325 0.0000 ( 35390 PWs)   bands (ev):

[...]

          k =-0.0873-0.0607 0.0000 ( 35414 PWs)   bands (ev):

   -76.7125 -76.7100 -76.4000 -76.3974 -76.2013 -76.1988 -47.8299 -47.7970
   -47.7932 -47.7599 -47.4097 -47.3662 -44.6136 -44.5811 -44.5801 -44.5718
   -44.5557 -44.5506 -44.3068 -44.3052 -44.3038 -44.2629 -44.2223 -44.2197
   -44.1694 -44.1669 -44.0929 -44.0503 -43.9669 -43.9647 -25.9085 -25.8773
   -25.8585 -25.8523 -25.8427 -25.8003 -25.7670 -25.7122 -25.7070 -25.6625
   -25.5929 -25.4740 -25.4560 -25.3666 -25.3201 -25.3066 -25.2909 -25.1786
    -2.2683  -2.0998  -1.6034  -1.5821  -1.5649  -1.4150  -1.4115  -1.2385
    -1.1482  -1.1164  -1.0879  -0.9292  -0.9165  -0.7958  -0.7392  -0.6937
    -0.6120  -0.4530  -0.2735  -0.2204  -0.1800  -0.1670  -0.1586  -0.1500
     0.0149   0.0491   0.2243   0.2252   0.2986   0.3350   0.4919   0.5191
     0.7797   0.9179   1.0055   1.0484   1.2214   1.2555   1.2948   1.3438
     1.6518   1.7909   2.1377   2.3207   2.3299   2.4385   2.4412   2.7926
     2.9278   3.1173   3.1571   3.1847   3.3809   3.5258   3.5407   3.7425

     the Fermi energy is     2.1012 ev

!    total energy              =   -1965.44445675 Ry
     estimated scf accuracy    <       0.00000496 Ry
     smearing contrib. (-TS)   =      -0.04717337 Ry
     internal energy E=F+TS    =   -1965.39728338 Ry

     The total energy is F=E-TS. E is the sum of the following terms:
     one-electron contribution =  -14997.41999103 Ry
     hartree contribution      =    7496.21689332 Ry
     xc contribution           =    -296.10284176 Ry
     ewald contribution        =    5831.90863088 Ry
     electric field correction =       0.00002521 Ry

     convergence has been achieved in  16 iterations

     negative rho (up, down):  1.161E-03 0.000E+00

     Forces acting on atoms (cartesian axes, Ry/au):

     atom    1 type  1   force =    -0.00594579   -0.00413022   -0.01502607
     atom    2 type  1   force =    -0.00594570   -0.00413058   -0.01502650
     atom    3 type  2   force =    -0.00028188   -0.00019358    0.03930037
     atom    4 type  2   force =    -0.00027958   -0.00019757    0.03930006
     atom    5 type  1   force =     0.00519331    0.00361095   -0.02691730
     atom    6 type  1   force =     0.00519443    0.00360635   -0.02691862
     atom    7 type  2   force =     0.00111773    0.00078135   -0.00109100
     atom    8 type  2   force =     0.00111795    0.00077093   -0.00108995
     atom    9 type  1   force =    -0.00016036   -0.00011202    0.00150735
     atom   10 type  1   force =    -0.00016184   -0.00011168    0.00150767
     atom   11 type  2   force =     0.00007615    0.00005131    0.00222876
     atom   12 type  2   force =     0.00007558    0.00005477    0.00222522

     Total force =     0.072079     Total SCF correction =     0.018413
     SCF correction compared to forces is large: reduce conv_thr to get better values

     Writing output data file ./Zr2Rh2/Zr2Rh2_beef.save/

     General routines

     Parallel routines

   This run was terminated on:   2:39:18  11Jul2022

   JOB DONE.