     Program PWSCF v.6.6 starts on 11Jul2022 at  7:31:43

     R & G space division:  proc/nbgrp/npool/nimage =      37
     Fft bands division:     nmany     =       1
     Reading input from Zr2Ru2.in
Warning: card &CELL ignored
Warning: card / ignored

     Current dimensions of program PWSCF are:
     Max number of different atomic species (ntypx) = 10
     Max number of k-points (npk) =  40000
     Max angular momentum in pseudopotentials (lmaxx) =  3
     Presently stress not available with electric field and gates

     Message from routine cell_base_init:
     DEPRECATED: use true lattice parameter, not A to a.u. conversion factor
     file Zr.pbe-spn-rrkjus_psl.1.0.0.UPF: wavefunction(s)  4S renormalized

     IMPORTANT: XC functional enforced from input :
     Exchange-correlation= BEEF-VDW
                           (   1   4  43  14   2   0   0)
     Any further DFT definition will be discarded
     Please, verify this is what you really want

     Subspace diagonalization in iterative solution of the eigenvalue problem:
     a serial algorithm will be used

     Found symmetry operation: I + (  0.5000 -0.5000  0.0000)
     This is a supercell, fractional translations are disabled

     bravais-lattice index     =            0
     lattice parameter (alat)  =       1.8897  a.u.
     unit-cell volume          =    5046.6981 (a.u.)^3
     number of atoms/cell      =           12
     number of atomic types    =            2
     number of electrons       =       168.00
     number of Kohn-Sham states=          101
     kinetic-energy cutoff     =      55.1240  Ry
     charge density cutoff     =     551.2396  Ry
     convergence threshold     =      1.0E-05
     mixing beta               =       0.1000
     number of iterations used =           10  plain     mixing
     Exchange-correlation= BEEF-VDW
                           (   1   4  43  14   2   0   0)

     celldm(1)=   1.889726  celldm(2)=   0.000000  celldm(3)=   0.000000
     celldm(4)=   0.000000  celldm(5)=   0.000000  celldm(6)=   0.000000

     crystal axes: (cart. coord. in units of alat)
               a(1) = (   5.675000   0.000000   0.000000 )
               a(2) = (   1.894787   5.349337   0.000000 )
               a(3) = (   0.000000   0.000000  24.634570 )

     reciprocal axes: (cart. coord. in units 2 pi/alat)
               b(1) = (  0.176211 -0.062416  0.000000 )
               b(2) = (  0.000000  0.186939  0.000000 )
               b(3) = (  0.000000  0.000000  0.040593 )

     PseudoPot. # 1 for Zr read from file:
     ../pseudo/Zr.pbe-spn-rrkjus_psl.1.0.0.UPF
     MD5 check sum: 3d17ee99aa1707c2ccb6b09ed65e51a1
     Pseudo is Ultrasoft + core correction, Zval = 12.0
     Generated using "atomic" code by A. Dal Corso v.6.2.2
     Using radial grid of 1225 points,  6 beta functions with:
                l(1) =   0
                l(2) =   0
                l(3) =   1
                l(4) =   1
                l(5) =   2
                l(6) =   2
     Q(r) pseudized with 0 coefficients

     PseudoPot. # 2 for Ru read from file:
     ../pseudo/Ru.pbe-spn-rrkjus_psl.1.0.0.UPF
     MD5 check sum: fbaca725316a1a65f98761fd4ac95971
     Pseudo is Ultrasoft + core correction, Zval = 16.0
     Generated using "atomic" code by A. Dal Corso v.6.2.2
     Using radial grid of 1233 points,  6 beta functions with:
                l(1) =   0
                l(2) =   0
                l(3) =   1
                l(4) =   1
                l(5) =   2
                l(6) =   2
     Q(r) pseudized with 0 coefficients

     atomic species   valence    mass     pseudopotential
        Zr            12.00    91.22400     Zr( 1.00)
        Ru            16.00   101.07000     Ru( 1.00)

     No symmetry found

   Cartesian axes

     site n.     atom                  positions (alat units)
         1           Zr  tau(   1) = (   0.0000000   0.0000000  10.0000000  )
         2           Zr  tau(   2) = (   3.7848934   2.6746686  10.0000000  )
         3           Ru  tau(   3) = (   2.8375000   0.0000000  10.0000000  )
         4           Ru  tau(   4) = (   0.9473934   2.6746686  10.0000000  )
         5           Zr  tau(   5) = (   5.6750000   4.0103492  12.3172849  )
         6           Zr  tau(   6) = (   1.8901066   1.3356806  12.3172849  )
         7           Ru  tau(   7) = (   2.8375000   4.0103492  12.3172849  )
         8           Ru  tau(   8) = (   4.7276066   1.3356806  12.3172849  )
         9           Zr  tau(   9) = (   3.7818399   2.6725110  14.6671284  )
        10           Zr  tau(  10) = (   7.5667315   5.3471784  14.6671271  )
        11           Ru  tau(  11) = (   6.6183359   2.6718020  14.4675882  )
        12           Ru  tau(  12) = (   4.7282297   5.3464693  14.4675913  )

     number of k points=    74  Fermi-Dirac smearing, width (Ry)=  0.0100
                       cart. coord. in units 2pi/alat
        k(    1) = (   0.0000000   0.0000000   0.0000000), wk =   0.0138889
        k(    2) = (   0.0000000   0.0155783   0.0000000), wk =   0.0277778
        k(    3) = (   0.0000000   0.0311565   0.0000000), wk =   0.0277778
        k(    4) = (   0.0000000   0.0467348   0.0000000), wk =   0.0277778
        k(    5) = (   0.0000000   0.0623130   0.0000000), wk =   0.0277778
        k(    6) = (   0.0000000   0.0778913   0.0000000), wk =   0.0277778
        k(    7) = (   0.0000000  -0.0934695   0.0000000), wk =   0.0138889
        k(    8) = (   0.0146843  -0.0052013   0.0000000), wk =   0.0277778
        k(    9) = (   0.0146843   0.0103769   0.0000000), wk =   0.0277778
        k(   10) = (   0.0146843   0.0259552   0.0000000), wk =   0.0277778
        k(   11) = (   0.0146843   0.0415334   0.0000000), wk =   0.0277778
        k(   12) = (   0.0146843   0.0571117   0.0000000), wk =   0.0277778
        k(   13) = (   0.0146843   0.0726900   0.0000000), wk =   0.0277778
        k(   14) = (   0.0146843  -0.0986708   0.0000000), wk =   0.0277778
        k(   15) = (   0.0146843  -0.0830926   0.0000000), wk =   0.0277778
        k(   16) = (   0.0146843  -0.0675143   0.0000000), wk =   0.0277778
        k(   17) = (   0.0146843  -0.0519361   0.0000000), wk =   0.0277778
        k(   18) = (   0.0146843  -0.0363578   0.0000000), wk =   0.0277778
        k(   19) = (   0.0146843  -0.0207796   0.0000000), wk =   0.0277778
        k(   20) = (   0.0293686  -0.0104026   0.0000000), wk =   0.0277778
        k(   21) = (   0.0293686   0.0051756   0.0000000), wk =   0.0277778
        k(   22) = (   0.0293686   0.0207539   0.0000000), wk =   0.0277778
        k(   23) = (   0.0293686   0.0363321   0.0000000), wk =   0.0277778
        k(   24) = (   0.0293686   0.0519104   0.0000000), wk =   0.0277778
        k(   25) = (   0.0293686   0.0674886   0.0000000), wk =   0.0277778
        k(   26) = (   0.0293686  -0.1038722   0.0000000), wk =   0.0277778
        k(   27) = (   0.0293686  -0.0882939   0.0000000), wk =   0.0277778
        k(   28) = (   0.0293686  -0.0727157   0.0000000), wk =   0.0277778
        k(   29) = (   0.0293686  -0.0571374   0.0000000), wk =   0.0277778
        k(   30) = (   0.0293686  -0.0415591   0.0000000), wk =   0.0277778
        k(   31) = (   0.0293686  -0.0259809   0.0000000), wk =   0.0277778
        k(   32) = (   0.0440529  -0.0156040   0.0000000), wk =   0.0277778
        k(   33) = (   0.0440529  -0.0000257   0.0000000), wk =   0.0277778
        k(   34) = (   0.0440529   0.0155526   0.0000000), wk =   0.0277778
        k(   35) = (   0.0440529   0.0311308   0.0000000), wk =   0.0277778
        k(   36) = (   0.0440529   0.0467091   0.0000000), wk =   0.0277778
        k(   37) = (   0.0440529   0.0622873   0.0000000), wk =   0.0277778
        k(   38) = (   0.0440529  -0.1090735   0.0000000), wk =   0.0277778
        k(   39) = (   0.0440529  -0.0934952   0.0000000), wk =   0.0277778
        k(   40) = (   0.0440529  -0.0779170   0.0000000), wk =   0.0277778
        k(   41) = (   0.0440529  -0.0623387   0.0000000), wk =   0.0277778
        k(   42) = (   0.0440529  -0.0467605   0.0000000), wk =   0.0277778
        k(   43) = (   0.0440529  -0.0311822   0.0000000), wk =   0.0277778
        k(   44) = (   0.0587372  -0.0208053   0.0000000), wk =   0.0277778
        k(   45) = (   0.0587372  -0.0052270   0.0000000), wk =   0.0277778
        k(   46) = (   0.0587372   0.0103512   0.0000000), wk =   0.0277778
        k(   47) = (   0.0587372   0.0259295   0.0000000), wk =   0.0277778
        k(   48) = (   0.0587372   0.0415077   0.0000000), wk =   0.0277778
        k(   49) = (   0.0587372   0.0570860   0.0000000), wk =   0.0277778
        k(   50) = (   0.0587372  -0.1142748   0.0000000), wk =   0.0277778
        k(   51) = (   0.0587372  -0.0986965   0.0000000), wk =   0.0277778
        k(   52) = (   0.0587372  -0.0831183   0.0000000), wk =   0.0277778
        k(   53) = (   0.0587372  -0.0675400   0.0000000), wk =   0.0277778
        k(   54) = (   0.0587372  -0.0519618   0.0000000), wk =   0.0277778
        k(   55) = (   0.0587372  -0.0363835   0.0000000), wk =   0.0277778
        k(   56) = (   0.0734214  -0.0260066   0.0000000), wk =   0.0277778
        k(   57) = (   0.0734214  -0.0104283   0.0000000), wk =   0.0277778
        k(   58) = (   0.0734214   0.0051499   0.0000000), wk =   0.0277778
        k(   59) = (   0.0734214   0.0207282   0.0000000), wk =   0.0277778
        k(   60) = (   0.0734214   0.0363064   0.0000000), wk =   0.0277778
        k(   61) = (   0.0734214   0.0518847   0.0000000), wk =   0.0277778
        k(   62) = (   0.0734214  -0.1194761   0.0000000), wk =   0.0277778
        k(   63) = (   0.0734214  -0.1038979   0.0000000), wk =   0.0277778
        k(   64) = (   0.0734214  -0.0883196   0.0000000), wk =   0.0277778
        k(   65) = (   0.0734214  -0.0727413   0.0000000), wk =   0.0277778
        k(   66) = (   0.0734214  -0.0571631   0.0000000), wk =   0.0277778
        k(   67) = (   0.0734214  -0.0415848   0.0000000), wk =   0.0277778
        k(   68) = (  -0.0881057   0.0312079   0.0000000), wk =   0.0138889
        k(   69) = (  -0.0881057   0.0467862   0.0000000), wk =   0.0277778
        k(   70) = (  -0.0881057   0.0623644   0.0000000), wk =   0.0277778
        k(   71) = (  -0.0881057   0.0779427   0.0000000), wk =   0.0277778
        k(   72) = (  -0.0881057   0.0935209   0.0000000), wk =   0.0277778
        k(   73) = (  -0.0881057   0.1090992   0.0000000), wk =   0.0277778
        k(   74) = (  -0.0881057  -0.0622616   0.0000000), wk =   0.0138889

     Initial potential from superposition of free atoms

     starting charge  167.98327, renormalised to  168.00000

     negative rho (up, down):  1.424E-03 0.000E+00

     %%%%%%%%%%%%%%%%%%%%%%%%%%%%%%%%%%%%%%%%%%%%%%%%%%%%%%%%%%%%%%%%%%%%%%%%
     %                                                                      %
     % You are using vdW-DF, which was implemented by the Thonhauser group. %
     % Please cite the following two papers that made this development      %
     % possible and the two reviews that describe the various versions:     %
     %                                                                      %
     %   T. Thonhauser et al., PRL 115, 136402 (2015).                      %
     %   T. Thonhauser et al., PRB 76, 125112 (2007).                       %
     %   K. Berland et al., Rep. Prog. Phys. 78, 066501 (2015).             %
     %   D.C. Langreth et al., J. Phys.: Condens. Matter 21, 084203 (2009). %
     %                                                                      %
     %                                                                      %
     % If you are calculating the stress with vdW-DF, please also cite:     %
     %                                                                      %
     %   R. Sabatini et al., J. Phys.: Condens. Matter 24, 424209 (2012).   %
     %                                                                      %
     %%%%%%%%%%%%%%%%%%%%%%%%%%%%%%%%%%%%%%%%%%%%%%%%%%%%%%%%%%%%%%%%%%%%%%%%

     Adding external electric field

     Computed dipole along edir(3) :
        Dipole                0.0007 Ry au,          0.0018 Debye
        Dipole field          0.0000 Ry au,

        Potential amp.       -0.0002 Ry
        Total length         45.3888 bohr

     Starting wfcs are  138 randomized atomic wfcs

     Self-consistent Calculation

     iteration #  1     ecut=    55.12 Ry     beta= 0.10
     Davidson diagonalization with overlap
     ethr =  1.00E-02,  avg # of iterations =  2.0

[...]

     total energy              =   -1788.31834879 Ry
     estimated scf accuracy    <      10.11506512 Ry

[...]

     iteration # 11     ecut=    55.12 Ry     beta= 0.10
     Davidson diagonalization with overlap
     c_bands:  1 eigenvalues not converged
     c_bands:  1 eigenvalues not converged
     c_bands:  1 eigenvalues not converged
     c_bands:  1 eigenvalues not converged
     c_bands:  1 eigenvalues not converged
     c_bands:  2 eigenvalues not converged
     c_bands:  1 eigenvalues not converged
     ethr =  1.14E-06,  avg # of iterations = 10.2

[...]

     total energy              =   -1788.80459177 Ry
     estimated scf accuracy    <       0.00003424 Ry

     iteration # 16     ecut=    55.12 Ry     beta= 0.10
     Davidson diagonalization with overlap
     ethr =  1.37E-08,  avg # of iterations =  2.0

[...]

     Adding external electric field

     Computed dipole along edir(3) :
        Dipole                0.0755 Ry au,          0.1920 Debye
        Dipole field          0.0002 Ry au,

        Potential amp.       -0.0171 Ry
        Total length         45.3888 bohr

     End of self-consistent calculation

          k = 0.0000 0.0000 0.0000 ( 34949 PWs)   bands (ev):

   -70.5628 -70.5585 -70.0964 -70.0921 -70.0695 -70.0654 -47.4718 -47.4420
   -47.4373 -47.4072 -46.8854 -46.8498 -40.6125 -40.5396 -40.5322 -40.5299
   -40.5269 -40.5195 -40.1554 -40.1390 -40.1312 -40.1306 -40.1226 -40.0956
   -40.0828 -40.0236 -40.0218 -40.0185 -39.9920 -39.9872 -25.5496 -25.5395
   -25.5272 -25.5166 -25.5091 -25.4721 -25.3736 -25.3494 -25.3353 -25.3065
   -25.1541 -25.1456 -25.0646 -24.8772 -24.8535 -24.8440 -24.8005 -24.6652
    -3.6391  -2.2375  -2.1592  -2.0018  -1.9953  -1.8500  -1.8294  -1.7797
    -1.7686  -1.7324  -1.2278  -0.9687  -0.9499  -0.6171  -0.5429  -0.4808
    -0.4040  -0.3179  -0.1997  -0.1829  -0.1408   0.0443   0.1560   0.6240
     0.7319   0.8442   0.9435   1.1041   1.4338   1.6233   1.6746   1.6950
     1.8032   2.0716   2.7900   2.8331   2.9313   3.0779   3.1070   3.2231
     3.3538   3.3872   3.5387   3.7764   3.9500   3.9723   3.9778   4.1153
     4.1237   4.2409   4.4473   4.4988   4.5244

[...]

          k = 0.0734-0.0416 0.0000 ( 34888 PWs)   bands (ev):

[...]

          k =-0.0881 0.0312 0.0000 ( 34904 PWs)   bands (ev):

[...]

          k =-0.0881-0.0623 0.0000 ( 34902 PWs)   bands (ev):

   -70.5627 -70.5586 -70.0964 -70.0921 -70.0695 -70.0654 -47.4747 -47.4450
   -47.4394 -47.4094 -46.8906 -46.8505 -40.6059 -40.5391 -40.5328 -40.5280
   -40.5164 -40.5145 -40.1494 -40.1291 -40.1287 -40.1203 -40.1201 -40.0893
   -40.0825 -40.0231 -40.0222 -40.0198 -39.9915 -39.9875 -25.5726 -25.5628
   -25.5492 -25.5162 -25.5051 -25.4653 -25.4241 -25.3730 -25.3653 -25.3248
   -25.1609 -25.1524 -25.0852 -24.9067 -24.8635 -24.8304 -24.8152 -24.6738
    -1.9501  -1.7377  -1.2280  -1.2033  -1.0693  -0.9531  -0.8928  -0.8207
    -0.7167  -0.5896  -0.5147  -0.4317  -0.3622  -0.2604  -0.2211  -0.0943
    -0.0906   0.1340   0.1876   0.3314   0.4238   0.5249   0.5392   0.5873
     0.6358   0.7549   0.8989   0.9849   1.0121   1.1205   1.1453   1.1684
     1.3732   1.5105   1.5165   1.5204   1.5308   1.6416   1.6796   1.8967
     1.9657   2.4396   2.6429   2.9094   3.0493   3.0973   3.0992   3.2412
     3.3279   3.7144   3.7846   3.7848   3.8843

     the Fermi energy is     1.9714 ev

!    total energy              =   -1788.80458496 Ry
     estimated scf accuracy    <       0.00000693 Ry
     smearing contrib. (-TS)   =      -0.04758371 Ry
     internal energy E=F+TS    =   -1788.75700125 Ry

     The total energy is F=E-TS. E is the sum of the following terms:
     one-electron contribution =  -14007.36415484 Ry
     hartree contribution      =    7001.36560655 Ry
     xc contribution           =    -292.01426183 Ry
     ewald contribution        =    5509.25579466 Ry
     electric field correction =       0.00001421 Ry

     convergence has been achieved in  16 iterations

     negative rho (up, down):  1.210E-03 0.000E+00

     Forces acting on atoms (cartesian axes, Ry/au):

     atom    1 type  1   force =    -0.00030751   -0.00021290   -0.01445011
     atom    2 type  1   force =    -0.00030322   -0.00021820   -0.01445400
     atom    3 type  2   force =    -0.00001759   -0.00001519    0.03264797
     atom    4 type  2   force =    -0.00002550   -0.00001548    0.03264770
     atom    5 type  1   force =     0.00015806    0.00011158   -0.01522865
     atom    6 type  1   force =     0.00015350    0.00010914   -0.01523094
     atom    7 type  2   force =     0.00001808    0.00002568   -0.00614786
     atom    8 type  2   force =     0.00003151    0.00000847   -0.00615320
     atom    9 type  1   force =     0.00006078    0.00004618   -0.00001724
     atom   10 type  1   force =     0.00006072    0.00003983   -0.00001968
     atom   11 type  2   force =     0.00008472    0.00006738    0.00320285
     atom   12 type  2   force =     0.00008645    0.00005350    0.00320315

     Total force =     0.055767     Total SCF correction =     0.018729
     SCF correction compared to forces is large: reduce conv_thr to get better values

     Writing output data file ./Zr2Ru2/Zr2Ru2_beef.save/

     General routines

     Parallel routines

   This run was terminated on:   8:43:18  11Jul2022

   JOB DONE.