     Program PWSCF v.6.6 starts on 27Jun2022 at 23:43:49

     R & G space division:  proc/nbgrp/npool/nimage =      37
     Fft bands division:     nmany     =       1
     Reading input from Zr2Ta2.in
Warning: card &CELL ignored
Warning: card / ignored

     Current dimensions of program PWSCF are:
     Max number of different atomic species (ntypx) = 10
     Max number of k-points (npk) =  40000
     Max angular momentum in pseudopotentials (lmaxx) =  3
     Presently stress not available with electric field and gates

     Message from routine cell_base_init:
     DEPRECATED: use true lattice parameter, not A to a.u. conversion factor
     file Zr.pbe-spn-rrkjus_psl.1.0.0.UPF: wavefunction(s)  4S renormalized
     file Ta.pbe-spfn-rrkjus_psl.1.0.0.UPF: wavefunction(s)  5S 5P renormalized

     IMPORTANT: XC functional enforced from input :
     Exchange-correlation= BEEF-VDW
                           (   1   4  43  14   2   0   0)
     Any further DFT definition will be discarded
     Please, verify this is what you really want

     Subspace diagonalization in iterative solution of the eigenvalue problem:
     a serial algorithm will be used

     Found symmetry operation: I + ( -0.5000  0.0000  0.0000)
     This is a supercell, fractional translations are disabled

     bravais-lattice index     =            0
     lattice parameter (alat)  =       1.8897  a.u.
     unit-cell volume          =    5579.7424 (a.u.)^3
     number of atoms/cell      =           12
     number of atomic types    =            2
     number of electrons       =       234.00
     number of Kohn-Sham states=          140
     kinetic-energy cutoff     =      55.1240  Ry
     charge density cutoff     =     551.2396  Ry
     convergence threshold     =      1.0E-05
     mixing beta               =       0.1000
     number of iterations used =           10  plain     mixing
     Exchange-correlation= BEEF-VDW
                           (   1   4  43  14   2   0   0)

     celldm(1)=   1.889726  celldm(2)=   0.000000  celldm(3)=   0.000000
     celldm(4)=   0.000000  celldm(5)=   0.000000  celldm(6)=   0.000000

     crystal axes: (cart. coord. in units of alat)
               a(1) = (   5.783403   0.000000   0.000000 )
               a(2) = (  -2.891702   5.720901   0.000000 )
               a(3) = (   0.000000   0.000000  24.990201 )

     reciprocal axes: (cart. coord. in units 2 pi/alat)
               b(1) = (  0.172909  0.087399 -0.000000 )
               b(2) = (  0.000000  0.174798  0.000000 )
               b(3) = (  0.000000 -0.000000  0.040016 )

     PseudoPot. # 1 for Zr read from file:
     ../pseudo/Zr.pbe-spn-rrkjus_psl.1.0.0.UPF
     MD5 check sum: 3d17ee99aa1707c2ccb6b09ed65e51a1
     Pseudo is Ultrasoft + core correction, Zval = 12.0
     Generated using "atomic" code by A. Dal Corso v.6.2.2
     Using radial grid of 1225 points,  6 beta functions with:
                l(1) =   0
                l(2) =   0
                l(3) =   1
                l(4) =   1
                l(5) =   2
                l(6) =   2
     Q(r) pseudized with 0 coefficients

     PseudoPot. # 2 for Ta read from file:
     ../pseudo/Ta.pbe-spfn-rrkjus_psl.1.0.0.UPF
     MD5 check sum: 39d7d349fe394e56adf8454eb9315fbb
     Pseudo is Ultrasoft + core correction, Zval = 27.0
     Generated using "atomic" code by A. Dal Corso v.6.3
     Using radial grid of 1273 points,  8 beta functions with:
                l(1) =   0
                l(2) =   0
                l(3) =   1
                l(4) =   1
                l(5) =   2
                l(6) =   2
                l(7) =   3
                l(8) =   3
     Q(r) pseudized with 0 coefficients

     atomic species   valence    mass     pseudopotential
        Zr            12.00    91.22400     Zr( 1.00)
        Ta            27.00   180.94788     Ta( 1.00)

     No symmetry found

   Cartesian axes

     site n.     atom                  positions (alat units)
         1           Zr  tau(   1) = (   0.0000000   0.0000000  10.0000000  )
         2           Zr  tau(   2) = (   2.8917017   0.0000000  10.0000000  )
         3           Ta  tau(   3) = (   1.4458508   2.8604506  10.0000000  )
         4           Ta  tau(   4) = (  -1.4458508   2.8604506  10.0000000  )
         5           Zr  tau(   5) = (   2.8917017   1.4616471  12.4951005  )
         6           Zr  tau(   6) = (  -0.0000000   1.4616471  12.4951005  )
         7           Ta  tau(   7) = (  -1.4458508   4.3220977  12.4951005  )
         8           Ta  tau(   8) = (   1.4458508   4.3220977  12.4951005  )
         9           Zr  tau(   9) = (   0.0000114   3.0686729  15.0192998  )
        10           Zr  tau(  10) = (   2.8916983   3.0686825  15.0192871  )
        11           Ta  tau(  11) = (   4.3375232   0.1032862  14.7904407  )
        12           Ta  tau(  12) = (   1.4458388   0.1032905  14.7904619  )

     number of k points=    74  Fermi-Dirac smearing, width (Ry)=  0.0100
                       cart. coord. in units 2pi/alat
        k(    1) = (   0.0000000   0.0000000   0.0000000), wk =   0.0138889
        k(    2) = (   0.0000000   0.0145665   0.0000000), wk =   0.0277778
        k(    3) = (   0.0000000   0.0291329   0.0000000), wk =   0.0277778
        k(    4) = (   0.0000000   0.0436994   0.0000000), wk =   0.0277778
        k(    5) = (   0.0000000   0.0582659   0.0000000), wk =   0.0277778
        k(    6) = (   0.0000000   0.0728324   0.0000000), wk =   0.0277778
        k(    7) = (   0.0000000  -0.0873988   0.0000000), wk =   0.0138889
        k(    8) = (   0.0144090   0.0072832   0.0000000), wk =   0.0277778
        k(    9) = (   0.0144090   0.0218497   0.0000000), wk =   0.0277778
        k(   10) = (   0.0144090   0.0364162   0.0000000), wk =   0.0277778
        k(   11) = (   0.0144090   0.0509826   0.0000000), wk =   0.0277778
        k(   12) = (   0.0144090   0.0655491   0.0000000), wk =   0.0277778
        k(   13) = (   0.0144090   0.0801156   0.0000000), wk =   0.0277778
        k(   14) = (   0.0144090  -0.0801156   0.0000000), wk =   0.0277778
        k(   15) = (   0.0144090  -0.0655491   0.0000000), wk =   0.0277778
        k(   16) = (   0.0144090  -0.0509826   0.0000000), wk =   0.0277778
        k(   17) = (   0.0144090  -0.0364162   0.0000000), wk =   0.0277778
        k(   18) = (   0.0144090  -0.0218497   0.0000000), wk =   0.0277778
        k(   19) = (   0.0144090  -0.0072832   0.0000000), wk =   0.0277778
        k(   20) = (   0.0288181   0.0145665   0.0000000), wk =   0.0277778
        k(   21) = (   0.0288181   0.0291329   0.0000000), wk =   0.0277778
        k(   22) = (   0.0288181   0.0436994   0.0000000), wk =   0.0277778
        k(   23) = (   0.0288181   0.0582659   0.0000000), wk =   0.0277778
        k(   24) = (   0.0288181   0.0728324   0.0000000), wk =   0.0277778
        k(   25) = (   0.0288181   0.0873988   0.0000000), wk =   0.0277778
        k(   26) = (   0.0288181  -0.0728323   0.0000000), wk =   0.0277778
        k(   27) = (   0.0288181  -0.0582659   0.0000000), wk =   0.0277778
        k(   28) = (   0.0288181  -0.0436994   0.0000000), wk =   0.0277778
        k(   29) = (   0.0288181  -0.0291329   0.0000000), wk =   0.0277778
        k(   30) = (   0.0288181  -0.0145665   0.0000000), wk =   0.0277778
        k(   31) = (   0.0288181   0.0000000   0.0000000), wk =   0.0277778
        k(   32) = (   0.0432271   0.0218497   0.0000000), wk =   0.0277778
        k(   33) = (   0.0432271   0.0364162   0.0000000), wk =   0.0277778
        k(   34) = (   0.0432271   0.0509826   0.0000000), wk =   0.0277778
        k(   35) = (   0.0432271   0.0655491   0.0000000), wk =   0.0277778
        k(   36) = (   0.0432271   0.0801156   0.0000000), wk =   0.0277778
        k(   37) = (   0.0432271   0.0946821   0.0000000), wk =   0.0277778
        k(   38) = (   0.0432271  -0.0655491   0.0000000), wk =   0.0277778
        k(   39) = (   0.0432271  -0.0509826   0.0000000), wk =   0.0277778
        k(   40) = (   0.0432271  -0.0364162   0.0000000), wk =   0.0277778
        k(   41) = (   0.0432271  -0.0218497   0.0000000), wk =   0.0277778
        k(   42) = (   0.0432271  -0.0072832   0.0000000), wk =   0.0277778
        k(   43) = (   0.0432271   0.0072832   0.0000000), wk =   0.0277778
        k(   44) = (   0.0576362   0.0291329   0.0000000), wk =   0.0277778
        k(   45) = (   0.0576362   0.0436994   0.0000000), wk =   0.0277778
        k(   46) = (   0.0576362   0.0582659   0.0000000), wk =   0.0277778
        k(   47) = (   0.0576362   0.0728324   0.0000000), wk =   0.0277778
        k(   48) = (   0.0576362   0.0873988   0.0000000), wk =   0.0277778
        k(   49) = (   0.0576362   0.1019653   0.0000000), wk =   0.0277778
        k(   50) = (   0.0576362  -0.0582659   0.0000000), wk =   0.0277778
        k(   51) = (   0.0576362  -0.0436994   0.0000000), wk =   0.0277778
        k(   52) = (   0.0576362  -0.0291329   0.0000000), wk =   0.0277778
        k(   53) = (   0.0576362  -0.0145665   0.0000000), wk =   0.0277778
        k(   54) = (   0.0576362   0.0000000   0.0000000), wk =   0.0277778
        k(   55) = (   0.0576362   0.0145665   0.0000000), wk =   0.0277778
        k(   56) = (   0.0720452   0.0364162   0.0000000), wk =   0.0277778
        k(   57) = (   0.0720452   0.0509827   0.0000000), wk =   0.0277778
        k(   58) = (   0.0720452   0.0655491   0.0000000), wk =   0.0277778
        k(   59) = (   0.0720452   0.0801156   0.0000000), wk =   0.0277778
        k(   60) = (   0.0720452   0.0946821   0.0000000), wk =   0.0277778
        k(   61) = (   0.0720452   0.1092485   0.0000000), wk =   0.0277778
        k(   62) = (   0.0720452  -0.0509826   0.0000000), wk =   0.0277778
        k(   63) = (   0.0720452  -0.0364162   0.0000000), wk =   0.0277778
        k(   64) = (   0.0720452  -0.0218497   0.0000000), wk =   0.0277778
        k(   65) = (   0.0720452  -0.0072832   0.0000000), wk =   0.0277778
        k(   66) = (   0.0720452   0.0072832   0.0000000), wk =   0.0277778
        k(   67) = (   0.0720452   0.0218497   0.0000000), wk =   0.0277778
        k(   68) = (  -0.0864543  -0.0436994   0.0000000), wk =   0.0138889
        k(   69) = (  -0.0864543  -0.0291329   0.0000000), wk =   0.0277778
        k(   70) = (  -0.0864543  -0.0145665   0.0000000), wk =   0.0277778
        k(   71) = (  -0.0864543  -0.0000000   0.0000000), wk =   0.0277778
        k(   72) = (  -0.0864543   0.0145665   0.0000000), wk =   0.0277778
        k(   73) = (  -0.0864543   0.0291329   0.0000000), wk =   0.0277778
        k(   74) = (  -0.0864543  -0.1310982   0.0000000), wk =   0.0138889

     Initial potential from superposition of free atoms

     starting charge  233.98203, renormalised to  234.00000

     negative rho (up, down):  3.041E-04 0.000E+00

     %%%%%%%%%%%%%%%%%%%%%%%%%%%%%%%%%%%%%%%%%%%%%%%%%%%%%%%%%%%%%%%%%%%%%%%%
     %                                                                      %
     % You are using vdW-DF, which was implemented by the Thonhauser group. %
     % Please cite the following two papers that made this development      %
     % possible and the two reviews that describe the various versions:     %
     %                                                                      %
     %   T. Thonhauser et al., PRL 115, 136402 (2015).                      %
     %   T. Thonhauser et al., PRB 76, 125112 (2007).                       %
     %   K. Berland et al., Rep. Prog. Phys. 78, 066501 (2015).             %
     %   D.C. Langreth et al., J. Phys.: Condens. Matter 21, 084203 (2009). %
     %                                                                      %
     %                                                                      %
     % If you are calculating the stress with vdW-DF, please also cite:     %
     %                                                                      %
     %   R. Sabatini et al., J. Phys.: Condens. Matter 24, 424209 (2012).   %
     %                                                                      %
     %%%%%%%%%%%%%%%%%%%%%%%%%%%%%%%%%%%%%%%%%%%%%%%%%%%%%%%%%%%%%%%%%%%%%%%%

     Adding external electric field

     Computed dipole along edir(3) :
        Dipole                0.0011 Ry au,          0.0027 Debye
        Dipole field          0.0000 Ry au,

        Potential amp.       -0.0002 Ry
        Total length         46.0440 bohr

     Starting wfcs are  180 randomized atomic wfcs

     Self-consistent Calculation

     iteration #  1     ecut=    55.12 Ry     beta= 0.10
     Davidson diagonalization with overlap
     ethr =  1.00E-02,  avg # of iterations =  2.1

[...]

     total energy              =   -4690.95806809 Ry
     estimated scf accuracy    <       8.35703147 Ry

[...]

     iteration #  7     ecut=    55.12 Ry     beta= 0.10
     Davidson diagonalization with overlap
     c_bands:  1 eigenvalues not converged
     c_bands:  1 eigenvalues not converged
     ethr =  3.97E-05,  avg # of iterations =  8.1

[...]

     iteration # 12     ecut=    55.12 Ry     beta= 0.10
     Davidson diagonalization with overlap
     c_bands:  1 eigenvalues not converged
     ethr =  3.75E-07,  avg # of iterations =  2.8

[...]

     total energy              =   -4691.73930389 Ry
     estimated scf accuracy    <       0.00001420 Ry

     iteration # 16     ecut=    55.12 Ry     beta= 0.10
     Davidson diagonalization with overlap
     ethr =  6.07E-09,  avg # of iterations =  2.0

[...]

     Adding external electric field

     Computed dipole along edir(3) :
        Dipole                0.0660 Ry au,          0.1678 Debye
        Dipole field          0.0001 Ry au,

        Potential amp.       -0.0137 Ry
        Total length         46.0440 bohr

     End of self-consistent calculation

          k = 0.0000 0.0000 0.0000 ( 38567 PWs)   bands (ev):

   -66.2286 -66.1876 -66.1016 -66.0600 -65.9492 -65.9077 -46.9404 -46.8813
   -46.7966 -46.7369 -46.5332 -46.3872 -32.7535 -32.7206 -32.6907 -32.6351
   -32.5676 -32.5410 -32.4874 -32.4673 -32.4083 -32.3965 -32.3161 -32.2207
   -32.1396 -32.0785 -32.0169 -32.0039 -31.9515 -31.8925 -25.4402 -25.4072
   -25.1893 -25.1194 -25.0328 -24.9905 -24.8626 -24.8466 -24.7944 -24.7253
   -24.6548 -24.4674 -24.3603 -24.3258 -24.2772 -24.2406 -24.2341 -23.9491
   -17.9306 -17.9290 -17.9253 -17.9248 -17.9240 -17.9132 -17.9120 -17.9111
   -17.9047 -17.8889 -17.8845 -17.8816 -17.8548 -17.8488 -17.7905 -17.7889
   -17.7763 -17.7760 -17.7747 -17.7741 -17.7723 -17.7694 -17.7647 -17.7566
   -17.7539 -17.7535 -17.7266 -17.7217 -17.6290 -17.6276 -17.6158 -17.6125
   -17.6101 -17.6075 -17.6039 -17.6019 -17.5870 -17.5864 -17.5852 -17.5838
   -17.5819 -17.5804  -4.0638  -2.6826  -1.8306  -1.3396  -1.0969  -1.0415
    -1.0181  -0.8321  -0.6817  -0.4178  -0.3578  -0.1748  -0.1663  -0.0668
    -0.0055   0.7204   0.8538   1.0422   1.4133   1.6284   1.7512   1.8326
     1.8781   2.0434   2.1812   2.2584   2.5084   2.7576   2.7970   2.8170
     2.8768   2.9911   3.1961   3.3392   3.5429   3.9052   3.9406   3.9858
     4.0436   4.1440   4.1642   4.3061   4.3459   4.4366   4.5324   4.5510
     4.9728   5.0742   5.1156   5.3737

[...]

          k = 0.0720 0.0218 0.0000 ( 38621 PWs)   bands (ev):

[...]

          k =-0.0865-0.0437 0.0000 ( 38584 PWs)   bands (ev):

[...]

          k =-0.0865-0.1311 0.0000 ( 38584 PWs)   bands (ev):

   -66.2082 -66.2082 -66.0808 -66.0808 -65.9285 -65.9284 -46.8693 -46.8692
   -46.8099 -46.8099 -46.4609 -46.4609 -32.6767 -32.6766 -32.5050 -32.5050
   -32.4457 -32.4457 -32.4231 -32.4231 -32.3558 -32.3557 -32.3536 -32.3536
   -32.2378 -32.2378 -32.1794 -32.1793 -31.9842 -31.9842 -25.1162 -25.1162
   -24.9178 -24.9178 -24.8833 -24.8832 -24.8480 -24.8480 -24.8012 -24.8012
   -24.7305 -24.7305 -24.5582 -24.5582 -24.3996 -24.3996 -24.2986 -24.2985
   -17.9267 -17.9267 -17.9247 -17.9246 -17.9204 -17.9203 -17.9084 -17.9084
   -17.9012 -17.9012 -17.8693 -17.8693 -17.8685 -17.8685 -17.7812 -17.7812
   -17.7803 -17.7803 -17.7753 -17.7753 -17.7686 -17.7686 -17.7640 -17.7640
   -17.7421 -17.7421 -17.7406 -17.7406 -17.6164 -17.6163 -17.6149 -17.6148
   -17.6084 -17.6083 -17.6004 -17.6003 -17.5989 -17.5988 -17.5860 -17.5859
   -17.5843 -17.5843  -2.3291  -2.3290  -1.1456  -1.1456  -0.4834  -0.4834
    -0.0510  -0.0510   0.0292   0.0292   0.5548   0.5548   0.8775   0.8775
     1.0055   1.0055   1.1175   1.1175   1.3422   1.3422   1.5612   1.5613
     1.6969   1.6969   1.9507   1.9507   2.0272   2.0272   2.3058   2.3058
     2.5174   2.5174   2.6704   2.6704   2.7453   2.7453   2.9426   2.9426
     3.6770   3.6771   4.0044   4.0044   4.1465   4.1465   4.3735   4.3735
     4.5717   4.5717   4.7362   4.7362

     the Fermi energy is     2.1435 ev

!    total energy              =   -4691.73930953 Ry
     estimated scf accuracy    <       0.00000237 Ry
     smearing contrib. (-TS)   =      -0.08827004 Ry
     internal energy E=F+TS    =   -4691.65103949 Ry

     The total energy is F=E-TS. E is the sum of the following terms:
     one-electron contribution =  -27168.62190131 Ry
     hartree contribution      =   13680.90320515 Ry
     xc contribution           =    -525.36042324 Ry
     ewald contribution        =    9321.42807008 Ry
     electric field correction =       0.00000982 Ry

     convergence has been achieved in  16 iterations

     negative rho (up, down):  4.257E-04 0.000E+00

     Forces acting on atoms (cartesian axes, Ry/au):

     atom    1 type  1   force =     0.00000287   -0.01633533   -0.01039017
     atom    2 type  1   force =    -0.00000244   -0.01633610   -0.01038857
     atom    3 type  2   force =    -0.00000308    0.00765215    0.03559511
     atom    4 type  2   force =     0.00000454    0.00764944    0.03557080
     atom    5 type  1   force =    -0.00000140    0.01229206   -0.00306758
     atom    6 type  1   force =    -0.00000185    0.01229375   -0.00306806
     atom    7 type  2   force =    -0.00002693   -0.00530116   -0.02008605
     atom    8 type  2   force =     0.00002478   -0.00530913   -0.02009318
     atom    9 type  1   force =    -0.00000384    0.00213581    0.00070381
     atom   10 type  1   force =     0.00000185    0.00213073    0.00070442
     atom   11 type  2   force =    -0.00000417   -0.00043386   -0.00274753
     atom   12 type  2   force =     0.00000967   -0.00043838   -0.00273300

     Total force =     0.067889     Total SCF correction =     0.007262
     SCF correction compared to forces is large: reduce conv_thr to get better values

     Writing output data file ./Zr2Ta2/Zr2Ta2_beef.save/

     General routines

     Parallel routines

   This run was terminated on:   2:15:28  28Jun2022

   JOB DONE.