     Program PWSCF v.6.6 starts on 27Jun2022 at  0:52:55

     R & G space division:  proc/nbgrp/npool/nimage =      37
     Fft bands division:     nmany     =       1
     Reading input from Zr2W2.in
Warning: card &CELL ignored
Warning: card / ignored

     Current dimensions of program PWSCF are:
     Max number of different atomic species (ntypx) = 10
     Max number of k-points (npk) =  40000
     Max angular momentum in pseudopotentials (lmaxx) =  3
     Presently stress not available with electric field and gates

     Message from routine cell_base_init:
     DEPRECATED: use true lattice parameter, not A to a.u. conversion factor
     Message from routine emend_upf/check:
     BEWARE !!! Possible out of bounds while fixing pseudo
     Message from routine emend_upf/check:
     BEWARE !!! Possible out of bounds while fixing pseudo
     Message from routine read_upf:
     Pseudo file W.pbe-spn-rrkjus_psl.0.2.3.UPF has been fixed on the fly.
     To avoid this message in the future, permanently fix
     your pseudo files following these instructions:
     file Zr.pbe-spn-rrkjus_psl.1.0.0.UPF: wavefunction(s)  4S renormalized

     IMPORTANT: XC functional enforced from input :
     Exchange-correlation= BEEF-VDW
                           (   1   4  43  14   2   0   0)
     Any further DFT definition will be discarded
     Please, verify this is what you really want

     Subspace diagonalization in iterative solution of the eigenvalue problem:
     a serial algorithm will be used

     Found symmetry operation: I + ( -0.5000  0.0000  0.0000)
     This is a supercell, fractional translations are disabled

     bravais-lattice index     =            0
     lattice parameter (alat)  =       1.8897  a.u.
     unit-cell volume          =    5290.2031 (a.u.)^3
     number of atoms/cell      =           12
     number of atomic types    =            2
     number of electrons       =       156.00
     number of Kohn-Sham states=           94
     kinetic-energy cutoff     =      55.1240  Ry
     charge density cutoff     =     551.2396  Ry
     convergence threshold     =      1.0E-05
     mixing beta               =       0.1000
     number of iterations used =           10  plain     mixing
     Exchange-correlation= BEEF-VDW
                           (   1   4  43  14   2   0   0)

     celldm(1)=   1.889726  celldm(2)=   0.000000  celldm(3)=   0.000000
     celldm(4)=   0.000000  celldm(5)=   0.000000  celldm(6)=   0.000000

     crystal axes: (cart. coord. in units of alat)
               a(1) = (   5.566917   0.000000   0.000000 )
               a(2) = (  -2.783459   5.666957   0.000000 )
               a(3) = (   0.000000   0.000000  24.849129 )

     reciprocal axes: (cart. coord. in units 2 pi/alat)
               b(1) = (  0.179633  0.088231 -0.000000 )
               b(2) = (  0.000000  0.176462  0.000000 )
               b(3) = (  0.000000 -0.000000  0.040243 )

     PseudoPot. # 1 for Zr read from file:
     ../pseudo/Zr.pbe-spn-rrkjus_psl.1.0.0.UPF
     MD5 check sum: 3d17ee99aa1707c2ccb6b09ed65e51a1
     Pseudo is Ultrasoft + core correction, Zval = 12.0
     Generated using "atomic" code by A. Dal Corso v.6.2.2
     Using radial grid of 1225 points,  6 beta functions with:
                l(1) =   0
                l(2) =   0
                l(3) =   1
                l(4) =   1
                l(5) =   2
                l(6) =   2
     Q(r) pseudized with 0 coefficients

     PseudoPot. # 2 for W  read from file:
     ../pseudo/W.pbe-spn-rrkjus_psl.0.2.3.UPF
     MD5 check sum: 25b665cf2bbae626ad8d9f1bc024df95
     Pseudo is Ultrasoft + core correction, Zval = 14.0
     Generated using "atomic" code by A. Dal Corso v.5.0.2 svn rev. 10551
     Using radial grid of 1273 points,  6 beta functions with:
                l(1) =   0
                l(2) =   0
                l(3) =   1
                l(4) =   1
                l(5) =   2
                l(6) =   2
     Q(r) pseudized with 0 coefficients

     atomic species   valence    mass     pseudopotential
        Zr            12.00    91.22400     Zr( 1.00)
        W             14.00   183.84000     W ( 1.00)

     No symmetry found

   Cartesian axes

     site n.     atom                  positions (alat units)
         1           Zr  tau(   1) = (   0.0000000   0.0000000  10.0000000  )
         2           Zr  tau(   2) = (   2.7834586   0.0000000  10.0000000  )
         3           W   tau(   3) = (   1.3917293   2.8334783  10.0000000  )
         4           W   tau(   4) = (  -1.3917293   2.8334783  10.0000000  )
         5           Zr  tau(   5) = (   2.7834586   1.3671609  12.4245645  )
         6           Zr  tau(   6) = (  -0.0000000   1.3671609  12.4245645  )
         7           W   tau(   7) = (  -1.3917293   4.2006393  12.4245645  )
         8           W   tau(   8) = (   1.3917293   4.2006393  12.4245645  )
         9           Zr  tau(   9) = (  -0.0000021   2.9156299  14.9833667  )
        10           Zr  tau(  10) = (   2.7834516   2.9156036  14.9833641  )
        11           W   tau(  11) = (   1.3917164   5.5935275  14.6267808  )
        12           W   tau(  12) = (  -1.3916993   5.5935313  14.6267783  )

     number of k points=    74  Fermi-Dirac smearing, width (Ry)=  0.0100
                       cart. coord. in units 2pi/alat
        k(    1) = (   0.0000000   0.0000000   0.0000000), wk =   0.0138889
        k(    2) = (   0.0000000   0.0147051   0.0000000), wk =   0.0277778
        k(    3) = (   0.0000000   0.0294103   0.0000000), wk =   0.0277778
        k(    4) = (   0.0000000   0.0441154   0.0000000), wk =   0.0277778
        k(    5) = (   0.0000000   0.0588205   0.0000000), wk =   0.0277778
        k(    6) = (   0.0000000   0.0735256   0.0000000), wk =   0.0277778
        k(    7) = (   0.0000000  -0.0882308   0.0000000), wk =   0.0138889
        k(    8) = (   0.0149694   0.0073526   0.0000000), wk =   0.0277778
        k(    9) = (   0.0149694   0.0220577   0.0000000), wk =   0.0277778
        k(   10) = (   0.0149694   0.0367628   0.0000000), wk =   0.0277778
        k(   11) = (   0.0149694   0.0514680   0.0000000), wk =   0.0277778
        k(   12) = (   0.0149694   0.0661731   0.0000000), wk =   0.0277778
        k(   13) = (   0.0149694   0.0808782   0.0000000), wk =   0.0277778
        k(   14) = (   0.0149694  -0.0808782   0.0000000), wk =   0.0277778
        k(   15) = (   0.0149694  -0.0661731   0.0000000), wk =   0.0277778
        k(   16) = (   0.0149694  -0.0514679   0.0000000), wk =   0.0277778
        k(   17) = (   0.0149694  -0.0367628   0.0000000), wk =   0.0277778
        k(   18) = (   0.0149694  -0.0220577   0.0000000), wk =   0.0277778
        k(   19) = (   0.0149694  -0.0073526   0.0000000), wk =   0.0277778
        k(   20) = (   0.0299388   0.0147051   0.0000000), wk =   0.0277778
        k(   21) = (   0.0299388   0.0294103   0.0000000), wk =   0.0277778
        k(   22) = (   0.0299388   0.0441154   0.0000000), wk =   0.0277778
        k(   23) = (   0.0299388   0.0588205   0.0000000), wk =   0.0277778
        k(   24) = (   0.0299388   0.0735256   0.0000000), wk =   0.0277778
        k(   25) = (   0.0299388   0.0882308   0.0000000), wk =   0.0277778
        k(   26) = (   0.0299388  -0.0735256   0.0000000), wk =   0.0277778
        k(   27) = (   0.0299388  -0.0588205   0.0000000), wk =   0.0277778
        k(   28) = (   0.0299388  -0.0441154   0.0000000), wk =   0.0277778
        k(   29) = (   0.0299388  -0.0294103   0.0000000), wk =   0.0277778
        k(   30) = (   0.0299388  -0.0147051   0.0000000), wk =   0.0277778
        k(   31) = (   0.0299388   0.0000000   0.0000000), wk =   0.0277778
        k(   32) = (   0.0449082   0.0220577   0.0000000), wk =   0.0277778
        k(   33) = (   0.0449082   0.0367628   0.0000000), wk =   0.0277778
        k(   34) = (   0.0449082   0.0514680   0.0000000), wk =   0.0277778
        k(   35) = (   0.0449082   0.0661731   0.0000000), wk =   0.0277778
        k(   36) = (   0.0449082   0.0808782   0.0000000), wk =   0.0277778
        k(   37) = (   0.0449082   0.0955833   0.0000000), wk =   0.0277778
        k(   38) = (   0.0449082  -0.0661731   0.0000000), wk =   0.0277778
        k(   39) = (   0.0449082  -0.0514679   0.0000000), wk =   0.0277778
        k(   40) = (   0.0449082  -0.0367628   0.0000000), wk =   0.0277778
        k(   41) = (   0.0449082  -0.0220577   0.0000000), wk =   0.0277778
        k(   42) = (   0.0449082  -0.0073526   0.0000000), wk =   0.0277778
        k(   43) = (   0.0449082   0.0073526   0.0000000), wk =   0.0277778
        k(   44) = (   0.0598775   0.0294103   0.0000000), wk =   0.0277778
        k(   45) = (   0.0598775   0.0441154   0.0000000), wk =   0.0277778
        k(   46) = (   0.0598775   0.0588205   0.0000000), wk =   0.0277778
        k(   47) = (   0.0598775   0.0735256   0.0000000), wk =   0.0277778
        k(   48) = (   0.0598775   0.0882308   0.0000000), wk =   0.0277778
        k(   49) = (   0.0598775   0.1029359   0.0000000), wk =   0.0277778
        k(   50) = (   0.0598775  -0.0588205   0.0000000), wk =   0.0277778
        k(   51) = (   0.0598775  -0.0441154   0.0000000), wk =   0.0277778
        k(   52) = (   0.0598775  -0.0294103   0.0000000), wk =   0.0277778
        k(   53) = (   0.0598775  -0.0147051   0.0000000), wk =   0.0277778
        k(   54) = (   0.0598775   0.0000000   0.0000000), wk =   0.0277778
        k(   55) = (   0.0598775   0.0147051   0.0000000), wk =   0.0277778
        k(   56) = (   0.0748469   0.0367628   0.0000000), wk =   0.0277778
        k(   57) = (   0.0748469   0.0514680   0.0000000), wk =   0.0277778
        k(   58) = (   0.0748469   0.0661731   0.0000000), wk =   0.0277778
        k(   59) = (   0.0748469   0.0808782   0.0000000), wk =   0.0277778
        k(   60) = (   0.0748469   0.0955833   0.0000000), wk =   0.0277778
        k(   61) = (   0.0748469   0.1102885   0.0000000), wk =   0.0277778
        k(   62) = (   0.0748469  -0.0514679   0.0000000), wk =   0.0277778
        k(   63) = (   0.0748469  -0.0367628   0.0000000), wk =   0.0277778
        k(   64) = (   0.0748469  -0.0220577   0.0000000), wk =   0.0277778
        k(   65) = (   0.0748469  -0.0073526   0.0000000), wk =   0.0277778
        k(   66) = (   0.0748469   0.0073526   0.0000000), wk =   0.0277778
        k(   67) = (   0.0748469   0.0220577   0.0000000), wk =   0.0277778
        k(   68) = (  -0.0898163  -0.0441154   0.0000000), wk =   0.0138889
        k(   69) = (  -0.0898163  -0.0294103   0.0000000), wk =   0.0277778
        k(   70) = (  -0.0898163  -0.0147051   0.0000000), wk =   0.0277778
        k(   71) = (  -0.0898163  -0.0000000   0.0000000), wk =   0.0277778
        k(   72) = (  -0.0898163   0.0147051   0.0000000), wk =   0.0277778
        k(   73) = (  -0.0898163   0.0294102   0.0000000), wk =   0.0277778
        k(   74) = (  -0.0898163  -0.1323462   0.0000000), wk =   0.0138889

     Initial potential from superposition of free atoms

     starting charge  155.98376, renormalised to  156.00000

     negative rho (up, down):  8.370E-04 0.000E+00

     %%%%%%%%%%%%%%%%%%%%%%%%%%%%%%%%%%%%%%%%%%%%%%%%%%%%%%%%%%%%%%%%%%%%%%%%
     %                                                                      %
     % You are using vdW-DF, which was implemented by the Thonhauser group. %
     % Please cite the following two papers that made this development      %
     % possible and the two reviews that describe the various versions:     %
     %                                                                      %
     %   T. Thonhauser et al., PRL 115, 136402 (2015).                      %
     %   T. Thonhauser et al., PRB 76, 125112 (2007).                       %
     %   K. Berland et al., Rep. Prog. Phys. 78, 066501 (2015).             %
     %   D.C. Langreth et al., J. Phys.: Condens. Matter 21, 084203 (2009). %
     %                                                                      %
     %                                                                      %
     % If you are calculating the stress with vdW-DF, please also cite:     %
     %                                                                      %
     %   R. Sabatini et al., J. Phys.: Condens. Matter 24, 424209 (2012).   %
     %                                                                      %
     %%%%%%%%%%%%%%%%%%%%%%%%%%%%%%%%%%%%%%%%%%%%%%%%%%%%%%%%%%%%%%%%%%%%%%%%

     Adding external electric field

     Computed dipole along edir(3) :
        Dipole                0.0012 Ry au,          0.0031 Debye
        Dipole field          0.0000 Ry au,

        Potential amp.       -0.0003 Ry
        Total length         45.7841 bohr

     Starting wfcs are  156 randomized atomic wfcs

     Self-consistent Calculation

     iteration #  1     ecut=    55.12 Ry     beta= 0.10
     Davidson diagonalization with overlap
     ethr =  1.00E-02,  avg # of iterations =  2.0

[...]

     total energy              =   -1554.29548031 Ry
     estimated scf accuracy    <       5.98534225 Ry

[...]

     iteration #  6     ecut=    55.12 Ry     beta= 0.10
     Davidson diagonalization with overlap
     c_bands:  1 eigenvalues not converged
     ethr =  1.07E-04,  avg # of iterations =  6.7

[...]

     iteration # 13     ecut=    55.12 Ry     beta= 0.10
     Davidson diagonalization with overlap
     c_bands:  1 eigenvalues not converged
     ethr =  1.18E-06,  avg # of iterations =  1.3

[...]

     total energy              =   -1554.79006516 Ry
     estimated scf accuracy    <       0.00001191 Ry

     iteration # 16     ecut=    55.12 Ry     beta= 0.10
     Davidson diagonalization with overlap
     ethr =  7.63E-09,  avg # of iterations =  4.6

[...]

     Adding external electric field

     Computed dipole along edir(3) :
        Dipole                0.1378 Ry au,          0.3502 Debye
        Dipole field          0.0003 Ry au,

        Potential amp.       -0.0300 Ry
        Total length         45.7841 bohr

     End of self-consistent calculation

          k = 0.0000 0.0000 0.0000 ( 36523 PWs)   bands (ev):

   -72.3161 -72.2701 -72.2261 -72.1807 -72.0795 -72.0337 -47.0857 -46.9626
   -46.8709 -46.7459 -46.6317 -46.4132 -36.7068 -36.7058 -36.6160 -36.5326
   -36.4351 -36.3568 -36.3230 -36.2747 -36.2495 -36.2472 -36.1696 -36.1375
   -36.0567 -35.9839 -35.9293 -35.8623 -35.8211 -35.7172 -25.7515 -25.6725
   -25.4125 -25.4077 -25.1858 -25.1714 -24.9999 -24.9686 -24.8760 -24.8005
   -24.6727 -24.5893 -24.4062 -24.3827 -24.2275 -24.1738 -24.0817 -23.8189
    -4.6429  -3.0965  -2.4033  -2.0115  -1.9606  -1.6132  -1.4963  -1.4658
    -1.3710  -0.9131  -0.8491  -0.8421  -0.8233  -0.7649  -0.7176  -0.0003
     0.3727   0.4244   0.5266   0.7304   0.9017   1.1509   1.2359   1.5407
     1.7518   1.9790   1.9806   2.2360   2.3932   2.4456   2.6155   2.7346
     2.8294   3.0712   3.1150   3.1806   3.2080   3.5312   3.5366   3.5556
     4.0191   4.0284   4.0599   4.3057   4.3498   4.5054

[...]

          k = 0.0748 0.0221 0.0000 ( 36508 PWs)   bands (ev):

[...]

          k =-0.0898-0.0441 0.0000 ( 36532 PWs)   bands (ev):

[...]

          k =-0.0898-0.1323 0.0000 ( 36532 PWs)   bands (ev):

   -72.2932 -72.2931 -72.2035 -72.2035 -72.0567 -72.0566 -46.9799 -46.9799
   -46.8559 -46.8558 -46.5241 -46.5240 -36.6604 -36.6604 -36.3538 -36.3538
   -36.3144 -36.3144 -36.2850 -36.2850 -36.2088 -36.2087 -36.1848 -36.1847
   -36.0968 -36.0968 -36.0844 -36.0843 -35.8958 -35.8958 -25.3043 -25.3042
   -25.0705 -25.0704 -25.0017 -25.0016 -24.9166 -24.9165 -24.9072 -24.9071
   -24.7807 -24.7807 -24.6526 -24.6525 -24.4907 -24.4906 -24.3175 -24.3174
    -2.8529  -2.8529  -1.5715  -1.5715  -0.8894  -0.8894  -0.7049  -0.7049
    -0.5631  -0.5631  -0.1797  -0.1797   0.1848   0.1848   0.3420   0.3420
     0.5563   0.5563   0.8186   0.8187   1.1010   1.1010   1.2183   1.2183
     1.4183   1.4184   1.5321   1.5322   1.8373   1.8373   2.0348   2.0348
     2.2314   2.2315   2.3992   2.3992   2.6783   2.6783   3.1247   3.1247
     3.5411   3.5411   3.6448   3.6448   4.0005   4.0012

     the Fermi energy is     2.0311 ev

!    total energy              =   -1554.79004266 Ry
     estimated scf accuracy    <       0.00000652 Ry
     smearing contrib. (-TS)   =      -0.07746262 Ry
     internal energy E=F+TS    =   -1554.71258003 Ry

     The total energy is F=E-TS. E is the sum of the following terms:
     one-electron contribution =  -11258.65360457 Ry
     hartree contribution      =    5617.38107910 Ry
     xc contribution           =    -359.45569872 Ry
     ewald contribution        =    4446.01559906 Ry
     electric field correction =       0.00004509 Ry

     convergence has been achieved in  16 iterations

     negative rho (up, down):  1.053E-03 0.000E+00

     Forces acting on atoms (cartesian axes, Ry/au):

     atom    1 type  1   force =    -0.00000050   -0.03051669   -0.03829595
     atom    2 type  1   force =     0.00000062   -0.03052706   -0.03830066
     atom    3 type  2   force =    -0.00001540    0.00954668    0.05231622
     atom    4 type  2   force =     0.00001809    0.00954386    0.05232226
     atom    5 type  1   force =    -0.00000319    0.02752711    0.00839804
     atom    6 type  1   force =    -0.00000137    0.02753100    0.00840517
     atom    7 type  2   force =     0.00000656   -0.00639026   -0.02066300
     atom    8 type  2   force =    -0.00000076   -0.00639319   -0.02066773
     atom    9 type  1   force =    -0.00000323    0.00134738   -0.00075049
     atom   10 type  1   force =     0.00000075    0.00135808   -0.00074843
     atom   11 type  2   force =     0.00001607   -0.00150953   -0.00100280
     atom   12 type  2   force =    -0.00001764   -0.00151737   -0.00101262

     Total force =     0.114270     Total SCF correction =     0.010159

     Writing output data file ./Zr2W2/Zr2W2_beef.save/

     General routines

     Parallel routines

   This run was terminated on:   2:12:46  27Jun2022

   JOB DONE.