     Program PWSCF v.6.6 starts on 11Jul2022 at  4:17:23

     R & G space division:  proc/nbgrp/npool/nimage =      37
     Fft bands division:     nmany     =       1
     Reading input from Zr2Y2.in
Warning: card &CELL ignored
Warning: card / ignored

     Current dimensions of program PWSCF are:
     Max number of different atomic species (ntypx) = 10
     Max number of k-points (npk) =  40000
     Max angular momentum in pseudopotentials (lmaxx) =  3
     Presently stress not available with electric field and gates

     Message from routine cell_base_init:
     DEPRECATED: use true lattice parameter, not A to a.u. conversion factor
     file Zr.pbe-spn-rrkjus_psl.1.0.0.UPF: wavefunction(s)  4S renormalized
     file Y.pbe-spn-rrkjus_psl.1.0.0.UPF: wavefunction(s)  4S renormalized

     IMPORTANT: XC functional enforced from input :
     Exchange-correlation= BEEF-VDW
                           (   1   4  43  14   2   0   0)
     Any further DFT definition will be discarded
     Please, verify this is what you really want

     Subspace diagonalization in iterative solution of the eigenvalue problem:
     a serial algorithm will be used

     Found symmetry operation: I + ( -0.5000  0.0000  0.0000)
     This is a supercell, fractional translations are disabled

     bravais-lattice index     =            0
     lattice parameter (alat)  =       1.8897  a.u.
     unit-cell volume          =    6781.4918 (a.u.)^3
     number of atoms/cell      =           12
     number of atomic types    =            2
     number of electrons       =       138.00
     number of Kohn-Sham states=           83
     kinetic-energy cutoff     =      55.1240  Ry
     charge density cutoff     =     551.2396  Ry
     convergence threshold     =      1.0E-05
     mixing beta               =       0.1000
     number of iterations used =           10  plain     mixing
     Exchange-correlation= BEEF-VDW
                           (   1   4  43  14   2   0   0)

     celldm(1)=   1.889726  celldm(2)=   0.000000  celldm(3)=   0.000000
     celldm(4)=   0.000000  celldm(5)=   0.000000  celldm(6)=   0.000000

     crystal axes: (cart. coord. in units of alat)
               a(1) = (   6.627583   0.000000   0.000000 )
               a(2) = (  -3.313792   5.945491   0.000000 )
               a(3) = (   0.000000   0.000000  25.502680 )

     reciprocal axes: (cart. coord. in units 2 pi/alat)
               b(1) = (  0.150885  0.084097 -0.000000 )
               b(2) = (  0.000000  0.168195  0.000000 )
               b(3) = (  0.000000 -0.000000  0.039212 )

     PseudoPot. # 1 for Zr read from file:
     ../pseudo/Zr.pbe-spn-rrkjus_psl.1.0.0.UPF
     MD5 check sum: 3d17ee99aa1707c2ccb6b09ed65e51a1
     Pseudo is Ultrasoft + core correction, Zval = 12.0
     Generated using "atomic" code by A. Dal Corso v.6.2.2
     Using radial grid of 1225 points,  6 beta functions with:
                l(1) =   0
                l(2) =   0
                l(3) =   1
                l(4) =   1
                l(5) =   2
                l(6) =   2
     Q(r) pseudized with 0 coefficients

     PseudoPot. # 2 for Y  read from file:
     ../pseudo/Y.pbe-spn-rrkjus_psl.1.0.0.UPF
     MD5 check sum: 5fe32e6a006803c2ec2edff47948a3c8
     Pseudo is Ultrasoft + core correction, Zval = 11.0
     Generated using "atomic" code by A. Dal Corso v.6.2.2
     Using radial grid of 1223 points,  6 beta functions with:
                l(1) =   0
                l(2) =   0
                l(3) =   1
                l(4) =   1
                l(5) =   2
                l(6) =   2
     Q(r) pseudized with 0 coefficients

     atomic species   valence    mass     pseudopotential
        Zr            12.00    91.22400     Zr( 1.00)
        Y             11.00    88.90584     Y ( 1.00)

     No symmetry found

   Cartesian axes

     site n.     atom                  positions (alat units)
         1           Zr  tau(   1) = (   0.0000000   0.0000000  10.0000000  )
         2           Zr  tau(   2) = (   3.3137915   0.0000000  10.0000000  )
         3           Y   tau(   3) = (   1.6568958   2.9727457  10.0000000  )
         4           Y   tau(   4) = (  -1.6568958   2.9727457  10.0000000  )
         5           Zr  tau(   5) = (   3.3137915   1.8469817  12.7513402  )
         6           Zr  tau(   6) = (   0.0000000   1.8469817  12.7513402  )
         7           Y   tau(   7) = (  -1.6568958   4.8197275  12.7513402  )
         8           Y   tau(   8) = (   1.6568958   4.8197275  12.7513402  )
         9           Zr  tau(   9) = (  -0.0000014   3.6460840  15.2583379  )
        10           Zr  tau(  10) = (   3.3137781   3.6460906  15.2583442  )
        11           Y   tau(  11) = (   4.9706882   0.7818528  15.5367631  )
        12           Y   tau(  12) = (   1.6568877   0.7818579  15.5367898  )

     number of k points=    74  Fermi-Dirac smearing, width (Ry)=  0.0100
                       cart. coord. in units 2pi/alat
        k(    1) = (   0.0000000   0.0000000   0.0000000), wk =   0.0138889
        k(    2) = (   0.0000000   0.0140162   0.0000000), wk =   0.0277778
        k(    3) = (   0.0000000   0.0280324   0.0000000), wk =   0.0277778
        k(    4) = (   0.0000000   0.0420487   0.0000000), wk =   0.0277778
        k(    5) = (   0.0000000   0.0560649   0.0000000), wk =   0.0277778
        k(    6) = (   0.0000000   0.0700811   0.0000000), wk =   0.0277778
        k(    7) = (   0.0000000  -0.0840973   0.0000000), wk =   0.0138889
        k(    8) = (   0.0125737   0.0070081   0.0000000), wk =   0.0277778
        k(    9) = (   0.0125737   0.0210243   0.0000000), wk =   0.0277778
        k(   10) = (   0.0125737   0.0350406   0.0000000), wk =   0.0277778
        k(   11) = (   0.0125737   0.0490568   0.0000000), wk =   0.0277778
        k(   12) = (   0.0125737   0.0630730   0.0000000), wk =   0.0277778
        k(   13) = (   0.0125737   0.0770892   0.0000000), wk =   0.0277778
        k(   14) = (   0.0125737  -0.0770892   0.0000000), wk =   0.0277778
        k(   15) = (   0.0125737  -0.0630730   0.0000000), wk =   0.0277778
        k(   16) = (   0.0125737  -0.0490568   0.0000000), wk =   0.0277778
        k(   17) = (   0.0125737  -0.0350406   0.0000000), wk =   0.0277778
        k(   18) = (   0.0125737  -0.0210243   0.0000000), wk =   0.0277778
        k(   19) = (   0.0125737  -0.0070081   0.0000000), wk =   0.0277778
        k(   20) = (   0.0251474   0.0140162   0.0000000), wk =   0.0277778
        k(   21) = (   0.0251474   0.0280325   0.0000000), wk =   0.0277778
        k(   22) = (   0.0251474   0.0420487   0.0000000), wk =   0.0277778
        k(   23) = (   0.0251474   0.0560649   0.0000000), wk =   0.0277778
        k(   24) = (   0.0251474   0.0700811   0.0000000), wk =   0.0277778
        k(   25) = (   0.0251474   0.0840973   0.0000000), wk =   0.0277778
        k(   26) = (   0.0251474  -0.0700811   0.0000000), wk =   0.0277778
        k(   27) = (   0.0251474  -0.0560649   0.0000000), wk =   0.0277778
        k(   28) = (   0.0251474  -0.0420487   0.0000000), wk =   0.0277778
        k(   29) = (   0.0251474  -0.0280324   0.0000000), wk =   0.0277778
        k(   30) = (   0.0251474  -0.0140162   0.0000000), wk =   0.0277778
        k(   31) = (   0.0251474   0.0000000   0.0000000), wk =   0.0277778
        k(   32) = (   0.0377211   0.0210243   0.0000000), wk =   0.0277778
        k(   33) = (   0.0377211   0.0350406   0.0000000), wk =   0.0277778
        k(   34) = (   0.0377211   0.0490568   0.0000000), wk =   0.0277778
        k(   35) = (   0.0377211   0.0630730   0.0000000), wk =   0.0277778
        k(   36) = (   0.0377211   0.0770892   0.0000000), wk =   0.0277778
        k(   37) = (   0.0377211   0.0911055   0.0000000), wk =   0.0277778
        k(   38) = (   0.0377211  -0.0630730   0.0000000), wk =   0.0277778
        k(   39) = (   0.0377211  -0.0490568   0.0000000), wk =   0.0277778
        k(   40) = (   0.0377211  -0.0350406   0.0000000), wk =   0.0277778
        k(   41) = (   0.0377211  -0.0210243   0.0000000), wk =   0.0277778
        k(   42) = (   0.0377211  -0.0070081   0.0000000), wk =   0.0277778
        k(   43) = (   0.0377211   0.0070081   0.0000000), wk =   0.0277778
        k(   44) = (   0.0502949   0.0280325   0.0000000), wk =   0.0277778
        k(   45) = (   0.0502949   0.0420487   0.0000000), wk =   0.0277778
        k(   46) = (   0.0502949   0.0560649   0.0000000), wk =   0.0277778
        k(   47) = (   0.0502949   0.0700811   0.0000000), wk =   0.0277778
        k(   48) = (   0.0502949   0.0840973   0.0000000), wk =   0.0277778
        k(   49) = (   0.0502949   0.0981136   0.0000000), wk =   0.0277778
        k(   50) = (   0.0502949  -0.0560649   0.0000000), wk =   0.0277778
        k(   51) = (   0.0502949  -0.0420487   0.0000000), wk =   0.0277778
        k(   52) = (   0.0502949  -0.0280324   0.0000000), wk =   0.0277778
        k(   53) = (   0.0502949  -0.0140162   0.0000000), wk =   0.0277778
        k(   54) = (   0.0502949   0.0000000   0.0000000), wk =   0.0277778
        k(   55) = (   0.0502949   0.0140162   0.0000000), wk =   0.0277778
        k(   56) = (   0.0628686   0.0350406   0.0000000), wk =   0.0277778
        k(   57) = (   0.0628686   0.0490568   0.0000000), wk =   0.0277778
        k(   58) = (   0.0628686   0.0630730   0.0000000), wk =   0.0277778
        k(   59) = (   0.0628686   0.0770892   0.0000000), wk =   0.0277778
        k(   60) = (   0.0628686   0.0911055   0.0000000), wk =   0.0277778
        k(   61) = (   0.0628686   0.1051217   0.0000000), wk =   0.0277778
        k(   62) = (   0.0628686  -0.0490568   0.0000000), wk =   0.0277778
        k(   63) = (   0.0628686  -0.0350406   0.0000000), wk =   0.0277778
        k(   64) = (   0.0628686  -0.0210243   0.0000000), wk =   0.0277778
        k(   65) = (   0.0628686  -0.0070081   0.0000000), wk =   0.0277778
        k(   66) = (   0.0628686   0.0070081   0.0000000), wk =   0.0277778
        k(   67) = (   0.0628686   0.0210243   0.0000000), wk =   0.0277778
        k(   68) = (  -0.0754423  -0.0420487   0.0000000), wk =   0.0138889
        k(   69) = (  -0.0754423  -0.0280325   0.0000000), wk =   0.0277778
        k(   70) = (  -0.0754423  -0.0140162   0.0000000), wk =   0.0277778
        k(   71) = (  -0.0754423  -0.0000000   0.0000000), wk =   0.0277778
        k(   72) = (  -0.0754423   0.0140162   0.0000000), wk =   0.0277778
        k(   73) = (  -0.0754423   0.0280324   0.0000000), wk =   0.0277778
        k(   74) = (  -0.0754423  -0.1261460   0.0000000), wk =   0.0138889

     Initial potential from superposition of free atoms

     starting charge  137.96259, renormalised to  138.00000

     negative rho (up, down):  3.752E-04 0.000E+00

     %%%%%%%%%%%%%%%%%%%%%%%%%%%%%%%%%%%%%%%%%%%%%%%%%%%%%%%%%%%%%%%%%%%%%%%%
     %                                                                      %
     % You are using vdW-DF, which was implemented by the Thonhauser group. %
     % Please cite the following two papers that made this development      %
     % possible and the two reviews that describe the various versions:     %
     %                                                                      %
     %   T. Thonhauser et al., PRL 115, 136402 (2015).                      %
     %   T. Thonhauser et al., PRB 76, 125112 (2007).                       %
     %   K. Berland et al., Rep. Prog. Phys. 78, 066501 (2015).             %
     %   D.C. Langreth et al., J. Phys.: Condens. Matter 21, 084203 (2009). %
     %                                                                      %
     %                                                                      %
     % If you are calculating the stress with vdW-DF, please also cite:     %
     %                                                                      %
     %   R. Sabatini et al., J. Phys.: Condens. Matter 24, 424209 (2012).   %
     %                                                                      %
     %%%%%%%%%%%%%%%%%%%%%%%%%%%%%%%%%%%%%%%%%%%%%%%%%%%%%%%%%%%%%%%%%%%%%%%%

     Adding external electric field

     Computed dipole along edir(3) :
        Dipole                0.0012 Ry au,          0.0029 Debye
        Dipole field          0.0000 Ry au,

        Potential amp.       -0.0002 Ry
        Total length         46.9883 bohr

     Starting wfcs are  156 randomized atomic wfcs

     Self-consistent Calculation

     iteration #  1     ecut=    55.12 Ry     beta= 0.10
     Davidson diagonalization with overlap
     ethr =  1.00E-02,  avg # of iterations =  2.0

[...]

     total energy              =   -1103.81617473 Ry
     estimated scf accuracy    <       7.36625170 Ry

[...]

     iteration # 10     ecut=    55.12 Ry     beta= 0.10
     Davidson diagonalization with overlap
     c_bands:  1 eigenvalues not converged
     c_bands:  1 eigenvalues not converged
     c_bands:  1 eigenvalues not converged
     ethr =  9.93E-06,  avg # of iterations =  7.4

[...]

     iteration # 11     ecut=    55.12 Ry     beta= 0.10
     Davidson diagonalization with overlap
     c_bands:  2 eigenvalues not converged
     c_bands:  1 eigenvalues not converged
     c_bands:  1 eigenvalues not converged
     ethr =  2.65E-06,  avg # of iterations =  7.1

[...]

     total energy              =   -1104.51333479 Ry
     estimated scf accuracy    <       0.00001199 Ry

     iteration # 17     ecut=    55.12 Ry     beta= 0.10
     Davidson diagonalization with overlap
     ethr =  8.69E-09,  avg # of iterations =  4.7

[...]

     Adding external electric field

     Computed dipole along edir(3) :
        Dipole                0.0223 Ry au,          0.0567 Debye
        Dipole field          0.0000 Ry au,

        Potential amp.       -0.0039 Ry
        Total length         46.9883 bohr

     End of self-consistent calculation

          k = 0.0000 0.0000 0.0000 ( 46861 PWs)   bands (ev):

   -48.1940 -48.1648 -48.0001 -47.9703 -47.8078 -47.7783 -41.8396 -41.7898
   -41.7857 -41.7358 -41.0886 -41.0335 -26.2669 -26.2222 -26.1819 -26.1603
   -26.1231 -26.1151 -26.0695 -26.0270 -25.9950 -25.9501 -25.9332 -25.9149
   -25.8063 -25.7626 -25.7586 -25.6539 -25.6181 -25.5771 -22.0594 -22.0153
   -21.8492 -21.8057 -21.7842 -21.7384 -21.7205 -21.6693 -21.6630 -21.6107
   -21.4888 -21.4433 -21.3561 -21.0634 -21.0113 -21.0009 -20.9516 -20.7724
    -3.3424  -2.3207  -1.3605  -0.8070  -0.8011  -0.7977  -0.7478  -0.7438
    -0.6948  -0.3508  -0.3189  -0.2964  -0.0412   0.0134   0.0530   0.6053
     0.7123   0.7344   1.2341   1.3235   1.6081   1.7254   1.8101   1.9165
     2.0190   2.0345   2.1747   2.2084   2.2787   2.4476   2.5045   2.6496
     2.6662   2.6702   2.7080

[...]

          k = 0.0629 0.0210 0.0000 ( 46865 PWs)   bands (ev):

[...]

          k =-0.0754-0.0420 0.0000 ( 46880 PWs)   bands (ev):

[...]

          k =-0.0754-0.1261 0.0000 ( 46880 PWs)   bands (ev):

   -48.1794 -48.1794 -47.9852 -47.9852 -47.7931 -47.7931 -41.8129 -41.8128
   -41.7630 -41.7630 -41.0613 -41.0613 -26.2011 -26.2011 -26.1341 -26.1341
   -26.0924 -26.0924 -26.0473 -26.0473 -25.9694 -25.9694 -25.9443 -25.9443
   -25.7805 -25.7805 -25.7570 -25.7570 -25.6357 -25.6357 -21.8205 -21.8205
   -21.7849 -21.7848 -21.7706 -21.7706 -21.7398 -21.7398 -21.6998 -21.6998
   -21.6474 -21.6474 -21.0753 -21.0753 -21.0323 -21.0323 -20.9875 -20.9875
    -1.9799  -1.9799  -1.0829  -1.0829  -0.3534  -0.3534  -0.2024  -0.2024
    -0.0344  -0.0344   0.5212   0.5212   0.6478   0.6478   0.7774   0.7774
     0.8901   0.8901   0.9892   0.9892   1.1497   1.1497   1.2177   1.2177
     1.3781   1.3781   1.5135   1.5135   1.6673   1.6674   1.8877   1.8877
     2.1654   2.1654   2.2799

     the Fermi energy is     1.2245 ev

!    total energy              =   -1104.51333967 Ry
     estimated scf accuracy    <       0.00000501 Ry
     smearing contrib. (-TS)   =      -0.10120198 Ry
     internal energy E=F+TS    =   -1104.41213769 Ry

     The total energy is F=E-TS. E is the sum of the following terms:
     one-electron contribution =   -6820.52265351 Ry
     hartree contribution      =    3401.98959825 Ry
     xc contribution           =    -222.53014015 Ry
     ewald contribution        =    2536.65105679 Ry
     electric field correction =       0.00000092 Ry

     convergence has been achieved in  17 iterations

     negative rho (up, down):  3.126E-04 0.000E+00

     Forces acting on atoms (cartesian axes, Ry/au):

     atom    1 type  1   force =     0.00000112    0.00735783    0.02277293
     atom    2 type  1   force =     0.00000036    0.00735752    0.02277272
     atom    3 type  2   force =    -0.00000029   -0.00874333   -0.00675936
     atom    4 type  2   force =     0.00000040   -0.00874282   -0.00676152
     atom    5 type  1   force =    -0.00000135   -0.00280121   -0.00297765
     atom    6 type  1   force =     0.00000286   -0.00280242   -0.00297705
     atom    7 type  2   force =    -0.00000138    0.00486978   -0.01149630
     atom    8 type  2   force =    -0.00000086    0.00486836   -0.01149936
     atom    9 type  1   force =    -0.00000076   -0.00017905   -0.00028015
     atom   10 type  1   force =     0.00000244   -0.00017713   -0.00028072
     atom   11 type  2   force =    -0.00000037   -0.00050292   -0.00125694
     atom   12 type  2   force =    -0.00000216   -0.00050461   -0.00125661

     Total force =     0.041700     Total SCF correction =     0.003181

     Writing output data file ./Zr2Y2/Zr2Y2_beef.save/

     General routines

     Parallel routines

   This run was terminated on:   5: 3:10  11Jul2022

   JOB DONE.